3

H 0.0 0.0 -0.7552087201092559
H 0.0 0.0 0.0
H 0.0 0.0 2.4959842047537606
3

H 0.0 0.0 -0.7551912677028186
H 0.0 0.0 0.0
H 0.0 0.0 2.494984357058604
3

H 0.0 0.0 -0.7552087201092559
H 0.0 0.0 0.0
H 0.0 0.0 2.493984509363448
3

H 0.0 0.0 -0.7552087201092559
H 0.0 0.0 0.0
H 0.0 0.0 2.492984509363448
3

H 0.0 0.0 -0.7552261725156931
H 0.0 0.0 0.0
H 0.0 0.0 2.4919846616682912
3

H 0.0 0.0 -0.7552261725156931
H 0.0 0.0 0.0
H 0.0 0.0 2.490984661668292
3

H 0.0 0.0 -0.7552261725156931
H 0.0 0.0 0.0
H 0.0 0.0 2.4899846616682915
3

H 0.0 0.0 -0.7552087201092559
H 0.0 0.0 0.0
H 0.0 0.0 2.488984813973135
3

H 0.0 0.0 -0.7552087201092559
H 0.0 0.0 0.0
H 0.0 0.0 2.487984813973135
3

H 0.0 0.0 -0.7552087201092559
H 0.0 0.0 0.0
H 0.0 0.0 2.486984813973135
3

H 0.0 0.0 -0.7552087201092559
H 0.0 0.0 0.0
H 0.0 0.0 2.4859848139731358
3

H 0.0 0.0 -0.7552087201092559
H 0.0 0.0 0.0
H 0.0 0.0 2.4849848139731354
3

H 0.0 0.0 -0.7552261725156931
H 0.0 0.0 0.0
H 0.0 0.0 2.483984966277979
3

H 0.0 0.0 -0.7552261725156931
H 0.0 0.0 0.0
H 0.0 0.0 2.482984966277979
3

H 0.0 0.0 -0.7552261725156931
H 0.0 0.0 0.0
H 0.0 0.0 2.481984966277979
3

H 0.0 0.0 -0.7552261725156931
H 0.0 0.0 0.0
H 0.0 0.0 2.4809849662779797
3

H 0.0 0.0 -0.7552261725156931
H 0.0 0.0 0.0
H 0.0 0.0 2.47998496627798
3

H 0.0 0.0 -0.7552261725156931
H 0.0 0.0 0.0
H 0.0 0.0 2.4789849662779795
3

H 0.0 0.0 -0.7552261725156931
H 0.0 0.0 0.0
H 0.0 0.0 2.47798496627798
3

H 0.0 0.0 -0.7552261725156931
H 0.0 0.0 0.0
H 0.0 0.0 2.47698496627798
3

H 0.0 0.0 -0.7552261725156931
H 0.0 0.0 0.0
H 0.0 0.0 2.47598496627798
3

H 0.0 0.0 -0.7552261725156931
H 0.0 0.0 0.0
H 0.0 0.0 2.47498496627798
3

H 0.0 0.0 -0.7552261725156931
H 0.0 0.0 0.0
H 0.0 0.0 2.47398496627798
3

H 0.0 0.0 -0.7552261725156931
H 0.0 0.0 0.0
H 0.0 0.0 2.47298496627798
3

H 0.0 0.0 -0.7552261725156931
H 0.0 0.0 0.0
H 0.0 0.0 2.4719849662779803
3

H 0.0 0.0 -0.7552261725156931
H 0.0 0.0 0.0
H 0.0 0.0 2.4709849662779804
3

H 0.0 0.0 -0.7552261725156931
H 0.0 0.0 0.0
H 0.0 0.0 2.4699849662779805
3

H 0.0 0.0 -0.7552261725156931
H 0.0 0.0 0.0
H 0.0 0.0 2.4689849662779806
3

H 0.0 0.0 -0.7552436249221304
H 0.0 0.0 0.0
H 0.0 0.0 2.467985118582824
3

H 0.0 0.0 -0.7552436249221304
H 0.0 0.0 0.0
H 0.0 0.0 2.466985118582824
3

H 0.0 0.0 -0.7552436249221304
H 0.0 0.0 0.0
H 0.0 0.0 2.4659851185828243
3

H 0.0 0.0 -0.7552436249221304
H 0.0 0.0 0.0
H 0.0 0.0 2.4649851185828244
3

H 0.0 0.0 -0.7552436249221304
H 0.0 0.0 0.0
H 0.0 0.0 2.4639851185828245
3

H 0.0 0.0 -0.7552436249221304
H 0.0 0.0 0.0
H 0.0 0.0 2.4629851185828247
3

H 0.0 0.0 -0.7552436249221304
H 0.0 0.0 0.0
H 0.0 0.0 2.4619851185828248
3

H 0.0 0.0 -0.7552436249221304
H 0.0 0.0 0.0
H 0.0 0.0 2.460985118582825
3

H 0.0 0.0 -0.7552436249221304
H 0.0 0.0 0.0
H 0.0 0.0 2.459985118582825
3

H 0.0 0.0 -0.7552436249221304
H 0.0 0.0 0.0
H 0.0 0.0 2.458985118582825
3

H 0.0 0.0 -0.7552436249221304
H 0.0 0.0 0.0
H 0.0 0.0 2.457985118582825
3

H 0.0 0.0 -0.7552436249221304
H 0.0 0.0 0.0
H 0.0 0.0 2.4569851185828253
3

H 0.0 0.0 -0.7552436249221304
H 0.0 0.0 0.0
H 0.0 0.0 2.4559851185828254
3

H 0.0 0.0 -0.7552436249221304
H 0.0 0.0 0.0
H 0.0 0.0 2.454985118582825
3

H 0.0 0.0 -0.7552436249221304
H 0.0 0.0 0.0
H 0.0 0.0 2.4539851185828256
3

H 0.0 0.0 -0.7552436249221304
H 0.0 0.0 0.0
H 0.0 0.0 2.4529851185828258
3

H 0.0 0.0 -0.7552436249221304
H 0.0 0.0 0.0
H 0.0 0.0 2.451985118582826
3

H 0.0 0.0 -0.7552436249221304
H 0.0 0.0 0.0
H 0.0 0.0 2.450985118582826
3

H 0.0 0.0 -0.7552436249221304
H 0.0 0.0 0.0
H 0.0 0.0 2.449985118582826
3

H 0.0 0.0 -0.7552436249221304
H 0.0 0.0 0.0
H 0.0 0.0 2.448985118582826
3

H 0.0 0.0 -0.7552436249221304
H 0.0 0.0 0.0
H 0.0 0.0 2.4479851185828263
3

H 0.0 0.0 -0.7552436249221304
H 0.0 0.0 0.0
H 0.0 0.0 2.4469851185828264
3

H 0.0 0.0 -0.7552436249221304
H 0.0 0.0 0.0
H 0.0 0.0 2.4459851185828265
3

H 0.0 0.0 -0.7552436249221304
H 0.0 0.0 0.0
H 0.0 0.0 2.444985118582826
3

H 0.0 0.0 -0.7552436249221304
H 0.0 0.0 0.0
H 0.0 0.0 2.4439851185828267
3

H 0.0 0.0 -0.7552436249221304
H 0.0 0.0 0.0
H 0.0 0.0 2.442985118582827
3

H 0.0 0.0 -0.7552436249221304
H 0.0 0.0 0.0
H 0.0 0.0 2.441985118582827
3

H 0.0 0.0 -0.7552436249221304
H 0.0 0.0 0.0
H 0.0 0.0 2.440985118582827
3

H 0.0 0.0 -0.7552436249221304
H 0.0 0.0 0.0
H 0.0 0.0 2.439985118582827
3

H 0.0 0.0 -0.7552436249221304
H 0.0 0.0 0.0
H 0.0 0.0 2.4389851185828277
3

H 0.0 0.0 -0.7552436249221304
H 0.0 0.0 0.0
H 0.0 0.0 2.4379851185828274
3

H 0.0 0.0 -0.7552610773285676
H 0.0 0.0 0.0
H 0.0 0.0 2.436985270887671
3

H 0.0 0.0 -0.7552610773285676
H 0.0 0.0 0.0
H 0.0 0.0 2.435985270887671
3

H 0.0 0.0 -0.7552610773285676
H 0.0 0.0 0.0
H 0.0 0.0 2.434985270887671
3

H 0.0 0.0 -0.7552610773285676
H 0.0 0.0 0.0
H 0.0 0.0 2.4339852708876712
3

H 0.0 0.0 -0.7552610773285676
H 0.0 0.0 0.0
H 0.0 0.0 2.432985270887672
3

H 0.0 0.0 -0.7552610773285676
H 0.0 0.0 0.0
H 0.0 0.0 2.4319852708876715
3

H 0.0 0.0 -0.7552610773285676
H 0.0 0.0 0.0
H 0.0 0.0 2.430985270887672
3

H 0.0 0.0 -0.7552610773285676
H 0.0 0.0 0.0
H 0.0 0.0 2.429985270887672
3

H 0.0 0.0 -0.7552610773285676
H 0.0 0.0 0.0
H 0.0 0.0 2.428985270887672
3

H 0.0 0.0 -0.7552610773285676
H 0.0 0.0 0.0
H 0.0 0.0 2.427985270887672
3

H 0.0 0.0 -0.7552610773285676
H 0.0 0.0 0.0
H 0.0 0.0 2.426985270887672
3

H 0.0 0.0 -0.7552610773285676
H 0.0 0.0 0.0
H 0.0 0.0 2.425985270887672
3

H 0.0 0.0 -0.7552610773285676
H 0.0 0.0 0.0
H 0.0 0.0 2.424985270887672
3

H 0.0 0.0 -0.7552610773285676
H 0.0 0.0 0.0
H 0.0 0.0 2.4239852708876723
3

H 0.0 0.0 -0.7552610773285676
H 0.0 0.0 0.0
H 0.0 0.0 2.4229852708876725
3

H 0.0 0.0 -0.7552610773285676
H 0.0 0.0 0.0
H 0.0 0.0 2.421985270887673
3

H 0.0 0.0 -0.7552610773285676
H 0.0 0.0 0.0
H 0.0 0.0 2.4209852708876727
3

H 0.0 0.0 -0.7552610773285676
H 0.0 0.0 0.0
H 0.0 0.0 2.419985270887673
3

H 0.0 0.0 -0.7552610773285676
H 0.0 0.0 0.0
H 0.0 0.0 2.418985270887673
3

H 0.0 0.0 -0.7552610773285676
H 0.0 0.0 0.0
H 0.0 0.0 2.417985270887673
3

H 0.0 0.0 -0.7552610773285676
H 0.0 0.0 0.0
H 0.0 0.0 2.416985270887673
3

H 0.0 0.0 -0.7552610773285676
H 0.0 0.0 0.0
H 0.0 0.0 2.415985270887673
3

H 0.0 0.0 -0.7552610773285676
H 0.0 0.0 0.0
H 0.0 0.0 2.4149852708876733
3

H 0.0 0.0 -0.7552610773285676
H 0.0 0.0 0.0
H 0.0 0.0 2.413985270887673
3

H 0.0 0.0 -0.7552610773285676
H 0.0 0.0 0.0
H 0.0 0.0 2.4129852708876736
3

H 0.0 0.0 -0.7552785297350049
H 0.0 0.0 0.0
H 0.0 0.0 2.411985423192517
3

H 0.0 0.0 -0.7552785297350049
H 0.0 0.0 0.0
H 0.0 0.0 2.410985423192517
3

H 0.0 0.0 -0.7552785297350049
H 0.0 0.0 0.0
H 0.0 0.0 2.4099854231925173
3

H 0.0 0.0 -0.7552785297350049
H 0.0 0.0 0.0
H 0.0 0.0 2.4089854231925174
3

H 0.0 0.0 -0.7552785297350049
H 0.0 0.0 0.0
H 0.0 0.0 2.407985423192517
3

H 0.0 0.0 -0.7552785297350049
H 0.0 0.0 0.0
H 0.0 0.0 2.4069854231925176
3

H 0.0 0.0 -0.7552785297350049
H 0.0 0.0 0.0
H 0.0 0.0 2.4059854231925177
3

H 0.0 0.0 -0.7552785297350049
H 0.0 0.0 0.0
H 0.0 0.0 2.404985423192518
3

H 0.0 0.0 -0.7552785297350049
H 0.0 0.0 0.0
H 0.0 0.0 2.403985423192518
3

H 0.0 0.0 -0.7552785297350049
H 0.0 0.0 0.0
H 0.0 0.0 2.402985423192518
3

H 0.0 0.0 -0.7552785297350049
H 0.0 0.0 0.0
H 0.0 0.0 2.401985423192518
3

H 0.0 0.0 -0.7552785297350049
H 0.0 0.0 0.0
H 0.0 0.0 2.4009854231925183
3

H 0.0 0.0 -0.7552785297350049
H 0.0 0.0 0.0
H 0.0 0.0 2.3999854231925184
3

H 0.0 0.0 -0.7552785297350049
H 0.0 0.0 0.0
H 0.0 0.0 2.3989854231925185
3

H 0.0 0.0 -0.7552785297350049
H 0.0 0.0 0.0
H 0.0 0.0 2.3979854231925186
3

H 0.0 0.0 -0.7552785297350049
H 0.0 0.0 0.0
H 0.0 0.0 2.3969854231925187
3

H 0.0 0.0 -0.7552785297350049
H 0.0 0.0 0.0
H 0.0 0.0 2.395985423192519
3

H 0.0 0.0 -0.7552785297350049
H 0.0 0.0 0.0
H 0.0 0.0 2.394985423192519
3

H 0.0 0.0 -0.7552785297350049
H 0.0 0.0 0.0
H 0.0 0.0 2.393985423192519
3

H 0.0 0.0 -0.7552785297350049
H 0.0 0.0 0.0
H 0.0 0.0 2.392985423192519
3

H 0.0 0.0 -0.7552785297350049
H 0.0 0.0 0.0
H 0.0 0.0 2.3919854231925197
3

H 0.0 0.0 -0.7552785297350049
H 0.0 0.0 0.0
H 0.0 0.0 2.3909854231925194
3

H 0.0 0.0 -0.7552785297350049
H 0.0 0.0 0.0
H 0.0 0.0 2.3899854231925195
3

H 0.0 0.0 -0.7552959821414421
H 0.0 0.0 0.0
H 0.0 0.0 2.388985575497363
3

H 0.0 0.0 -0.7552959821414421
H 0.0 0.0 0.0
H 0.0 0.0 2.387985575497363
3

H 0.0 0.0 -0.7552959821414421
H 0.0 0.0 0.0
H 0.0 0.0 2.3869855754973632
3

H 0.0 0.0 -0.7552959821414421
H 0.0 0.0 0.0
H 0.0 0.0 2.385985575497364
3

H 0.0 0.0 -0.7552959821414421
H 0.0 0.0 0.0
H 0.0 0.0 2.3849855754973635
3

H 0.0 0.0 -0.7552959821414421
H 0.0 0.0 0.0
H 0.0 0.0 2.383985575497364
3

H 0.0 0.0 -0.7552959821414421
H 0.0 0.0 0.0
H 0.0 0.0 2.382985575497364
3

H 0.0 0.0 -0.7552959821414421
H 0.0 0.0 0.0
H 0.0 0.0 2.381985575497364
3

H 0.0 0.0 -0.7552959821414421
H 0.0 0.0 0.0
H 0.0 0.0 2.380985575497364
3

H 0.0 0.0 -0.7552959821414421
H 0.0 0.0 0.0
H 0.0 0.0 2.379985575497364
3

H 0.0 0.0 -0.7552959821414421
H 0.0 0.0 0.0
H 0.0 0.0 2.378985575497364
3

H 0.0 0.0 -0.7552959821414421
H 0.0 0.0 0.0
H 0.0 0.0 2.377985575497364
3

H 0.0 0.0 -0.7552959821414421
H 0.0 0.0 0.0
H 0.0 0.0 2.3769855754973643
3

H 0.0 0.0 -0.7552959821414421
H 0.0 0.0 0.0
H 0.0 0.0 2.3759855754973644
3

H 0.0 0.0 -0.7552959821414421
H 0.0 0.0 0.0
H 0.0 0.0 2.374985575497365
3

H 0.0 0.0 -0.7552959821414421
H 0.0 0.0 0.0
H 0.0 0.0 2.3739855754973647
3

H 0.0 0.0 -0.7552959821414421
H 0.0 0.0 0.0
H 0.0 0.0 2.3729855754973648
3

H 0.0 0.0 -0.7552959821414421
H 0.0 0.0 0.0
H 0.0 0.0 2.371985575497365
3

H 0.0 0.0 -0.7552959821414421
H 0.0 0.0 0.0
H 0.0 0.0 2.370985575497365
3

H 0.0 0.0 -0.7552959821414421
H 0.0 0.0 0.0
H 0.0 0.0 2.369985575497365
3

H 0.0 0.0 -0.7553134345478794
H 0.0 0.0 0.0
H 0.0 0.0 2.3689857278022086
3

H 0.0 0.0 -0.7553134345478794
H 0.0 0.0 0.0
H 0.0 0.0 2.3679857278022087
3

H 0.0 0.0 -0.7553134345478794
H 0.0 0.0 0.0
H 0.0 0.0 2.366985727802209
3

H 0.0 0.0 -0.7553134345478794
H 0.0 0.0 0.0
H 0.0 0.0 2.365985727802209
3

H 0.0 0.0 -0.7553134345478794
H 0.0 0.0 0.0
H 0.0 0.0 2.364985727802209
3

H 0.0 0.0 -0.7553134345478794
H 0.0 0.0 0.0
H 0.0 0.0 2.363985727802209
3

H 0.0 0.0 -0.7553134345478794
H 0.0 0.0 0.0
H 0.0 0.0 2.3629857278022093
3

H 0.0 0.0 -0.7553134345478794
H 0.0 0.0 0.0
H 0.0 0.0 2.3619857278022094
3

H 0.0 0.0 -0.7553134345478794
H 0.0 0.0 0.0
H 0.0 0.0 2.360985727802209
3

H 0.0 0.0 -0.7553134345478794
H 0.0 0.0 0.0
H 0.0 0.0 2.3599857278022096
3

H 0.0 0.0 -0.7553134345478794
H 0.0 0.0 0.0
H 0.0 0.0 2.3589857278022097
3

H 0.0 0.0 -0.7553134345478794
H 0.0 0.0 0.0
H 0.0 0.0 2.35798572780221
3

H 0.0 0.0 -0.7553134345478794
H 0.0 0.0 0.0
H 0.0 0.0 2.35698572780221
3

H 0.0 0.0 -0.7553134345478794
H 0.0 0.0 0.0
H 0.0 0.0 2.35598572780221
3

H 0.0 0.0 -0.7553134345478794
H 0.0 0.0 0.0
H 0.0 0.0 2.35498572780221
3

H 0.0 0.0 -0.7553134345478794
H 0.0 0.0 0.0
H 0.0 0.0 2.3539857278022103
3

H 0.0 0.0 -0.7553134345478794
H 0.0 0.0 0.0
H 0.0 0.0 2.3529857278022104
3

H 0.0 0.0 -0.7553134345478794
H 0.0 0.0 0.0
H 0.0 0.0 2.3519857278022105
3

H 0.0 0.0 -0.7553134345478794
H 0.0 0.0 0.0
H 0.0 0.0 2.3509857278022106
3

H 0.0 0.0 -0.7553308869543166
H 0.0 0.0 0.0
H 0.0 0.0 2.349985880107054
3

H 0.0 0.0 -0.7553308869543166
H 0.0 0.0 0.0
H 0.0 0.0 2.3489858801070542
3

H 0.0 0.0 -0.7553308869543166
H 0.0 0.0 0.0
H 0.0 0.0 2.3479858801070543
3

H 0.0 0.0 -0.7553308869543166
H 0.0 0.0 0.0
H 0.0 0.0 2.3469858801070544
3

H 0.0 0.0 -0.7553308869543166
H 0.0 0.0 0.0
H 0.0 0.0 2.3459858801070546
3

H 0.0 0.0 -0.7553308869543166
H 0.0 0.0 0.0
H 0.0 0.0 2.3449858801070547
3

H 0.0 0.0 -0.7553308869543166
H 0.0 0.0 0.0
H 0.0 0.0 2.3439858801070548
3

H 0.0 0.0 -0.7553308869543166
H 0.0 0.0 0.0
H 0.0 0.0 2.342985880107055
3

H 0.0 0.0 -0.7553308869543166
H 0.0 0.0 0.0
H 0.0 0.0 2.341985880107055
3

H 0.0 0.0 -0.7553308869543166
H 0.0 0.0 0.0
H 0.0 0.0 2.340985880107055
3

H 0.0 0.0 -0.7553308869543166
H 0.0 0.0 0.0
H 0.0 0.0 2.339985880107055
3

H 0.0 0.0 -0.7553308869543166
H 0.0 0.0 0.0
H 0.0 0.0 2.3389858801070558
3

H 0.0 0.0 -0.7553308869543166
H 0.0 0.0 0.0
H 0.0 0.0 2.3379858801070554
3

H 0.0 0.0 -0.7553308869543166
H 0.0 0.0 0.0
H 0.0 0.0 2.3369858801070555
3

H 0.0 0.0 -0.7553308869543166
H 0.0 0.0 0.0
H 0.0 0.0 2.335985880107056
3

H 0.0 0.0 -0.7553308869543166
H 0.0 0.0 0.0
H 0.0 0.0 2.334985880107056
3

H 0.0 0.0 -0.7553483393607539
H 0.0 0.0 0.0
H 0.0 0.0 2.3339860324118997
3

H 0.0 0.0 -0.7553483393607539
H 0.0 0.0 0.0
H 0.0 0.0 2.3329860324118994
3

H 0.0 0.0 -0.7553483393607539
H 0.0 0.0 0.0
H 0.0 0.0 2.3319860324118995
3

H 0.0 0.0 -0.7553483393607539
H 0.0 0.0 0.0
H 0.0 0.0 2.3309860324119
3

H 0.0 0.0 -0.7553483393607539
H 0.0 0.0 0.0
H 0.0 0.0 2.3299860324119
3

H 0.0 0.0 -0.7553483393607539
H 0.0 0.0 0.0
H 0.0 0.0 2.3289860324119
3

H 0.0 0.0 -0.7553483393607539
H 0.0 0.0 0.0
H 0.0 0.0 2.3279860324119
3

H 0.0 0.0 -0.7553483393607539
H 0.0 0.0 0.0
H 0.0 0.0 2.3269860324119
3

H 0.0 0.0 -0.7553483393607539
H 0.0 0.0 0.0
H 0.0 0.0 2.3259860324119
3

H 0.0 0.0 -0.7553483393607539
H 0.0 0.0 0.0
H 0.0 0.0 2.3249860324119003
3

H 0.0 0.0 -0.7553483393607539
H 0.0 0.0 0.0
H 0.0 0.0 2.3239860324119004
3

H 0.0 0.0 -0.7553483393607539
H 0.0 0.0 0.0
H 0.0 0.0 2.3229860324119005
3

H 0.0 0.0 -0.7553483393607539
H 0.0 0.0 0.0
H 0.0 0.0 2.3219860324119006
3

H 0.0 0.0 -0.7553483393607539
H 0.0 0.0 0.0
H 0.0 0.0 2.3209860324119007
3

H 0.0 0.0 -0.7553483393607539
H 0.0 0.0 0.0
H 0.0 0.0 2.319986032411901
3

H 0.0 0.0 -0.7553483393607539
H 0.0 0.0 0.0
H 0.0 0.0 2.318986032411901
3

H 0.0 0.0 -0.7553657917671911
H 0.0 0.0 0.0
H 0.0 0.0 2.3179861847167444
3

H 0.0 0.0 -0.7553657917671911
H 0.0 0.0 0.0
H 0.0 0.0 2.316986184716745
3

H 0.0 0.0 -0.7553657917671911
H 0.0 0.0 0.0
H 0.0 0.0 2.3159861847167447
3

H 0.0 0.0 -0.7553657917671911
H 0.0 0.0 0.0
H 0.0 0.0 2.3149861847167448
3

H 0.0 0.0 -0.7553657917671911
H 0.0 0.0 0.0
H 0.0 0.0 2.313986184716745
3

H 0.0 0.0 -0.7553657917671911
H 0.0 0.0 0.0
H 0.0 0.0 2.312986184716745
3

H 0.0 0.0 -0.7553657917671911
H 0.0 0.0 0.0
H 0.0 0.0 2.311986184716745
3

H 0.0 0.0 -0.7553657917671911
H 0.0 0.0 0.0
H 0.0 0.0 2.310986184716745
3

H 0.0 0.0 -0.7553657917671911
H 0.0 0.0 0.0
H 0.0 0.0 2.3099861847167453
3

H 0.0 0.0 -0.7553657917671911
H 0.0 0.0 0.0
H 0.0 0.0 2.308986184716745
3

H 0.0 0.0 -0.7553657917671911
H 0.0 0.0 0.0
H 0.0 0.0 2.307986184716745
3

H 0.0 0.0 -0.7553657917671911
H 0.0 0.0 0.0
H 0.0 0.0 2.3069861847167457
3

H 0.0 0.0 -0.7553657917671911
H 0.0 0.0 0.0
H 0.0 0.0 2.3059861847167458
3

H 0.0 0.0 -0.7553657917671911
H 0.0 0.0 0.0
H 0.0 0.0 2.304986184716746
3

H 0.0 0.0 -0.7553832441736283
H 0.0 0.0 0.0
H 0.0 0.0 2.3039863370215894
3

H 0.0 0.0 -0.7553832441736283
H 0.0 0.0 0.0
H 0.0 0.0 2.302986337021589
3

H 0.0 0.0 -0.7553832441736283
H 0.0 0.0 0.0
H 0.0 0.0 2.3019863370215896
3

H 0.0 0.0 -0.7553832441736283
H 0.0 0.0 0.0
H 0.0 0.0 2.3009863370215897
3

H 0.0 0.0 -0.7553832441736283
H 0.0 0.0 0.0
H 0.0 0.0 2.29998633702159
3

H 0.0 0.0 -0.7553832441736283
H 0.0 0.0 0.0
H 0.0 0.0 2.29898633702159
3

H 0.0 0.0 -0.7553832441736283
H 0.0 0.0 0.0
H 0.0 0.0 2.29798633702159
3

H 0.0 0.0 -0.7553832441736283
H 0.0 0.0 0.0
H 0.0 0.0 2.29698633702159
3

H 0.0 0.0 -0.7553832441736283
H 0.0 0.0 0.0
H 0.0 0.0 2.2959863370215903
3

H 0.0 0.0 -0.7553832441736283
H 0.0 0.0 0.0
H 0.0 0.0 2.2949863370215904
3

H 0.0 0.0 -0.7553832441736283
H 0.0 0.0 0.0
H 0.0 0.0 2.2939863370215905
3

H 0.0 0.0 -0.7553832441736283
H 0.0 0.0 0.0
H 0.0 0.0 2.2929863370215906
3

H 0.0 0.0 -0.7553832441736283
H 0.0 0.0 0.0
H 0.0 0.0 2.2919863370215907
3

H 0.0 0.0 -0.7553832441736283
H 0.0 0.0 0.0
H 0.0 0.0 2.290986337021591
3

H 0.0 0.0 -0.7554006965800656
H 0.0 0.0 0.0
H 0.0 0.0 2.2899864893264343
3

H 0.0 0.0 -0.7554006965800656
H 0.0 0.0 0.0
H 0.0 0.0 2.2889864893264344
3

H 0.0 0.0 -0.7554006965800656
H 0.0 0.0 0.0
H 0.0 0.0 2.2879864893264346
3

H 0.0 0.0 -0.7554006965800656
H 0.0 0.0 0.0
H 0.0 0.0 2.2869864893264347
3

H 0.0 0.0 -0.7554006965800656
H 0.0 0.0 0.0
H 0.0 0.0 2.285986489326435
3

H 0.0 0.0 -0.7554006965800656
H 0.0 0.0 0.0
H 0.0 0.0 2.284986489326435
3

H 0.0 0.0 -0.7554006965800656
H 0.0 0.0 0.0
H 0.0 0.0 2.283986489326435
3

H 0.0 0.0 -0.7554006965800656
H 0.0 0.0 0.0
H 0.0 0.0 2.282986489326435
3

H 0.0 0.0 -0.7554006965800656
H 0.0 0.0 0.0
H 0.0 0.0 2.281986489326435
3

H 0.0 0.0 -0.7554006965800656
H 0.0 0.0 0.0
H 0.0 0.0 2.2809864893264358
3

H 0.0 0.0 -0.7554006965800656
H 0.0 0.0 0.0
H 0.0 0.0 2.2799864893264354
3

H 0.0 0.0 -0.7554006965800656
H 0.0 0.0 0.0
H 0.0 0.0 2.2789864893264355
3

H 0.0 0.0 -0.7554181489865028
H 0.0 0.0 0.0
H 0.0 0.0 2.277986641631279
3

H 0.0 0.0 -0.7554181489865028
H 0.0 0.0 0.0
H 0.0 0.0 2.276986641631279
3

H 0.0 0.0 -0.7554181489865028
H 0.0 0.0 0.0
H 0.0 0.0 2.2759866416312797
3

H 0.0 0.0 -0.7554181489865028
H 0.0 0.0 0.0
H 0.0 0.0 2.2749866416312794
3

H 0.0 0.0 -0.7554181489865028
H 0.0 0.0 0.0
H 0.0 0.0 2.2739866416312795
3

H 0.0 0.0 -0.7554181489865028
H 0.0 0.0 0.0
H 0.0 0.0 2.27298664163128
3

H 0.0 0.0 -0.7554181489865028
H 0.0 0.0 0.0
H 0.0 0.0 2.27198664163128
3

H 0.0 0.0 -0.7554181489865028
H 0.0 0.0 0.0
H 0.0 0.0 2.27098664163128
3

H 0.0 0.0 -0.7554181489865028
H 0.0 0.0 0.0
H 0.0 0.0 2.26998664163128
3

H 0.0 0.0 -0.7554181489865028
H 0.0 0.0 0.0
H 0.0 0.0 2.26898664163128
3

H 0.0 0.0 -0.7554181489865028
H 0.0 0.0 0.0
H 0.0 0.0 2.26798664163128
3

H 0.0 0.0 -0.7554181489865028
H 0.0 0.0 0.0
H 0.0 0.0 2.2669866416312803
3

H 0.0 0.0 -0.7554356013929401
H 0.0 0.0 0.0
H 0.0 0.0 2.265986793936124
3

H 0.0 0.0 -0.7554356013929401
H 0.0 0.0 0.0
H 0.0 0.0 2.264986793936124
3

H 0.0 0.0 -0.7554356013929401
H 0.0 0.0 0.0
H 0.0 0.0 2.263986793936124
3

H 0.0 0.0 -0.7554356013929401
H 0.0 0.0 0.0
H 0.0 0.0 2.262986793936124
3

H 0.0 0.0 -0.7554356013929401
H 0.0 0.0 0.0
H 0.0 0.0 2.261986793936124
3

H 0.0 0.0 -0.7554356013929401
H 0.0 0.0 0.0
H 0.0 0.0 2.2609867939361243
3

H 0.0 0.0 -0.7554356013929401
H 0.0 0.0 0.0
H 0.0 0.0 2.2599867939361244
3

H 0.0 0.0 -0.7554356013929401
H 0.0 0.0 0.0
H 0.0 0.0 2.258986793936125
3

H 0.0 0.0 -0.7554356013929401
H 0.0 0.0 0.0
H 0.0 0.0 2.2579867939361247
3

H 0.0 0.0 -0.7554356013929401
H 0.0 0.0 0.0
H 0.0 0.0 2.256986793936125
3

H 0.0 0.0 -0.7554356013929401
H 0.0 0.0 0.0
H 0.0 0.0 2.255986793936125
3

H 0.0 0.0 -0.7554530537993773
H 0.0 0.0 0.0
H 0.0 0.0 2.2549869462409684
3

H 0.0 0.0 -0.7554530537993773
H 0.0 0.0 0.0
H 0.0 0.0 2.2539869462409685
3

H 0.0 0.0 -0.7554530537993773
H 0.0 0.0 0.0
H 0.0 0.0 2.2529869462409686
3

H 0.0 0.0 -0.7554530537993773
H 0.0 0.0 0.0
H 0.0 0.0 2.2519869462409687
3

H 0.0 0.0 -0.7554530537993773
H 0.0 0.0 0.0
H 0.0 0.0 2.250986946240969
3

H 0.0 0.0 -0.7554530537993773
H 0.0 0.0 0.0
H 0.0 0.0 2.249986946240969
3

H 0.0 0.0 -0.7554530537993773
H 0.0 0.0 0.0
H 0.0 0.0 2.248986946240969
3

H 0.0 0.0 -0.7554530537993773
H 0.0 0.0 0.0
H 0.0 0.0 2.247986946240969
3

H 0.0 0.0 -0.7554530537993773
H 0.0 0.0 0.0
H 0.0 0.0 2.2469869462409693
3

H 0.0 0.0 -0.7554530537993773
H 0.0 0.0 0.0
H 0.0 0.0 2.2459869462409694
3

H 0.0 0.0 -0.7554530537993773
H 0.0 0.0 0.0
H 0.0 0.0 2.244986946240969
3

H 0.0 0.0 -0.7554705062058146
H 0.0 0.0 0.0
H 0.0 0.0 2.243987098545813
3

H 0.0 0.0 -0.7554705062058146
H 0.0 0.0 0.0
H 0.0 0.0 2.242987098545813
3

H 0.0 0.0 -0.7554705062058146
H 0.0 0.0 0.0
H 0.0 0.0 2.241987098545813
3

H 0.0 0.0 -0.7554705062058146
H 0.0 0.0 0.0
H 0.0 0.0 2.2409870985458133
3

H 0.0 0.0 -0.7554705062058146
H 0.0 0.0 0.0
H 0.0 0.0 2.239987098545813
3

H 0.0 0.0 -0.7554705062058146
H 0.0 0.0 0.0
H 0.0 0.0 2.2389870985458136
3

H 0.0 0.0 -0.7554705062058146
H 0.0 0.0 0.0
H 0.0 0.0 2.2379870985458137
3

H 0.0 0.0 -0.7554705062058146
H 0.0 0.0 0.0
H 0.0 0.0 2.236987098545814
3

H 0.0 0.0 -0.7554705062058146
H 0.0 0.0 0.0
H 0.0 0.0 2.235987098545814
3

H 0.0 0.0 -0.7554705062058146
H 0.0 0.0 0.0
H 0.0 0.0 2.234987098545814
3

H 0.0 0.0 -0.7554879586122518
H 0.0 0.0 0.0
H 0.0 0.0 2.233987250850657
3

H 0.0 0.0 -0.7554879586122518
H 0.0 0.0 0.0
H 0.0 0.0 2.2329872508506576
3

H 0.0 0.0 -0.7554879586122518
H 0.0 0.0 0.0
H 0.0 0.0 2.2319872508506577
3

H 0.0 0.0 -0.7554879586122518
H 0.0 0.0 0.0
H 0.0 0.0 2.230987250850658
3

H 0.0 0.0 -0.7554879586122518
H 0.0 0.0 0.0
H 0.0 0.0 2.229987250850658
3

H 0.0 0.0 -0.7554879586122518
H 0.0 0.0 0.0
H 0.0 0.0 2.228987250850658
3

H 0.0 0.0 -0.7554879586122518
H 0.0 0.0 0.0
H 0.0 0.0 2.227987250850658
3

H 0.0 0.0 -0.7554879586122518
H 0.0 0.0 0.0
H 0.0 0.0 2.2269872508506583
3

H 0.0 0.0 -0.7554879586122518
H 0.0 0.0 0.0
H 0.0 0.0 2.2259872508506584
3

H 0.0 0.0 -0.7554879586122518
H 0.0 0.0 0.0
H 0.0 0.0 2.2249872508506585
3

H 0.0 0.0 -0.7555054110186891
H 0.0 0.0 0.0
H 0.0 0.0 2.223987403155502
3

H 0.0 0.0 -0.7555054110186891
H 0.0 0.0 0.0
H 0.0 0.0 2.222987403155502
3

H 0.0 0.0 -0.7555054110186891
H 0.0 0.0 0.0
H 0.0 0.0 2.2219874031555022
3

H 0.0 0.0 -0.7555054110186891
H 0.0 0.0 0.0
H 0.0 0.0 2.2209874031555024
3

H 0.0 0.0 -0.7555054110186891
H 0.0 0.0 0.0
H 0.0 0.0 2.2199874031555025
3

H 0.0 0.0 -0.7555054110186891
H 0.0 0.0 0.0
H 0.0 0.0 2.2189874031555026
3

H 0.0 0.0 -0.7555054110186891
H 0.0 0.0 0.0
H 0.0 0.0 2.2179874031555027
3

H 0.0 0.0 -0.7555054110186891
H 0.0 0.0 0.0
H 0.0 0.0 2.216987403155503
3

H 0.0 0.0 -0.7555054110186891
H 0.0 0.0 0.0
H 0.0 0.0 2.215987403155503
3

H 0.0 0.0 -0.7555228634251263
H 0.0 0.0 0.0
H 0.0 0.0 2.2149875554603464
3

H 0.0 0.0 -0.7555228634251263
H 0.0 0.0 0.0
H 0.0 0.0 2.2139875554603465
3

H 0.0 0.0 -0.7555228634251263
H 0.0 0.0 0.0
H 0.0 0.0 2.212987555460346
3

H 0.0 0.0 -0.7555228634251263
H 0.0 0.0 0.0
H 0.0 0.0 2.2119875554603468
3

H 0.0 0.0 -0.7555228634251263
H 0.0 0.0 0.0
H 0.0 0.0 2.210987555460347
3

H 0.0 0.0 -0.7555228634251263
H 0.0 0.0 0.0
H 0.0 0.0 2.209987555460347
3

H 0.0 0.0 -0.7555228634251263
H 0.0 0.0 0.0
H 0.0 0.0 2.208987555460347
3

H 0.0 0.0 -0.7555228634251263
H 0.0 0.0 0.0
H 0.0 0.0 2.207987555460347
3

H 0.0 0.0 -0.7555228634251263
H 0.0 0.0 0.0
H 0.0 0.0 2.2069875554603477
3

H 0.0 0.0 -0.7555403158315636
H 0.0 0.0 0.0
H 0.0 0.0 2.205987707765191
3

H 0.0 0.0 -0.7555403158315636
H 0.0 0.0 0.0
H 0.0 0.0 2.204987707765191
3

H 0.0 0.0 -0.7555403158315636
H 0.0 0.0 0.0
H 0.0 0.0 2.203987707765191
3

H 0.0 0.0 -0.7555403158315636
H 0.0 0.0 0.0
H 0.0 0.0 2.202987707765191
3

H 0.0 0.0 -0.7555403158315636
H 0.0 0.0 0.0
H 0.0 0.0 2.2019877077651917
3

H 0.0 0.0 -0.7555403158315636
H 0.0 0.0 0.0
H 0.0 0.0 2.200987707765192
3

H 0.0 0.0 -0.7555403158315636
H 0.0 0.0 0.0
H 0.0 0.0 2.1999877077651915
3

H 0.0 0.0 -0.7555403158315636
H 0.0 0.0 0.0
H 0.0 0.0 2.198987707765192
3

H 0.0 0.0 -0.7555577682380008
H 0.0 0.0 0.0
H 0.0 0.0 2.197987860070035
3

H 0.0 0.0 -0.7555577682380008
H 0.0 0.0 0.0
H 0.0 0.0 2.196987860070035
3

H 0.0 0.0 -0.7555577682380008
H 0.0 0.0 0.0
H 0.0 0.0 2.1959878600700358
3

H 0.0 0.0 -0.7555577682380008
H 0.0 0.0 0.0
H 0.0 0.0 2.1949878600700354
3

H 0.0 0.0 -0.7555577682380008
H 0.0 0.0 0.0
H 0.0 0.0 2.1939878600700355
3

H 0.0 0.0 -0.7555577682380008
H 0.0 0.0 0.0
H 0.0 0.0 2.192987860070036
3

H 0.0 0.0 -0.7555577682380008
H 0.0 0.0 0.0
H 0.0 0.0 2.191987860070036
3

H 0.0 0.0 -0.7555577682380008
H 0.0 0.0 0.0
H 0.0 0.0 2.190987860070036
3

H 0.0 0.0 -0.755575220644438
H 0.0 0.0 0.0
H 0.0 0.0 2.1899880123748794
3

H 0.0 0.0 -0.755575220644438
H 0.0 0.0 0.0
H 0.0 0.0 2.1889880123748795
3

H 0.0 0.0 -0.755575220644438
H 0.0 0.0 0.0
H 0.0 0.0 2.18798801237488
3

H 0.0 0.0 -0.755575220644438
H 0.0 0.0 0.0
H 0.0 0.0 2.18698801237488
3

H 0.0 0.0 -0.755575220644438
H 0.0 0.0 0.0
H 0.0 0.0 2.18598801237488
3

H 0.0 0.0 -0.755575220644438
H 0.0 0.0 0.0
H 0.0 0.0 2.18498801237488
3

H 0.0 0.0 -0.755575220644438
H 0.0 0.0 0.0
H 0.0 0.0 2.18398801237488
3

H 0.0 0.0 -0.755575220644438
H 0.0 0.0 0.0
H 0.0 0.0 2.18298801237488
3

H 0.0 0.0 -0.7555926730508753
H 0.0 0.0 0.0
H 0.0 0.0 2.181988164679724
3

H 0.0 0.0 -0.7555926730508753
H 0.0 0.0 0.0
H 0.0 0.0 2.180988164679724
3

H 0.0 0.0 -0.7555926730508753
H 0.0 0.0 0.0
H 0.0 0.0 2.179988164679724
3

H 0.0 0.0 -0.7555926730508753
H 0.0 0.0 0.0
H 0.0 0.0 2.178988164679724
3

H 0.0 0.0 -0.7555926730508753
H 0.0 0.0 0.0
H 0.0 0.0 2.177988164679724
3

H 0.0 0.0 -0.7555926730508753
H 0.0 0.0 0.0
H 0.0 0.0 2.176988164679724
3

H 0.0 0.0 -0.7555926730508753
H 0.0 0.0 0.0
H 0.0 0.0 2.1759881646797243
3

H 0.0 0.0 -0.7555926730508753
H 0.0 0.0 0.0
H 0.0 0.0 2.1749881646797244
3

H 0.0 0.0 -0.7556101254573125
H 0.0 0.0 0.0
H 0.0 0.0 2.173988316984568
3

H 0.0 0.0 -0.7556101254573125
H 0.0 0.0 0.0
H 0.0 0.0 2.172988316984568
3

H 0.0 0.0 -0.7556101254573125
H 0.0 0.0 0.0
H 0.0 0.0 2.171988316984568
3

H 0.0 0.0 -0.7556101254573125
H 0.0 0.0 0.0
H 0.0 0.0 2.1709883169845683
3

H 0.0 0.0 -0.7556101254573125
H 0.0 0.0 0.0
H 0.0 0.0 2.1699883169845684
3

H 0.0 0.0 -0.7556101254573125
H 0.0 0.0 0.0
H 0.0 0.0 2.1689883169845685
3

H 0.0 0.0 -0.7556101254573125
H 0.0 0.0 0.0
H 0.0 0.0 2.1679883169845686
3

H 0.0 0.0 -0.7556275778637498
H 0.0 0.0 0.0
H 0.0 0.0 2.166988469289412
3

H 0.0 0.0 -0.7556275778637498
H 0.0 0.0 0.0
H 0.0 0.0 2.165988469289412
3

H 0.0 0.0 -0.7556275778637498
H 0.0 0.0 0.0
H 0.0 0.0 2.1649884692894124
3

H 0.0 0.0 -0.7556275778637498
H 0.0 0.0 0.0
H 0.0 0.0 2.1639884692894125
3

H 0.0 0.0 -0.7556275778637498
H 0.0 0.0 0.0
H 0.0 0.0 2.162988469289413
3

H 0.0 0.0 -0.7556275778637498
H 0.0 0.0 0.0
H 0.0 0.0 2.1619884692894127
3

H 0.0 0.0 -0.7556275778637498
H 0.0 0.0 0.0
H 0.0 0.0 2.160988469289413
3

H 0.0 0.0 -0.755645030270187
H 0.0 0.0 0.0
H 0.0 0.0 2.1599886215942563
3

H 0.0 0.0 -0.755645030270187
H 0.0 0.0 0.0
H 0.0 0.0 2.1589886215942564
3

H 0.0 0.0 -0.755645030270187
H 0.0 0.0 0.0
H 0.0 0.0 2.1579886215942565
3

H 0.0 0.0 -0.755645030270187
H 0.0 0.0 0.0
H 0.0 0.0 2.1569886215942566
3

H 0.0 0.0 -0.755645030270187
H 0.0 0.0 0.0
H 0.0 0.0 2.1559886215942567
3

H 0.0 0.0 -0.755645030270187
H 0.0 0.0 0.0
H 0.0 0.0 2.154988621594257
3

H 0.0 0.0 -0.755645030270187
H 0.0 0.0 0.0
H 0.0 0.0 2.153988621594257
3

H 0.0 0.0 -0.7556624826766243
H 0.0 0.0 0.0
H 0.0 0.0 2.1529887738991005
3

H 0.0 0.0 -0.7556624826766243
H 0.0 0.0 0.0
H 0.0 0.0 2.1519887738991006
3

H 0.0 0.0 -0.7556624826766243
H 0.0 0.0 0.0
H 0.0 0.0 2.1509887738991007
3

H 0.0 0.0 -0.7556624826766243
H 0.0 0.0 0.0
H 0.0 0.0 2.149988773899101
3

H 0.0 0.0 -0.7556624826766243
H 0.0 0.0 0.0
H 0.0 0.0 2.148988773899101
3

H 0.0 0.0 -0.7556624826766243
H 0.0 0.0 0.0
H 0.0 0.0 2.147988773899101
3

H 0.0 0.0 -0.7556799350830615
H 0.0 0.0 0.0
H 0.0 0.0 2.1469889262039445
3

H 0.0 0.0 -0.7556799350830615
H 0.0 0.0 0.0
H 0.0 0.0 2.1459889262039447
3

H 0.0 0.0 -0.7556799350830615
H 0.0 0.0 0.0
H 0.0 0.0 2.1449889262039448
3

H 0.0 0.0 -0.7556799350830615
H 0.0 0.0 0.0
H 0.0 0.0 2.143988926203945
3

H 0.0 0.0 -0.7556799350830615
H 0.0 0.0 0.0
H 0.0 0.0 2.142988926203945
3

H 0.0 0.0 -0.7556799350830615
H 0.0 0.0 0.0
H 0.0 0.0 2.141988926203945
3

H 0.0 0.0 -0.7556799350830615
H 0.0 0.0 0.0
H 0.0 0.0 2.140988926203945
3

H 0.0 0.0 -0.7556973874894988
H 0.0 0.0 0.0
H 0.0 0.0 2.1399890785087887
3

H 0.0 0.0 -0.7556973874894988
H 0.0 0.0 0.0
H 0.0 0.0 2.138989078508789
3

H 0.0 0.0 -0.7556973874894988
H 0.0 0.0 0.0
H 0.0 0.0 2.137989078508789
3

H 0.0 0.0 -0.7556973874894988
H 0.0 0.0 0.0
H 0.0 0.0 2.136989078508789
3

H 0.0 0.0 -0.7556973874894988
H 0.0 0.0 0.0
H 0.0 0.0 2.135989078508789
3

H 0.0 0.0 -0.7556973874894988
H 0.0 0.0 0.0
H 0.0 0.0 2.1349890785087893
3

H 0.0 0.0 -0.755714839895936
H 0.0 0.0 0.0
H 0.0 0.0 2.133989230813633
3

H 0.0 0.0 -0.755714839895936
H 0.0 0.0 0.0
H 0.0 0.0 2.132989230813633
3

H 0.0 0.0 -0.755714839895936
H 0.0 0.0 0.0
H 0.0 0.0 2.131989230813633
3

H 0.0 0.0 -0.755714839895936
H 0.0 0.0 0.0
H 0.0 0.0 2.130989230813633
3

H 0.0 0.0 -0.755714839895936
H 0.0 0.0 0.0
H 0.0 0.0 2.129989230813633
3

H 0.0 0.0 -0.755714839895936
H 0.0 0.0 0.0
H 0.0 0.0 2.1289892308136333
3

H 0.0 0.0 -0.755714839895936
H 0.0 0.0 0.0
H 0.0 0.0 2.127989230813633
3

H 0.0 0.0 -0.7557322923023733
H 0.0 0.0 0.0
H 0.0 0.0 2.126989383118477
3

H 0.0 0.0 -0.7557322923023733
H 0.0 0.0 0.0
H 0.0 0.0 2.125989383118477
3

H 0.0 0.0 -0.7557322923023733
H 0.0 0.0 0.0
H 0.0 0.0 2.124989383118477
3

H 0.0 0.0 -0.7557322923023733
H 0.0 0.0 0.0
H 0.0 0.0 2.1239893831184773
3

H 0.0 0.0 -0.7557322923023733
H 0.0 0.0 0.0
H 0.0 0.0 2.1229893831184774
3

H 0.0 0.0 -0.7557322923023733
H 0.0 0.0 0.0
H 0.0 0.0 2.121989383118477
3

H 0.0 0.0 -0.7557497447088105
H 0.0 0.0 0.0
H 0.0 0.0 2.120989535423321
3

H 0.0 0.0 -0.7557497447088105
H 0.0 0.0 0.0
H 0.0 0.0 2.119989535423321
3

H 0.0 0.0 -0.7557497447088105
H 0.0 0.0 0.0
H 0.0 0.0 2.118989535423321
3

H 0.0 0.0 -0.7557497447088105
H 0.0 0.0 0.0
H 0.0 0.0 2.1179895354233214
3

H 0.0 0.0 -0.7557497447088105
H 0.0 0.0 0.0
H 0.0 0.0 2.116989535423321
3

H 0.0 0.0 -0.7557671971152478
H 0.0 0.0 0.0
H 0.0 0.0 2.115989687728165
3

H 0.0 0.0 -0.7557671971152478
H 0.0 0.0 0.0
H 0.0 0.0 2.114989687728165
3

H 0.0 0.0 -0.7557671971152478
H 0.0 0.0 0.0
H 0.0 0.0 2.113989687728165
3

H 0.0 0.0 -0.7557671971152478
H 0.0 0.0 0.0
H 0.0 0.0 2.1129896877281653
3

H 0.0 0.0 -0.7557671971152478
H 0.0 0.0 0.0
H 0.0 0.0 2.1119896877281654
3

H 0.0 0.0 -0.7557671971152478
H 0.0 0.0 0.0
H 0.0 0.0 2.110989687728165
3

H 0.0 0.0 -0.755784649521685
H 0.0 0.0 0.0
H 0.0 0.0 2.109989840033009
3

H 0.0 0.0 -0.755784649521685
H 0.0 0.0 0.0
H 0.0 0.0 2.108989840033009
3

H 0.0 0.0 -0.755784649521685
H 0.0 0.0 0.0
H 0.0 0.0 2.1079898400330093
3

H 0.0 0.0 -0.755784649521685
H 0.0 0.0 0.0
H 0.0 0.0 2.1069898400330094
3

H 0.0 0.0 -0.755784649521685
H 0.0 0.0 0.0
H 0.0 0.0 2.105989840033009
3

H 0.0 0.0 -0.755784649521685
H 0.0 0.0 0.0
H 0.0 0.0 2.1049898400330096
3

H 0.0 0.0 -0.7558021019281222
H 0.0 0.0 0.0
H 0.0 0.0 2.103989992337853
3

H 0.0 0.0 -0.7558021019281222
H 0.0 0.0 0.0
H 0.0 0.0 2.102989992337853
3

H 0.0 0.0 -0.7558021019281222
H 0.0 0.0 0.0
H 0.0 0.0 2.1019899923378533
3

H 0.0 0.0 -0.7558021019281222
H 0.0 0.0 0.0
H 0.0 0.0 2.100989992337853
3

H 0.0 0.0 -0.7558021019281222
H 0.0 0.0 0.0
H 0.0 0.0 2.0999899923378536
3

H 0.0 0.0 -0.7558195543345595
H 0.0 0.0 0.0
H 0.0 0.0 2.098990144642697
3

H 0.0 0.0 -0.7558195543345595
H 0.0 0.0 0.0
H 0.0 0.0 2.097990144642697
3

H 0.0 0.0 -0.7558195543345595
H 0.0 0.0 0.0
H 0.0 0.0 2.0969901446426973
3

H 0.0 0.0 -0.7558195543345595
H 0.0 0.0 0.0
H 0.0 0.0 2.0959901446426974
3

H 0.0 0.0 -0.7558195543345595
H 0.0 0.0 0.0
H 0.0 0.0 2.094990144642697
3

H 0.0 0.0 -0.7558370067409967
H 0.0 0.0 0.0
H 0.0 0.0 2.093990296947541
3

H 0.0 0.0 -0.7558370067409967
H 0.0 0.0 0.0
H 0.0 0.0 2.092990296947541
3

H 0.0 0.0 -0.7558370067409967
H 0.0 0.0 0.0
H 0.0 0.0 2.091990296947541
3

H 0.0 0.0 -0.7558370067409967
H 0.0 0.0 0.0
H 0.0 0.0 2.0909902969475413
3

H 0.0 0.0 -0.7558370067409967
H 0.0 0.0 0.0
H 0.0 0.0 2.089990296947541
3

H 0.0 0.0 -0.755854459147434
H 0.0 0.0 0.0
H 0.0 0.0 2.088990449252385
3

H 0.0 0.0 -0.755854459147434
H 0.0 0.0 0.0
H 0.0 0.0 2.087990449252385
3

H 0.0 0.0 -0.755854459147434
H 0.0 0.0 0.0
H 0.0 0.0 2.086990449252385
3

H 0.0 0.0 -0.755854459147434
H 0.0 0.0 0.0
H 0.0 0.0 2.0859904492523853
3

H 0.0 0.0 -0.755854459147434
H 0.0 0.0 0.0
H 0.0 0.0 2.0849904492523854
3

H 0.0 0.0 -0.7558719115538712
H 0.0 0.0 0.0
H 0.0 0.0 2.083990601557229
3

H 0.0 0.0 -0.7558719115538712
H 0.0 0.0 0.0
H 0.0 0.0 2.082990601557229
3

H 0.0 0.0 -0.7558719115538712
H 0.0 0.0 0.0
H 0.0 0.0 2.081990601557229
3

H 0.0 0.0 -0.7558719115538712
H 0.0 0.0 0.0
H 0.0 0.0 2.0809906015572293
3

H 0.0 0.0 -0.7558719115538712
H 0.0 0.0 0.0
H 0.0 0.0 2.0799906015572294
3

H 0.0 0.0 -0.7558893639603085
H 0.0 0.0 0.0
H 0.0 0.0 2.078990753862073
3

H 0.0 0.0 -0.7558893639603085
H 0.0 0.0 0.0
H 0.0 0.0 2.077990753862073
3

H 0.0 0.0 -0.7558893639603085
H 0.0 0.0 0.0
H 0.0 0.0 2.076990753862073
3

H 0.0 0.0 -0.7558893639603085
H 0.0 0.0 0.0
H 0.0 0.0 2.075990753862073
3

H 0.0 0.0 -0.7558893639603085
H 0.0 0.0 0.0
H 0.0 0.0 2.0749907538620733
3

H 0.0 0.0 -0.7559068163667457
H 0.0 0.0 0.0
H 0.0 0.0 2.073990906166917
3

H 0.0 0.0 -0.7559068163667457
H 0.0 0.0 0.0
H 0.0 0.0 2.072990906166917
3

H 0.0 0.0 -0.7559068163667457
H 0.0 0.0 0.0
H 0.0 0.0 2.071990906166917
3

H 0.0 0.0 -0.7559068163667457
H 0.0 0.0 0.0
H 0.0 0.0 2.070990906166917
3

H 0.0 0.0 -0.7559068163667457
H 0.0 0.0 0.0
H 0.0 0.0 2.0699909061669173
3

H 0.0 0.0 -0.755924268773183
H 0.0 0.0 0.0
H 0.0 0.0 2.068991058471761
3

H 0.0 0.0 -0.755924268773183
H 0.0 0.0 0.0
H 0.0 0.0 2.067991058471761
3

H 0.0 0.0 -0.755924268773183
H 0.0 0.0 0.0
H 0.0 0.0 2.066991058471761
3

H 0.0 0.0 -0.755924268773183
H 0.0 0.0 0.0
H 0.0 0.0 2.065991058471761
3

H 0.0 0.0 -0.7559417211796202
H 0.0 0.0 0.0
H 0.0 0.0 2.0649912107766046
3

H 0.0 0.0 -0.7559417211796202
H 0.0 0.0 0.0
H 0.0 0.0 2.0639912107766047
3

H 0.0 0.0 -0.7559417211796202
H 0.0 0.0 0.0
H 0.0 0.0 2.062991210776605
3

H 0.0 0.0 -0.7559417211796202
H 0.0 0.0 0.0
H 0.0 0.0 2.061991210776605
3

H 0.0 0.0 -0.7559417211796202
H 0.0 0.0 0.0
H 0.0 0.0 2.060991210776605
3

H 0.0 0.0 -0.7559591735860575
H 0.0 0.0 0.0
H 0.0 0.0 2.0599913630814486
3

H 0.0 0.0 -0.7559591735860575
H 0.0 0.0 0.0
H 0.0 0.0 2.0589913630814487
3

H 0.0 0.0 -0.7559591735860575
H 0.0 0.0 0.0
H 0.0 0.0 2.057991363081449
3

H 0.0 0.0 -0.7559591735860575
H 0.0 0.0 0.0
H 0.0 0.0 2.056991363081449
3

H 0.0 0.0 -0.7559766259924947
H 0.0 0.0 0.0
H 0.0 0.0 2.0559915153862924
3

H 0.0 0.0 -0.7559766259924947
H 0.0 0.0 0.0
H 0.0 0.0 2.0549915153862925
3

H 0.0 0.0 -0.7559766259924947
H 0.0 0.0 0.0
H 0.0 0.0 2.0539915153862927
3

H 0.0 0.0 -0.7559766259924947
H 0.0 0.0 0.0
H 0.0 0.0 2.0529915153862928
3

H 0.0 0.0 -0.7559766259924947
H 0.0 0.0 0.0
H 0.0 0.0 2.051991515386293
3

H 0.0 0.0 -0.755994078398932
H 0.0 0.0 0.0
H 0.0 0.0 2.0509916676911364
3

H 0.0 0.0 -0.755994078398932
H 0.0 0.0 0.0
H 0.0 0.0 2.0499916676911365
3

H 0.0 0.0 -0.755994078398932
H 0.0 0.0 0.0
H 0.0 0.0 2.0489916676911366
3

H 0.0 0.0 -0.755994078398932
H 0.0 0.0 0.0
H 0.0 0.0 2.0479916676911367
3

H 0.0 0.0 -0.7560115308053692
H 0.0 0.0 0.0
H 0.0 0.0 2.04699181999598
3

H 0.0 0.0 -0.7560115308053692
H 0.0 0.0 0.0
H 0.0 0.0 2.0459918199959803
3

H 0.0 0.0 -0.7560115308053692
H 0.0 0.0 0.0
H 0.0 0.0 2.0449918199959805
3

H 0.0 0.0 -0.7560115308053692
H 0.0 0.0 0.0
H 0.0 0.0 2.043991819995981
3

H 0.0 0.0 -0.7560289832118064
H 0.0 0.0 0.0
H 0.0 0.0 2.042991972300824
3

H 0.0 0.0 -0.7560289832118064
H 0.0 0.0 0.0
H 0.0 0.0 2.041991972300824
3

H 0.0 0.0 -0.7560289832118064
H 0.0 0.0 0.0
H 0.0 0.0 2.0409919723008243
3

H 0.0 0.0 -0.7560289832118064
H 0.0 0.0 0.0
H 0.0 0.0 2.0399919723008244
3

H 0.0 0.0 -0.7560464356182437
H 0.0 0.0 0.0
H 0.0 0.0 2.038992124605668
3

H 0.0 0.0 -0.7560464356182437
H 0.0 0.0 0.0
H 0.0 0.0 2.037992124605668
3

H 0.0 0.0 -0.7560464356182437
H 0.0 0.0 0.0
H 0.0 0.0 2.036992124605668
3

H 0.0 0.0 -0.7560464356182437
H 0.0 0.0 0.0
H 0.0 0.0 2.0359921246056683
3

H 0.0 0.0 -0.7560638880246809
H 0.0 0.0 0.0
H 0.0 0.0 2.034992276910512
3

H 0.0 0.0 -0.7560638880246809
H 0.0 0.0 0.0
H 0.0 0.0 2.033992276910512
3

H 0.0 0.0 -0.7560638880246809
H 0.0 0.0 0.0
H 0.0 0.0 2.032992276910512
3

H 0.0 0.0 -0.7560638880246809
H 0.0 0.0 0.0
H 0.0 0.0 2.031992276910512
3

H 0.0 0.0 -0.7560813404311182
H 0.0 0.0 0.0
H 0.0 0.0 2.030992429215356
3

H 0.0 0.0 -0.7560813404311182
H 0.0 0.0 0.0
H 0.0 0.0 2.029992429215356
3

H 0.0 0.0 -0.7560813404311182
H 0.0 0.0 0.0
H 0.0 0.0 2.028992429215356
3

H 0.0 0.0 -0.7560813404311182
H 0.0 0.0 0.0
H 0.0 0.0 2.027992429215356
3

H 0.0 0.0 -0.7560987928375554
H 0.0 0.0 0.0
H 0.0 0.0 2.0269925815201995
3

H 0.0 0.0 -0.7560987928375554
H 0.0 0.0 0.0
H 0.0 0.0 2.0259925815202
3

H 0.0 0.0 -0.7560987928375554
H 0.0 0.0 0.0
H 0.0 0.0 2.0249925815202
3

H 0.0 0.0 -0.7560987928375554
H 0.0 0.0 0.0
H 0.0 0.0 2.0239925815202
3

H 0.0 0.0 -0.7561162452439927
H 0.0 0.0 0.0
H 0.0 0.0 2.0229927338250437
3

H 0.0 0.0 -0.7561162452439927
H 0.0 0.0 0.0
H 0.0 0.0 2.0219927338250434
3

H 0.0 0.0 -0.7561162452439927
H 0.0 0.0 0.0
H 0.0 0.0 2.0209927338250435
3

H 0.0 0.0 -0.7561336976504299
H 0.0 0.0 0.0
H 0.0 0.0 2.019992886129887
3

H 0.0 0.0 -0.7561336976504299
H 0.0 0.0 0.0
H 0.0 0.0 2.018992886129887
3

H 0.0 0.0 -0.7561336976504299
H 0.0 0.0 0.0
H 0.0 0.0 2.0179928861298877
3

H 0.0 0.0 -0.7561336976504299
H 0.0 0.0 0.0
H 0.0 0.0 2.016992886129888
3

H 0.0 0.0 -0.7561511500568672
H 0.0 0.0 0.0
H 0.0 0.0 2.015993038434731
3

H 0.0 0.0 -0.7561511500568672
H 0.0 0.0 0.0
H 0.0 0.0 2.014993038434731
3

H 0.0 0.0 -0.7561511500568672
H 0.0 0.0 0.0
H 0.0 0.0 2.013993038434731
3

H 0.0 0.0 -0.7561511500568672
H 0.0 0.0 0.0
H 0.0 0.0 2.012993038434731
3

H 0.0 0.0 -0.7561686024633044
H 0.0 0.0 0.0
H 0.0 0.0 2.0119931907395747
3

H 0.0 0.0 -0.7561686024633044
H 0.0 0.0 0.0
H 0.0 0.0 2.010993190739575
3

H 0.0 0.0 -0.7561686024633044
H 0.0 0.0 0.0
H 0.0 0.0 2.009993190739575
3

H 0.0 0.0 -0.7561860548697417
H 0.0 0.0 0.0
H 0.0 0.0 2.0089933430444185
3

H 0.0 0.0 -0.7561860548697417
H 0.0 0.0 0.0
H 0.0 0.0 2.0079933430444186
3

H 0.0 0.0 -0.7561860548697417
H 0.0 0.0 0.0
H 0.0 0.0 2.0069933430444187
3

H 0.0 0.0 -0.7561860548697417
H 0.0 0.0 0.0
H 0.0 0.0 2.005993343044419
3

H 0.0 0.0 -0.7562035072761789
H 0.0 0.0 0.0
H 0.0 0.0 2.0049934953492623
3

H 0.0 0.0 -0.7562035072761789
H 0.0 0.0 0.0
H 0.0 0.0 2.0039934953492624
3

H 0.0 0.0 -0.7562035072761789
H 0.0 0.0 0.0
H 0.0 0.0 2.0029934953492625
3

H 0.0 0.0 -0.7562209596826162
H 0.0 0.0 0.0
H 0.0 0.0 2.001993647654106
3

H 0.0 0.0 -0.7562209596826162
H 0.0 0.0 0.0
H 0.0 0.0 2.000993647654106
3

H 0.0 0.0 -0.7562209596826162
H 0.0 0.0 0.0
H 0.0 0.0 1.999993647654106
3

H 0.0 0.0 -0.7562209596826162
H 0.0 0.0 0.0
H 0.0 0.0 1.998993647654106
3

H 0.0 0.0 -0.7562384120890534
H 0.0 0.0 0.0
H 0.0 0.0 1.9979937999589497
3

H 0.0 0.0 -0.7562384120890534
H 0.0 0.0 0.0
H 0.0 0.0 1.9969937999589495
3

H 0.0 0.0 -0.7562384120890534
H 0.0 0.0 0.0
H 0.0 0.0 1.9959937999589497
3

H 0.0 0.0 -0.7562558644954906
H 0.0 0.0 0.0
H 0.0 0.0 1.9949939522637932
3

H 0.0 0.0 -0.7562558644954906
H 0.0 0.0 0.0
H 0.0 0.0 1.9939939522637933
3

H 0.0 0.0 -0.7562558644954906
H 0.0 0.0 0.0
H 0.0 0.0 1.9929939522637936
3

H 0.0 0.0 -0.7562558644954906
H 0.0 0.0 0.0
H 0.0 0.0 1.9919939522637935
3

H 0.0 0.0 -0.7562733169019279
H 0.0 0.0 0.0
H 0.0 0.0 1.9909941045686368
3

H 0.0 0.0 -0.7562733169019279
H 0.0 0.0 0.0
H 0.0 0.0 1.9899941045686371
3

H 0.0 0.0 -0.7562733169019279
H 0.0 0.0 0.0
H 0.0 0.0 1.9889941045686372
3

H 0.0 0.0 -0.7562907693083651
H 0.0 0.0 0.0
H 0.0 0.0 1.987994256873481
3

H 0.0 0.0 -0.7562907693083651
H 0.0 0.0 0.0
H 0.0 0.0 1.986994256873481
3

H 0.0 0.0 -0.7562907693083651
H 0.0 0.0 0.0
H 0.0 0.0 1.9859942568734807
3

H 0.0 0.0 -0.7563082217148024
H 0.0 0.0 0.0
H 0.0 0.0 1.9849944091783247
3

H 0.0 0.0 -0.7563082217148024
H 0.0 0.0 0.0
H 0.0 0.0 1.9839944091783248
3

H 0.0 0.0 -0.7563082217148024
H 0.0 0.0 0.0
H 0.0 0.0 1.982994409178325
3

H 0.0 0.0 -0.7563256741212396
H 0.0 0.0 0.0
H 0.0 0.0 1.9819945614831684
3

H 0.0 0.0 -0.7563256741212396
H 0.0 0.0 0.0
H 0.0 0.0 1.9809945614831683
3

H 0.0 0.0 -0.7563256741212396
H 0.0 0.0 0.0
H 0.0 0.0 1.9799945614831689
3

H 0.0 0.0 -0.7563431265276769
H 0.0 0.0 0.0
H 0.0 0.0 1.978994713788012
3

H 0.0 0.0 -0.7563431265276769
H 0.0 0.0 0.0
H 0.0 0.0 1.9779947137880125
3

H 0.0 0.0 -0.7563431265276769
H 0.0 0.0 0.0
H 0.0 0.0 1.9769947137880124
3

H 0.0 0.0 -0.7563605789341141
H 0.0 0.0 0.0
H 0.0 0.0 1.975994866092856
3

H 0.0 0.0 -0.7563605789341141
H 0.0 0.0 0.0
H 0.0 0.0 1.974994866092856
3

H 0.0 0.0 -0.7563605789341141
H 0.0 0.0 0.0
H 0.0 0.0 1.973994866092856
3

H 0.0 0.0 -0.7563605789341141
H 0.0 0.0 0.0
H 0.0 0.0 1.972994866092856
3

H 0.0 0.0 -0.7563780313405514
H 0.0 0.0 0.0
H 0.0 0.0 1.9719950183977
3

H 0.0 0.0 -0.7563780313405514
H 0.0 0.0 0.0
H 0.0 0.0 1.9709950183977
3

H 0.0 0.0 -0.7563780313405514
H 0.0 0.0 0.0
H 0.0 0.0 1.9699950183977
3

H 0.0 0.0 -0.7563954837469886
H 0.0 0.0 0.0
H 0.0 0.0 1.9689951707025437
3

H 0.0 0.0 -0.7563954837469886
H 0.0 0.0 0.0
H 0.0 0.0 1.967995170702544
3

H 0.0 0.0 -0.7564129361534259
H 0.0 0.0 0.0
H 0.0 0.0 1.966995323007387
3

H 0.0 0.0 -0.7564129361534259
H 0.0 0.0 0.0
H 0.0 0.0 1.9659953230073872
3

H 0.0 0.0 -0.7564129361534259
H 0.0 0.0 0.0
H 0.0 0.0 1.9649953230073876
3

H 0.0 0.0 -0.7564303885598631
H 0.0 0.0 0.0
H 0.0 0.0 1.9639954753122308
3

H 0.0 0.0 -0.7564303885598631
H 0.0 0.0 0.0
H 0.0 0.0 1.962995475312231
3

H 0.0 0.0 -0.7564303885598631
H 0.0 0.0 0.0
H 0.0 0.0 1.961995475312231
3

H 0.0 0.0 -0.7564478409663004
H 0.0 0.0 0.0
H 0.0 0.0 1.9609956276170744
3

H 0.0 0.0 -0.7564478409663004
H 0.0 0.0 0.0
H 0.0 0.0 1.959995627617075
3

H 0.0 0.0 -0.7564478409663004
H 0.0 0.0 0.0
H 0.0 0.0 1.9589956276170748
3

H 0.0 0.0 -0.7564652933727376
H 0.0 0.0 0.0
H 0.0 0.0 1.9579957799219183
3

H 0.0 0.0 -0.7564652933727376
H 0.0 0.0 0.0
H 0.0 0.0 1.9569957799219184
3

H 0.0 0.0 -0.7564652933727376
H 0.0 0.0 0.0
H 0.0 0.0 1.9559957799219183
3

H 0.0 0.0 -0.7564827457791748
H 0.0 0.0 0.0
H 0.0 0.0 1.954995932226762
3

H 0.0 0.0 -0.7564827457791748
H 0.0 0.0 0.0
H 0.0 0.0 1.9539959322267624
3

H 0.0 0.0 -0.7564827457791748
H 0.0 0.0 0.0
H 0.0 0.0 1.9529959322267625
3

H 0.0 0.0 -0.7565001981856121
H 0.0 0.0 0.0
H 0.0 0.0 1.9519960845316056
3

H 0.0 0.0 -0.7565001981856121
H 0.0 0.0 0.0
H 0.0 0.0 1.950996084531606
3

H 0.0 0.0 -0.7565001981856121
H 0.0 0.0 0.0
H 0.0 0.0 1.949996084531606
3

H 0.0 0.0 -0.7565176505920493
H 0.0 0.0 0.0
H 0.0 0.0 1.9489962368364493
3

H 0.0 0.0 -0.7565176505920493
H 0.0 0.0 0.0
H 0.0 0.0 1.9479962368364496
3

H 0.0 0.0 -0.7565351029984866
H 0.0 0.0 0.0
H 0.0 0.0 1.9469963891412927
3

H 0.0 0.0 -0.7565351029984866
H 0.0 0.0 0.0
H 0.0 0.0 1.9459963891412928
3

H 0.0 0.0 -0.7565351029984866
H 0.0 0.0 0.0
H 0.0 0.0 1.9449963891412931
3

H 0.0 0.0 -0.7565525554049238
H 0.0 0.0 0.0
H 0.0 0.0 1.9439965414461369
3

H 0.0 0.0 -0.7565525554049238
H 0.0 0.0 0.0
H 0.0 0.0 1.942996541446137
3

H 0.0 0.0 -0.7565525554049238
H 0.0 0.0 0.0
H 0.0 0.0 1.941996541446137
3

H 0.0 0.0 -0.7565700078113611
H 0.0 0.0 0.0
H 0.0 0.0 1.9409966937509808
3

H 0.0 0.0 -0.7565700078113611
H 0.0 0.0 0.0
H 0.0 0.0 1.9399966937509807
3

H 0.0 0.0 -0.7565874602177983
H 0.0 0.0 0.0
H 0.0 0.0 1.938996846055824
3

H 0.0 0.0 -0.7565874602177983
H 0.0 0.0 0.0
H 0.0 0.0 1.9379968460558243
3

H 0.0 0.0 -0.7565874602177983
H 0.0 0.0 0.0
H 0.0 0.0 1.9369968460558245
3

H 0.0 0.0 -0.7566049126242356
H 0.0 0.0 0.0
H 0.0 0.0 1.935996998360668
3

H 0.0 0.0 -0.7566049126242356
H 0.0 0.0 0.0
H 0.0 0.0 1.934996998360668
3

H 0.0 0.0 -0.7566223650306728
H 0.0 0.0 0.0
H 0.0 0.0 1.933997150665512
3

H 0.0 0.0 -0.7566223650306728
H 0.0 0.0 0.0
H 0.0 0.0 1.932997150665512
3

H 0.0 0.0 -0.7566223650306728
H 0.0 0.0 0.0
H 0.0 0.0 1.931997150665512
3

H 0.0 0.0 -0.7566398174371101
H 0.0 0.0 0.0
H 0.0 0.0 1.9309973029703555
3

H 0.0 0.0 -0.7566398174371101
H 0.0 0.0 0.0
H 0.0 0.0 1.9299973029703557
3

H 0.0 0.0 -0.7566398174371101
H 0.0 0.0 0.0
H 0.0 0.0 1.9289973029703555
3

H 0.0 0.0 -0.7566572698435473
H 0.0 0.0 0.0
H 0.0 0.0 1.927997455275199
3

H 0.0 0.0 -0.7566572698435473
H 0.0 0.0 0.0
H 0.0 0.0 1.9269974552751992
3

H 0.0 0.0 -0.7566747222499846
H 0.0 0.0 0.0
H 0.0 0.0 1.925997607580043
3

H 0.0 0.0 -0.7566747222499846
H 0.0 0.0 0.0
H 0.0 0.0 1.9249976075800428
3

H 0.0 0.0 -0.7566747222499846
H 0.0 0.0 0.0
H 0.0 0.0 1.923997607580043
3

H 0.0 0.0 -0.7566921746564218
H 0.0 0.0 0.0
H 0.0 0.0 1.9229977598848864
3

H 0.0 0.0 -0.7566921746564218
H 0.0 0.0 0.0
H 0.0 0.0 1.9219977598848863
3

H 0.0 0.0 -0.756709627062859
H 0.0 0.0 0.0
H 0.0 0.0 1.92099791218973
3

H 0.0 0.0 -0.756709627062859
H 0.0 0.0 0.0
H 0.0 0.0 1.91999791218973
3

H 0.0 0.0 -0.7567270794692963
H 0.0 0.0 0.0
H 0.0 0.0 1.9189980644945737
3

H 0.0 0.0 -0.7567270794692963
H 0.0 0.0 0.0
H 0.0 0.0 1.9179980644945736
3

H 0.0 0.0 -0.7567270794692963
H 0.0 0.0 0.0
H 0.0 0.0 1.9169980644945737
3

H 0.0 0.0 -0.7567445318757335
H 0.0 0.0 0.0
H 0.0 0.0 1.9159982167994172
3

H 0.0 0.0 -0.7567445318757335
H 0.0 0.0 0.0
H 0.0 0.0 1.9149982167994173
3

H 0.0 0.0 -0.7567619842821708
H 0.0 0.0 0.0
H 0.0 0.0 1.913998369104261
3

H 0.0 0.0 -0.7567619842821708
H 0.0 0.0 0.0
H 0.0 0.0 1.912998369104261
3

H 0.0 0.0 -0.756779436688608
H 0.0 0.0 0.0
H 0.0 0.0 1.9119985214091049
3

H 0.0 0.0 -0.756779436688608
H 0.0 0.0 0.0
H 0.0 0.0 1.9109985214091048
3

H 0.0 0.0 -0.756779436688608
H 0.0 0.0 0.0
H 0.0 0.0 1.9099985214091049
3

H 0.0 0.0 -0.7567968890950453
H 0.0 0.0 0.0
H 0.0 0.0 1.9089986737139484
3

H 0.0 0.0 -0.7567968890950453
H 0.0 0.0 0.0
H 0.0 0.0 1.9079986737139485
3

H 0.0 0.0 -0.7568143415014825
H 0.0 0.0 0.0
H 0.0 0.0 1.906998826018792
3

H 0.0 0.0 -0.7568143415014825
H 0.0 0.0 0.0
H 0.0 0.0 1.905998826018792
3

H 0.0 0.0 -0.7568317939079198
H 0.0 0.0 0.0
H 0.0 0.0 1.904998978323636
3

H 0.0 0.0 -0.7568317939079198
H 0.0 0.0 0.0
H 0.0 0.0 1.903998978323636
3

H 0.0 0.0 -0.7568317939079198
H 0.0 0.0 0.0
H 0.0 0.0 1.902998978323636
3

H 0.0 0.0 -0.756849246314357
H 0.0 0.0 0.0
H 0.0 0.0 1.9019991306284796
3

H 0.0 0.0 -0.756849246314357
H 0.0 0.0 0.0
H 0.0 0.0 1.9009991306284797
3

H 0.0 0.0 -0.7568666987207943
H 0.0 0.0 0.0
H 0.0 0.0 1.899999282933323
3

H 0.0 0.0 -0.7568666987207943
H 0.0 0.0 0.0
H 0.0 0.0 1.898999282933323
3

H 0.0 0.0 -0.7568841511272315
H 0.0 0.0 0.0
H 0.0 0.0 1.8979994352381664
3

H 0.0 0.0 -0.7568841511272315
H 0.0 0.0 0.0
H 0.0 0.0 1.8969994352381667
3

H 0.0 0.0 -0.7569016035336688
H 0.0 0.0 0.0
H 0.0 0.0 1.8959995875430105
3

H 0.0 0.0 -0.7569016035336688
H 0.0 0.0 0.0
H 0.0 0.0 1.8949995875430103
3

H 0.0 0.0 -0.756919055940106
H 0.0 0.0 0.0
H 0.0 0.0 1.8939997398478536
3

H 0.0 0.0 -0.756919055940106
H 0.0 0.0 0.0
H 0.0 0.0 1.892999739847854
3

H 0.0 0.0 -0.756919055940106
H 0.0 0.0 0.0
H 0.0 0.0 1.891999739847854
3

H 0.0 0.0 -0.7569365083465432
H 0.0 0.0 0.0
H 0.0 0.0 1.8909998921526976
3

H 0.0 0.0 -0.7569365083465432
H 0.0 0.0 0.0
H 0.0 0.0 1.8899998921526977
3

H 0.0 0.0 -0.7569539607529805
H 0.0 0.0 0.0
H 0.0 0.0 1.8890000444575408
3

H 0.0 0.0 -0.7569539607529805
H 0.0 0.0 0.0
H 0.0 0.0 1.888000044457541
3

H 0.0 0.0 -0.7569714131594177
H 0.0 0.0 0.0
H 0.0 0.0 1.8870001967623848
3

H 0.0 0.0 -0.7569714131594177
H 0.0 0.0 0.0
H 0.0 0.0 1.886000196762385
3

H 0.0 0.0 -0.756988865565855
H 0.0 0.0 0.0
H 0.0 0.0 1.8850003490672285
3

H 0.0 0.0 -0.756988865565855
H 0.0 0.0 0.0
H 0.0 0.0 1.8840003490672288
3

H 0.0 0.0 -0.7570063179722922
H 0.0 0.0 0.0
H 0.0 0.0 1.883000501372072
3

H 0.0 0.0 -0.7570063179722922
H 0.0 0.0 0.0
H 0.0 0.0 1.882000501372072
3

H 0.0 0.0 -0.7570237703787295
H 0.0 0.0 0.0
H 0.0 0.0 1.881000653676916
3

H 0.0 0.0 -0.7570237703787295
H 0.0 0.0 0.0
H 0.0 0.0 1.880000653676916
3

H 0.0 0.0 -0.7570412227851667
H 0.0 0.0 0.0
H 0.0 0.0 1.8790008059817596
3

H 0.0 0.0 -0.7570412227851667
H 0.0 0.0 0.0
H 0.0 0.0 1.8780008059817597
3

H 0.0 0.0 -0.757058675191604
H 0.0 0.0 0.0
H 0.0 0.0 1.877000958286603
3

H 0.0 0.0 -0.757058675191604
H 0.0 0.0 0.0
H 0.0 0.0 1.876000958286603
3

H 0.0 0.0 -0.7570761275980412
H 0.0 0.0 0.0
H 0.0 0.0 1.8750011105914464
3

H 0.0 0.0 -0.7570761275980412
H 0.0 0.0 0.0
H 0.0 0.0 1.8740011105914467
3

H 0.0 0.0 -0.7570935800044785
H 0.0 0.0 0.0
H 0.0 0.0 1.8730012628962904
3

H 0.0 0.0 -0.7570935800044785
H 0.0 0.0 0.0
H 0.0 0.0 1.8720012628962903
3

H 0.0 0.0 -0.7571110324109157
H 0.0 0.0 0.0
H 0.0 0.0 1.8710014152011336
3

H 0.0 0.0 -0.7571110324109157
H 0.0 0.0 0.0
H 0.0 0.0 1.870001415201134
3

H 0.0 0.0 -0.757128484817353
H 0.0 0.0 0.0
H 0.0 0.0 1.8690015675059772
3

H 0.0 0.0 -0.757128484817353
H 0.0 0.0 0.0
H 0.0 0.0 1.8680015675059776
3

H 0.0 0.0 -0.7571459372237902
H 0.0 0.0 0.0
H 0.0 0.0 1.867001719810821
3

H 0.0 0.0 -0.7571459372237902
H 0.0 0.0 0.0
H 0.0 0.0 1.8660017198108207
3

H 0.0 0.0 -0.7571633896302274
H 0.0 0.0 0.0
H 0.0 0.0 1.8650018721156647
3

H 0.0 0.0 -0.7571633896302274
H 0.0 0.0 0.0
H 0.0 0.0 1.8640018721156648
3

H 0.0 0.0 -0.7571808420366647
H 0.0 0.0 0.0
H 0.0 0.0 1.8630020244205083
3

H 0.0 0.0 -0.7571808420366647
H 0.0 0.0 0.0
H 0.0 0.0 1.8620020244205084
3

H 0.0 0.0 -0.7571982944431019
H 0.0 0.0 0.0
H 0.0 0.0 1.861002176725352
3

H 0.0 0.0 -0.7572157468495392
H 0.0 0.0 0.0
H 0.0 0.0 1.8600023290301957
3

H 0.0 0.0 -0.7572157468495392
H 0.0 0.0 0.0
H 0.0 0.0 1.859002329030196
3

H 0.0 0.0 -0.7572331992559764
H 0.0 0.0 0.0
H 0.0 0.0 1.858002481335039
3

H 0.0 0.0 -0.7572331992559764
H 0.0 0.0 0.0
H 0.0 0.0 1.8570024813350392
3

H 0.0 0.0 -0.7572506516624137
H 0.0 0.0 0.0
H 0.0 0.0 1.8560026336398827
3

H 0.0 0.0 -0.7572506516624137
H 0.0 0.0 0.0
H 0.0 0.0 1.8550026336398828
3

H 0.0 0.0 -0.7572681040688509
H 0.0 0.0 0.0
H 0.0 0.0 1.8540027859447263
3

H 0.0 0.0 -0.7572681040688509
H 0.0 0.0 0.0
H 0.0 0.0 1.8530027859447264
3

H 0.0 0.0 -0.7572855564752882
H 0.0 0.0 0.0
H 0.0 0.0 1.85200293824957
3

H 0.0 0.0 -0.7572855564752882
H 0.0 0.0 0.0
H 0.0 0.0 1.85100293824957
3

H 0.0 0.0 -0.7573030088817254
H 0.0 0.0 0.0
H 0.0 0.0 1.8500030905544136
3

H 0.0 0.0 -0.7573204612881627
H 0.0 0.0 0.0
H 0.0 0.0 1.849003242859257
3

H 0.0 0.0 -0.7573204612881627
H 0.0 0.0 0.0
H 0.0 0.0 1.8480032428592568
3

H 0.0 0.0 -0.7573379136945999
H 0.0 0.0 0.0
H 0.0 0.0 1.8470033951641007
3

H 0.0 0.0 -0.7573379136945999
H 0.0 0.0 0.0
H 0.0 0.0 1.8460033951641008
3

H 0.0 0.0 -0.7573553661010372
H 0.0 0.0 0.0
H 0.0 0.0 1.8450035474689443
3

H 0.0 0.0 -0.7573553661010372
H 0.0 0.0 0.0
H 0.0 0.0 1.8440035474689445
3

H 0.0 0.0 -0.7573728185074744
H 0.0 0.0 0.0
H 0.0 0.0 1.843003699773788
3

H 0.0 0.0 -0.7573902709139116
H 0.0 0.0 0.0
H 0.0 0.0 1.8420038520786317
3

H 0.0 0.0 -0.7573902709139116
H 0.0 0.0 0.0
H 0.0 0.0 1.841003852078632
3

H 0.0 0.0 -0.7574077233203489
H 0.0 0.0 0.0
H 0.0 0.0 1.8400040043834751
3

H 0.0 0.0 -0.7574077233203489
H 0.0 0.0 0.0
H 0.0 0.0 1.8390040043834752
3

H 0.0 0.0 -0.7574251757267861
H 0.0 0.0 0.0
H 0.0 0.0 1.8380041566883187
3

H 0.0 0.0 -0.7574426281332234
H 0.0 0.0 0.0
H 0.0 0.0 1.8370043089931625
3

H 0.0 0.0 -0.7574426281332234
H 0.0 0.0 0.0
H 0.0 0.0 1.8360043089931624
3

H 0.0 0.0 -0.7574600805396606
H 0.0 0.0 0.0
H 0.0 0.0 1.8350044612980057
3

H 0.0 0.0 -0.7574600805396606
H 0.0 0.0 0.0
H 0.0 0.0 1.834004461298006
3

H 0.0 0.0 -0.7574775329460979
H 0.0 0.0 0.0
H 0.0 0.0 1.8330046136028493
3

H 0.0 0.0 -0.7574949853525351
H 0.0 0.0 0.0
H 0.0 0.0 1.832004765907693
3

H 0.0 0.0 -0.7574949853525351
H 0.0 0.0 0.0
H 0.0 0.0 1.831004765907693
3

H 0.0 0.0 -0.7575124377589724
H 0.0 0.0 0.0
H 0.0 0.0 1.8300049182125369
3

H 0.0 0.0 -0.7575124377589724
H 0.0 0.0 0.0
H 0.0 0.0 1.8290049182125367
3

H 0.0 0.0 -0.7575298901654096
H 0.0 0.0 0.0
H 0.0 0.0 1.8280050705173805
3

H 0.0 0.0 -0.7575473425718469
H 0.0 0.0 0.0
H 0.0 0.0 1.827005222822224
3

H 0.0 0.0 -0.7575473425718469
H 0.0 0.0 0.0
H 0.0 0.0 1.826005222822224
3

H 0.0 0.0 -0.7575647949782841
H 0.0 0.0 0.0
H 0.0 0.0 1.8250053751270676
3

H 0.0 0.0 -0.7575822473847214
H 0.0 0.0 0.0
H 0.0 0.0 1.824005527431911
3

H 0.0 0.0 -0.7575822473847214
H 0.0 0.0 0.0
H 0.0 0.0 1.823005527431911
3

H 0.0 0.0 -0.7575996997911586
H 0.0 0.0 0.0
H 0.0 0.0 1.8220056797367543
3

H 0.0 0.0 -0.7575996997911586
H 0.0 0.0 0.0
H 0.0 0.0 1.8210056797367544
3

H 0.0 0.0 -0.7576171521975958
H 0.0 0.0 0.0
H 0.0 0.0 1.8200058320415984
3

H 0.0 0.0 -0.7576346046040331
H 0.0 0.0 0.0
H 0.0 0.0 1.8190059843464417
3

H 0.0 0.0 -0.7576346046040331
H 0.0 0.0 0.0
H 0.0 0.0 1.8180059843464416
3

H 0.0 0.0 -0.7576520570104703
H 0.0 0.0 0.0
H 0.0 0.0 1.8170061366512853
3

H 0.0 0.0 -0.7576695094169076
H 0.0 0.0 0.0
H 0.0 0.0 1.8160062889561288
3

H 0.0 0.0 -0.7576695094169076
H 0.0 0.0 0.0
H 0.0 0.0 1.815006288956129
3

H 0.0 0.0 -0.7576869618233448
H 0.0 0.0 0.0
H 0.0 0.0 1.8140064412609724
3

H 0.0 0.0 -0.7577044142297821
H 0.0 0.0 0.0
H 0.0 0.0 1.813006593565816
3

H 0.0 0.0 -0.7577044142297821
H 0.0 0.0 0.0
H 0.0 0.0 1.812006593565816
3

H 0.0 0.0 -0.7577218666362193
H 0.0 0.0 0.0
H 0.0 0.0 1.81100674587066
3

H 0.0 0.0 -0.7577393190426566
H 0.0 0.0 0.0
H 0.0 0.0 1.810006898175503
3

H 0.0 0.0 -0.7577393190426566
H 0.0 0.0 0.0
H 0.0 0.0 1.8090068981755032
3

H 0.0 0.0 -0.7577567714490938
H 0.0 0.0 0.0
H 0.0 0.0 1.8080070504803467
3

H 0.0 0.0 -0.7577742238555311
H 0.0 0.0 0.0
H 0.0 0.0 1.8070072027851904
3

H 0.0 0.0 -0.7577742238555311
H 0.0 0.0 0.0
H 0.0 0.0 1.8060072027851903
3

H 0.0 0.0 -0.7577916762619683
H 0.0 0.0 0.0
H 0.0 0.0 1.8050073550900336
3

H 0.0 0.0 -0.7578091286684056
H 0.0 0.0 0.0
H 0.0 0.0 1.8040075073948771
3

H 0.0 0.0 -0.7578091286684056
H 0.0 0.0 0.0
H 0.0 0.0 1.8030075073948773
3

H 0.0 0.0 -0.7578265810748428
H 0.0 0.0 0.0
H 0.0 0.0 1.802007659699721
3

H 0.0 0.0 -0.75784403348128
H 0.0 0.0 0.0
H 0.0 0.0 1.8010078120045645
3

H 0.0 0.0 -0.7578614858877173
H 0.0 0.0 0.0
H 0.0 0.0 1.800007964309408
3

H 0.0 0.0 -0.7578789382941545
H 0.0 0.0 0.0
H 0.0 0.0 1.7990081166142515
3

H 0.0 0.0 -0.7578963907005918
H 0.0 0.0 0.0
H 0.0 0.0 1.798008268919095
3

H 0.0 0.0 -0.757913843107029
H 0.0 0.0 0.0
H 0.0 0.0 1.7970084212239386
3

H 0.0 0.0 -0.7579312955134663
H 0.0 0.0 0.0
H 0.0 0.0 1.796008573528782
3

H 0.0 0.0 -0.7579487479199035
H 0.0 0.0 0.0
H 0.0 0.0 1.7950087258336256
3

H 0.0 0.0 -0.7579662003263408
H 0.0 0.0 0.0
H 0.0 0.0 1.794008878138469
3

H 0.0 0.0 -0.757983652732778
H 0.0 0.0 0.0
H 0.0 0.0 1.7930090304433126
3

H 0.0 0.0 -0.7580011051392153
H 0.0 0.0 0.0
H 0.0 0.0 1.792009182748156
3

H 0.0 0.0 -0.7580185575456525
H 0.0 0.0 0.0
H 0.0 0.0 1.7910093350529996
3

H 0.0 0.0 -0.7580360099520898
H 0.0 0.0 0.0
H 0.0 0.0 1.7900094873578432
3

H 0.0 0.0 -0.758053462358527
H 0.0 0.0 0.0
H 0.0 0.0 1.789009639662687
3

H 0.0 0.0 -0.7580709147649642
H 0.0 0.0 0.0
H 0.0 0.0 1.7880097919675302
3

H 0.0 0.0 -0.7580883671714015
H 0.0 0.0 0.0
H 0.0 0.0 1.7870099442723737
3

H 0.0 0.0 -0.7581058195778387
H 0.0 0.0 0.0
H 0.0 0.0 1.7860100965772172
3

H 0.0 0.0 -0.758123271984276
H 0.0 0.0 0.0
H 0.0 0.0 1.7850102488820607
3

H 0.0 0.0 -0.7581407243907132
H 0.0 0.0 0.0
H 0.0 0.0 1.7840104011869042
3

H 0.0 0.0 -0.7581581767971505
H 0.0 0.0 0.0
H 0.0 0.0 1.7830105534917478
3

H 0.0 0.0 -0.7581756292035877
H 0.0 0.0 0.0
H 0.0 0.0 1.7820107057965913
3

H 0.0 0.0 -0.758193081610025
H 0.0 0.0 0.0
H 0.0 0.0 1.7810108581014348
3

H 0.0 0.0 -0.7582105340164622
H 0.0 0.0 0.0
H 0.0 0.0 1.7800110104062783
3

H 0.0 0.0 -0.7582279864228995
H 0.0 0.0 0.0
H 0.0 0.0 1.7790111627111218
3

H 0.0 0.0 -0.7582454388293367
H 0.0 0.0 0.0
H 0.0 0.0 1.778011315015965
3

H 0.0 0.0 -0.758262891235774
H 0.0 0.0 0.0
H 0.0 0.0 1.7770114673208088
3

H 0.0 0.0 -0.7582803436422112
H 0.0 0.0 0.0
H 0.0 0.0 1.7760116196256523
3

H 0.0 0.0 -0.7582977960486484
H 0.0 0.0 0.0
H 0.0 0.0 1.775011771930496
3

H 0.0 0.0 -0.7583152484550857
H 0.0 0.0 0.0
H 0.0 0.0 1.7740119242353394
3

H 0.0 0.0 -0.7583327008615229
H 0.0 0.0 0.0
H 0.0 0.0 1.773012076540183
3

H 0.0 0.0 -0.7583501532679602
H 0.0 0.0 0.0
H 0.0 0.0 1.7720122288450264
3

H 0.0 0.0 -0.7583676056743974
H 0.0 0.0 0.0
H 0.0 0.0 1.77101238114987
3

H 0.0 0.0 -0.7583850580808347
H 0.0 0.0 0.0
H 0.0 0.0 1.7700125334547134
3

H 0.0 0.0 -0.7584025104872719
H 0.0 0.0 0.0
H 0.0 0.0 1.769012685759557
3

H 0.0 0.0 -0.7584199628937092
H 0.0 0.0 0.0
H 0.0 0.0 1.7680128380644005
3

H 0.0 0.0 -0.7584374153001464
H 0.0 0.0 0.0
H 0.0 0.0 1.767012990369244
3

H 0.0 0.0 -0.7584548677065837
H 0.0 0.0 0.0
H 0.0 0.0 1.7660131426740877
3

H 0.0 0.0 -0.7584723201130209
H 0.0 0.0 0.0
H 0.0 0.0 1.765013294978931
3

H 0.0 0.0 -0.7584897725194581
H 0.0 0.0 0.0
H 0.0 0.0 1.7640134472837743
3

H 0.0 0.0 -0.7585072249258954
H 0.0 0.0 0.0
H 0.0 0.0 1.763013599588618
3

H 0.0 0.0 -0.7585246773323326
H 0.0 0.0 0.0
H 0.0 0.0 1.7620137518934615
3

H 0.0 0.0 -0.7585421297387699
H 0.0 0.0 0.0
H 0.0 0.0 1.761013904198305
3

H 0.0 0.0 -0.7585595821452071
H 0.0 0.0 0.0
H 0.0 0.0 1.7600140565031486
3

H 0.0 0.0 -0.7585770345516444
H 0.0 0.0 0.0
H 0.0 0.0 1.759014208807992
3

H 0.0 0.0 -0.7585944869580816
H 0.0 0.0 0.0
H 0.0 0.0 1.7580143611128356
3

H 0.0 0.0 -0.7586119393645189
H 0.0 0.0 0.0
H 0.0 0.0 1.7570145134176791
3

H 0.0 0.0 -0.7586293917709561
H 0.0 0.0 0.0
H 0.0 0.0 1.7560146657225226
3

H 0.0 0.0 -0.7586468441773934
H 0.0 0.0 0.0
H 0.0 0.0 1.755014818027366
3

H 0.0 0.0 -0.7586642965838306
H 0.0 0.0 0.0
H 0.0 0.0 1.7540149703322097
3

H 0.0 0.0 -0.7586817489902679
H 0.0 0.0 0.0
H 0.0 0.0 1.7530151226370532
3

H 0.0 0.0 -0.7586992013967051
H 0.0 0.0 0.0
H 0.0 0.0 1.752015274941897
3

H 0.0 0.0 -0.7587166538031423
H 0.0 0.0 0.0
H 0.0 0.0 1.7510154272467402
3

H 0.0 0.0 -0.7587341062095796
H 0.0 0.0 0.0
H 0.0 0.0 1.7500155795515837
3

H 0.0 0.0 -0.7587515586160168
H 0.0 0.0 0.0
H 0.0 0.0 1.7490157318564272
3

H 0.0 0.0 -0.7587690110224541
H 0.0 0.0 0.0
H 0.0 0.0 1.7480158841612707
3

H 0.0 0.0 -0.7587864634288913
H 0.0 0.0 0.0
H 0.0 0.0 1.7470160364661145
3

H 0.0 0.0 -0.7588039158353286
H 0.0 0.0 0.0
H 0.0 0.0 1.7460161887709578
3

H 0.0 0.0 -0.7588213682417658
H 0.0 0.0 0.0
H 0.0 0.0 1.7450163410758013
3

H 0.0 0.0 -0.7588388206482031
H 0.0 0.0 0.0
H 0.0 0.0 1.7440164933806448
3

H 0.0 0.0 -0.7588562730546403
H 0.0 0.0 0.0
H 0.0 0.0 1.7430166456854883
3

H 0.0 0.0 -0.7588737254610776
H 0.0 0.0 0.0
H 0.0 0.0 1.7420167979903318
3

H 0.0 0.0 -0.7588911778675148
H 0.0 0.0 0.0
H 0.0 0.0 1.7410169502951751
3

H 0.0 0.0 -0.7589086302739521
H 0.0 0.0 0.0
H 0.0 0.0 1.7400171026000189
3

H 0.0 0.0 -0.7589260826803893
H 0.0 0.0 0.0
H 0.0 0.0 1.7390172549048624
3

H 0.0 0.0 -0.7589435350868265
H 0.0 0.0 0.0
H 0.0 0.0 1.738017407209706
3

H 0.0 0.0 -0.7589609874932638
H 0.0 0.0 0.0
H 0.0 0.0 1.7370175595145494
3

H 0.0 0.0 -0.758978439899701
H 0.0 0.0 0.0
H 0.0 0.0 1.736017711819393
3

H 0.0 0.0 -0.7589958923061383
H 0.0 0.0 0.0
H 0.0 0.0 1.7350178641242364
3

H 0.0 0.0 -0.7590133447125755
H 0.0 0.0 0.0
H 0.0 0.0 1.73401801642908
3

H 0.0 0.0 -0.75904824952545
H 0.0 0.0 0.0
H 0.0 0.0 1.732018321038767
3

H 0.0 0.0 -0.7590657019318873
H 0.0 0.0 0.0
H 0.0 0.0 1.7310184733436105
3

H 0.0 0.0 -0.7590831543383245
H 0.0 0.0 0.0
H 0.0 0.0 1.730018625648454
3

H 0.0 0.0 -0.7591006067447618
H 0.0 0.0 0.0
H 0.0 0.0 1.7290187779532975
3

H 0.0 0.0 -0.759118059151199
H 0.0 0.0 0.0
H 0.0 0.0 1.728018930258141
3

H 0.0 0.0 -0.7591355115576363
H 0.0 0.0 0.0
H 0.0 0.0 1.7270190825629843
3

H 0.0 0.0 -0.7591529639640735
H 0.0 0.0 0.0
H 0.0 0.0 1.726019234867828
3

H 0.0 0.0 -0.7591704163705107
H 0.0 0.0 0.0
H 0.0 0.0 1.7250193871726716
3

H 0.0 0.0 -0.759187868776948
H 0.0 0.0 0.0
H 0.0 0.0 1.724019539477515
3

H 0.0 0.0 -0.7592053211833852
H 0.0 0.0 0.0
H 0.0 0.0 1.7230196917823586
3

H 0.0 0.0 -0.7592227735898225
H 0.0 0.0 0.0
H 0.0 0.0 1.722019844087202
3

H 0.0 0.0 -0.7592402259962597
H 0.0 0.0 0.0
H 0.0 0.0 1.7210199963920456
3

H 0.0 0.0 -0.759257678402697
H 0.0 0.0 0.0
H 0.0 0.0 1.7200201486968891
3

H 0.0 0.0 -0.7592751308091342
H 0.0 0.0 0.0
H 0.0 0.0 1.7190203010017326
3

H 0.0 0.0 -0.7592925832155715
H 0.0 0.0 0.0
H 0.0 0.0 1.7180204533065762
3

H 0.0 0.0 -0.7593100356220087
H 0.0 0.0 0.0
H 0.0 0.0 1.7170206056114197
3

H 0.0 0.0 -0.759327488028446
H 0.0 0.0 0.0
H 0.0 0.0 1.7160207579162632
3

H 0.0 0.0 -0.7593449404348832
H 0.0 0.0 0.0
H 0.0 0.0 1.7150209102211067
3

H 0.0 0.0 -0.7593798399315858
H 0.0 0.0 0.0
H 0.0 0.0 1.7140215193940875
3

H 0.0 0.0 -0.759397292338023
H 0.0 0.0 0.0
H 0.0 0.0 1.713021671698931
3

H 0.0 0.0 -0.7594147447444602
H 0.0 0.0 0.0
H 0.0 0.0 1.7120218240037746
3

H 0.0 0.0 -0.7594321971508975
H 0.0 0.0 0.0
H 0.0 0.0 1.711021976308618
3

H 0.0 0.0 -0.7594496495573347
H 0.0 0.0 0.0
H 0.0 0.0 1.7100221286134616
3

H 0.0 0.0 -0.759467101963772
H 0.0 0.0 0.0
H 0.0 0.0 1.709022280918305
3

H 0.0 0.0 -0.7594845543702092
H 0.0 0.0 0.0
H 0.0 0.0 1.7080224332231486
3

H 0.0 0.0 -0.7595020067766465
H 0.0 0.0 0.0
H 0.0 0.0 1.707022585527992
3

H 0.0 0.0 -0.7595194591830837
H 0.0 0.0 0.0
H 0.0 0.0 1.7060227378328356
3

H 0.0 0.0 -0.759536911589521
H 0.0 0.0 0.0
H 0.0 0.0 1.7050228901376792
3

H 0.0 0.0 -0.7595543639959582
H 0.0 0.0 0.0
H 0.0 0.0 1.704023042442523
3

H 0.0 0.0 -0.7595718164023955
H 0.0 0.0 0.0
H 0.0 0.0 1.7030231947473662
3

H 0.0 0.0 -0.7595892688088327
H 0.0 0.0 0.0
H 0.0 0.0 1.7020233470522097
3

H 0.0 0.0 -0.7596241683055353
H 0.0 0.0 0.0
H 0.0 0.0 1.7010239562251903
3

H 0.0 0.0 -0.7596416207119725
H 0.0 0.0 0.0
H 0.0 0.0 1.700024108530034
3

H 0.0 0.0 -0.7596590731184097
H 0.0 0.0 0.0
H 0.0 0.0 1.6990242608348776
3

H 0.0 0.0 -0.759676525524847
H 0.0 0.0 0.0
H 0.0 0.0 1.698024413139721
3

H 0.0 0.0 -0.7596939779312842
H 0.0 0.0 0.0
H 0.0 0.0 1.6970245654445646
3

H 0.0 0.0 -0.7597114303377215
H 0.0 0.0 0.0
H 0.0 0.0 1.696024717749408
3

H 0.0 0.0 -0.7597288827441587
H 0.0 0.0 0.0
H 0.0 0.0 1.6950248700542516
3

H 0.0 0.0 -0.759746335150596
H 0.0 0.0 0.0
H 0.0 0.0 1.6940250223590951
3

H 0.0 0.0 -0.7597812346472985
H 0.0 0.0 0.0
H 0.0 0.0 1.693025631532076
3

H 0.0 0.0 -0.7597986870537358
H 0.0 0.0 0.0
H 0.0 0.0 1.6920257838369197
3

H 0.0 0.0 -0.759816139460173
H 0.0 0.0 0.0
H 0.0 0.0 1.691025936141763
3

H 0.0 0.0 -0.7598335918666103
H 0.0 0.0 0.0
H 0.0 0.0 1.6900260884466063
3

H 0.0 0.0 -0.7598510442730475
H 0.0 0.0 0.0
H 0.0 0.0 1.68902624075145
3

H 0.0 0.0 -0.7598684966794848
H 0.0 0.0 0.0
H 0.0 0.0 1.6880263930562935
3

H 0.0 0.0 -0.7599033961761873
H 0.0 0.0 0.0
H 0.0 0.0 1.6870270022292744
3

H 0.0 0.0 -0.7599208485826245
H 0.0 0.0 0.0
H 0.0 0.0 1.686027154534118
3

H 0.0 0.0 -0.7599383009890618
H 0.0 0.0 0.0
H 0.0 0.0 1.6850273068389614
3

H 0.0 0.0 -0.759955753395499
H 0.0 0.0 0.0
H 0.0 0.0 1.684027459143805
3

H 0.0 0.0 -0.7599732058019363
H 0.0 0.0 0.0
H 0.0 0.0 1.6830276114486484
3

H 0.0 0.0 -0.7600081052986388
H 0.0 0.0 0.0
H 0.0 0.0 1.6820282206216293
3

H 0.0 0.0 -0.7600255577050761
H 0.0 0.0 0.0
H 0.0 0.0 1.6810283729264728
3

H 0.0 0.0 -0.7600430101115133
H 0.0 0.0 0.0
H 0.0 0.0 1.6800285252313163
3

H 0.0 0.0 -0.7600604625179506
H 0.0 0.0 0.0
H 0.0 0.0 1.6790286775361598
3

H 0.0 0.0 -0.7600779149243878
H 0.0 0.0 0.0
H 0.0 0.0 1.678028829841003
3

H 0.0 0.0 -0.7601128144210904
H 0.0 0.0 0.0
H 0.0 0.0 1.6770294390139842
3

H 0.0 0.0 -0.7601302668275276
H 0.0 0.0 0.0
H 0.0 0.0 1.6760295913188277
3

H 0.0 0.0 -0.7601477192339648
H 0.0 0.0 0.0
H 0.0 0.0 1.6750297436236712
3

H 0.0 0.0 -0.7601651716404021
H 0.0 0.0 0.0
H 0.0 0.0 1.6740298959285147
3

H 0.0 0.0 -0.7602000711371046
H 0.0 0.0 0.0
H 0.0 0.0 1.6730305051014955
3

H 0.0 0.0 -0.7602175235435419
H 0.0 0.0 0.0
H 0.0 0.0 1.672030657406339
3

H 0.0 0.0 -0.7602349759499791
H 0.0 0.0 0.0
H 0.0 0.0 1.6710308097111826
3

H 0.0 0.0 -0.7602524283564164
H 0.0 0.0 0.0
H 0.0 0.0 1.670030962016026
3

H 0.0 0.0 -0.7602873278531189
H 0.0 0.0 0.0
H 0.0 0.0 1.669031571189007
3

H 0.0 0.0 -0.7603047802595562
H 0.0 0.0 0.0
H 0.0 0.0 1.6680317234938504
3

H 0.0 0.0 -0.7603222326659934
H 0.0 0.0 0.0
H 0.0 0.0 1.667031875798694
3

H 0.0 0.0 -0.760357132162696
H 0.0 0.0 0.0
H 0.0 0.0 1.6660324849716748
3

H 0.0 0.0 -0.7603745845691332
H 0.0 0.0 0.0
H 0.0 0.0 1.6650326372765183
3

H 0.0 0.0 -0.7603920369755705
H 0.0 0.0 0.0
H 0.0 0.0 1.6640327895813618
3

H 0.0 0.0 -0.7604094893820077
H 0.0 0.0 0.0
H 0.0 0.0 1.663032941886205
3

H 0.0 0.0 -0.7604443888787102
H 0.0 0.0 0.0
H 0.0 0.0 1.6620335510591862
3

H 0.0 0.0 -0.7604618412851475
H 0.0 0.0 0.0
H 0.0 0.0 1.6610337033640297
3

H 0.0 0.0 -0.7604792936915847
H 0.0 0.0 0.0
H 0.0 0.0 1.6600338556688732
3

H 0.0 0.0 -0.7605141931882873
H 0.0 0.0 0.0
H 0.0 0.0 1.659034464841854
3

H 0.0 0.0 -0.7605316455947245
H 0.0 0.0 0.0
H 0.0 0.0 1.6580346171466975
3

H 0.0 0.0 -0.7605490980011618
H 0.0 0.0 0.0
H 0.0 0.0 1.657034769451541
3

H 0.0 0.0 -0.7605839974978643
H 0.0 0.0 0.0
H 0.0 0.0 1.656035378624522
3

H 0.0 0.0 -0.7606014499043016
H 0.0 0.0 0.0
H 0.0 0.0 1.6550355309293654
3

H 0.0 0.0 -0.7606189023107388
H 0.0 0.0 0.0
H 0.0 0.0 1.654035683234209
3

H 0.0 0.0 -0.7606538018074414
H 0.0 0.0 0.0
H 0.0 0.0 1.6530362924071895
3

H 0.0 0.0 -0.7606712542138786
H 0.0 0.0 0.0
H 0.0 0.0 1.6520364447120333
3

H 0.0 0.0 -0.7607061537105811
H 0.0 0.0 0.0
H 0.0 0.0 1.651037053885014
3

H 0.0 0.0 -0.7607236061170184
H 0.0 0.0 0.0
H 0.0 0.0 1.6500372061898576
3

H 0.0 0.0 -0.7607410585234556
H 0.0 0.0 0.0
H 0.0 0.0 1.6490373584947011
3

H 0.0 0.0 -0.7607759580201582
H 0.0 0.0 0.0
H 0.0 0.0 1.648037967667682
3

H 0.0 0.0 -0.7607934104265954
H 0.0 0.0 0.0
H 0.0 0.0 1.6470381199725257
3

H 0.0 0.0 -0.760828309923298
H 0.0 0.0 0.0
H 0.0 0.0 1.6460387291455063
3

H 0.0 0.0 -0.7608457623297352
H 0.0 0.0 0.0
H 0.0 0.0 1.6450388814503498
3

H 0.0 0.0 -0.7608632147361725
H 0.0 0.0 0.0
H 0.0 0.0 1.6440390337551931
3

H 0.0 0.0 -0.760898114232875
H 0.0 0.0 0.0
H 0.0 0.0 1.6430396429281742
3

H 0.0 0.0 -0.7609155666393123
H 0.0 0.0 0.0
H 0.0 0.0 1.6420397952330177
3

H 0.0 0.0 -0.7609504661360148
H 0.0 0.0 0.0
H 0.0 0.0 1.6410404044059983
3

H 0.0 0.0 -0.760967918542452
H 0.0 0.0 0.0
H 0.0 0.0 1.640040556710842
3

H 0.0 0.0 -0.7610028180391546
H 0.0 0.0 0.0
H 0.0 0.0 1.6390411658838229
3

H 0.0 0.0 -0.7610202704455918
H 0.0 0.0 0.0
H 0.0 0.0 1.6380413181886664
3

H 0.0 0.0 -0.7610551699422944
H 0.0 0.0 0.0
H 0.0 0.0 1.6370419273616472
3

H 0.0 0.0 -0.7610900694389969
H 0.0 0.0 0.0
H 0.0 0.0 1.636042536534628
3

H 0.0 0.0 -0.7611249689356995
H 0.0 0.0 0.0
H 0.0 0.0 1.635043145707609
3

H 0.0 0.0 -0.761159868432402
H 0.0 0.0 0.0
H 0.0 0.0 1.6340437548805895
3

H 0.0 0.0 -0.7611947679291046
H 0.0 0.0 0.0
H 0.0 0.0 1.6330443640535706
3

H 0.0 0.0 -0.7612296674258071
H 0.0 0.0 0.0
H 0.0 0.0 1.6320449732265514
3

H 0.0 0.0 -0.7612645669225097
H 0.0 0.0 0.0
H 0.0 0.0 1.6310455823995322
3

H 0.0 0.0 -0.7612994664192122
H 0.0 0.0 0.0
H 0.0 0.0 1.630046191572513
3

H 0.0 0.0 -0.7613343659159147
H 0.0 0.0 0.0
H 0.0 0.0 1.629046800745494
3

H 0.0 0.0 -0.7613692654126173
H 0.0 0.0 0.0
H 0.0 0.0 1.6280474099184747
3

H 0.0 0.0 -0.7614041649093198
H 0.0 0.0 0.0
H 0.0 0.0 1.6270480190914556
3

H 0.0 0.0 -0.7614390644060224
H 0.0 0.0 0.0
H 0.0 0.0 1.6260486282644364
3

H 0.0 0.0 -0.7614739639027249
H 0.0 0.0 0.0
H 0.0 0.0 1.6250492374374172
3

H 0.0 0.0 -0.7615088633994275
H 0.0 0.0 0.0
H 0.0 0.0 1.624049846610398
3

H 0.0 0.0 -0.76154376289613
H 0.0 0.0 0.0
H 0.0 0.0 1.623050455783379
3

H 0.0 0.0 -0.7615786623928326
H 0.0 0.0 0.0
H 0.0 0.0 1.6220510649563598
3

H 0.0 0.0 -0.7616135618895351
H 0.0 0.0 0.0
H 0.0 0.0 1.6210516741293406
3

H 0.0 0.0 -0.7616484613862377
H 0.0 0.0 0.0
H 0.0 0.0 1.6200522833023214
3

H 0.0 0.0 -0.7616833608829402
H 0.0 0.0 0.0
H 0.0 0.0 1.6190528924753025
3

H 0.0 0.0 -0.7617182603796427
H 0.0 0.0 0.0
H 0.0 0.0 1.618053501648283
3

H 0.0 0.0 -0.7617531598763453
H 0.0 0.0 0.0
H 0.0 0.0 1.617054110821264
3

H 0.0 0.0 -0.7617880593730478
H 0.0 0.0 0.0
H 0.0 0.0 1.6160547199942448
3

H 0.0 0.0 -0.7618229588697504
H 0.0 0.0 0.0
H 0.0 0.0 1.6150553291672256
3

H 0.0 0.0 -0.7618578583664529
H 0.0 0.0 0.0
H 0.0 0.0 1.6140559383402064
3

H 0.0 0.0 -0.7618927578631555
H 0.0 0.0 0.0
H 0.0 0.0 1.6130565475131873
3

H 0.0 0.0 -0.761927657359858
H 0.0 0.0 0.0
H 0.0 0.0 1.612057156686168
3

H 0.0 0.0 -0.7619625568565606
H 0.0 0.0 0.0
H 0.0 0.0 1.611057765859149
3

H 0.0 0.0 -0.7619974563532631
H 0.0 0.0 0.0
H 0.0 0.0 1.6100583750321298
3

H 0.0 0.0 -0.7620323558499656
H 0.0 0.0 0.0
H 0.0 0.0 1.6090589842051106
3

H 0.0 0.0 -0.7620672553466682
H 0.0 0.0 0.0
H 0.0 0.0 1.6080595933780917
3

H 0.0 0.0 -0.7621021548433707
H 0.0 0.0 0.0
H 0.0 0.0 1.6070602025510723
3

H 0.0 0.0 -0.7621370543400733
H 0.0 0.0 0.0
H 0.0 0.0 1.6060608117240531
3

H 0.0 0.0 -0.7621719538367758
H 0.0 0.0 0.0
H 0.0 0.0 1.605061420897034
3

H 0.0 0.0 -0.7622068533334784
H 0.0 0.0 0.0
H 0.0 0.0 1.6040620300700148
3

H 0.0 0.0 -0.7622417528301809
H 0.0 0.0 0.0
H 0.0 0.0 1.6030626392429956
3

H 0.0 0.0 -0.7622766523268835
H 0.0 0.0 0.0
H 0.0 0.0 1.6020632484159765
3

H 0.0 0.0 -0.762311551823586
H 0.0 0.0 0.0
H 0.0 0.0 1.6010638575889573
3

H 0.0 0.0 -0.7623464513202886
H 0.0 0.0 0.0
H 0.0 0.0 1.600064466761938
3

H 0.0 0.0 -0.7623813508169911
H 0.0 0.0 0.0
H 0.0 0.0 1.599065075934919
3

H 0.0 0.0 -0.7624162503136936
H 0.0 0.0 0.0
H 0.0 0.0 1.5980656851078998
3

H 0.0 0.0 -0.7624511498103962
H 0.0 0.0 0.0
H 0.0 0.0 1.5970662942808806
3

H 0.0 0.0 -0.7624860493070987
H 0.0 0.0 0.0
H 0.0 0.0 1.5960669034538617
3

H 0.0 0.0 -0.7625209488038013
H 0.0 0.0 0.0
H 0.0 0.0 1.5950675126268423
3

H 0.0 0.0 -0.7625558483005038
H 0.0 0.0 0.0
H 0.0 0.0 1.5940681217998232
3

H 0.0 0.0 -0.7625907477972064
H 0.0 0.0 0.0
H 0.0 0.0 1.593068730972804
3

H 0.0 0.0 -0.7626256472939089
H 0.0 0.0 0.0
H 0.0 0.0 1.5920693401457848
3

H 0.0 0.0 -0.7626605467906115
H 0.0 0.0 0.0
H 0.0 0.0 1.5910699493187657
3

H 0.0 0.0 -0.762695446287314
H 0.0 0.0 0.0
H 0.0 0.0 1.5900705584917465
3

H 0.0 0.0 -0.7627303457840166
H 0.0 0.0 0.0
H 0.0 0.0 1.5890711676647271
3

H 0.0 0.0 -0.7627652452807191
H 0.0 0.0 0.0
H 0.0 0.0 1.5880717768377082
3

H 0.0 0.0 -0.7628001447774216
H 0.0 0.0 0.0
H 0.0 0.0 1.587072386010689
3

H 0.0 0.0 -0.7628350442741242
H 0.0 0.0 0.0
H 0.0 0.0 1.5860729951836698
3

H 0.0 0.0 -0.7628699437708267
H 0.0 0.0 0.0
H 0.0 0.0 1.585073604356651
3

H 0.0 0.0 -0.7629048432675293
H 0.0 0.0 0.0
H 0.0 0.0 1.5840742135296315
3

H 0.0 0.0 -0.7629397427642318
H 0.0 0.0 0.0
H 0.0 0.0 1.5830748227026123
3

H 0.0 0.0 -0.7629746422609344
H 0.0 0.0 0.0
H 0.0 0.0 1.5820754318755932
3

H 0.0 0.0 -0.7630095417576369
H 0.0 0.0 0.0
H 0.0 0.0 1.581076041048574
3

H 0.0 0.0 -0.7630444412543395
H 0.0 0.0 0.0
H 0.0 0.0 1.5800766502215549
3

H 0.0 0.0 -0.763079340751042
H 0.0 0.0 0.0
H 0.0 0.0 1.5790772593945357
3

H 0.0 0.0 -0.7631142402477445
H 0.0 0.0 0.0
H 0.0 0.0 1.5780778685675163
3

H 0.0 0.0 -0.7631491397444471
H 0.0 0.0 0.0
H 0.0 0.0 1.5770784777404974
3

H 0.0 0.0 -0.7631840392411496
H 0.0 0.0 0.0
H 0.0 0.0 1.5760790869134782
3

H 0.0 0.0 -0.7632189387378522
H 0.0 0.0 0.0
H 0.0 0.0 1.575079696086459
3

H 0.0 0.0 -0.7632538382345547
H 0.0 0.0 0.0
H 0.0 0.0 1.57408030525944
3

H 0.0 0.0 -0.7632887377312573
H 0.0 0.0 0.0
H 0.0 0.0 1.5730809144324207
3

H 0.0 0.0 -0.7633236372279598
H 0.0 0.0 0.0
H 0.0 0.0 1.5720815236054015
3

H 0.0 0.0 -0.7633585367246624
H 0.0 0.0 0.0
H 0.0 0.0 1.5710821327783824
3

H 0.0 0.0 -0.7633934362213649
H 0.0 0.0 0.0
H 0.0 0.0 1.5700827419513632
3

H 0.0 0.0 -0.7634283357180675
H 0.0 0.0 0.0
H 0.0 0.0 1.569083351124344
3

H 0.0 0.0 -0.76346323521477
H 0.0 0.0 0.0
H 0.0 0.0 1.5680839602973249
3

H 0.0 0.0 -0.7634981347114725
H 0.0 0.0 0.0
H 0.0 0.0 1.5670845694703055
3

H 0.0 0.0 -0.7635330342081751
H 0.0 0.0 0.0
H 0.0 0.0 1.5660851786432866
3

H 0.0 0.0 -0.7635679337048776
H 0.0 0.0 0.0
H 0.0 0.0 1.5650857878162674
3

H 0.0 0.0 -0.7636028332015802
H 0.0 0.0 0.0
H 0.0 0.0 1.5640863969892482
3

H 0.0 0.0 -0.7636377326982827
H 0.0 0.0 0.0
H 0.0 0.0 1.563087006162229
3

H 0.0 0.0 -0.7636726321949853
H 0.0 0.0 0.0
H 0.0 0.0 1.56208761533521
3

H 0.0 0.0 -0.7637249681512283
H 0.0 0.0 0.0
H 0.0 0.0 1.5610889858004553
3

H 0.0 0.0 -0.7637598676479308
H 0.0 0.0 0.0
H 0.0 0.0 1.560089594973436
3

H 0.0 0.0 -0.7637947671446333
H 0.0 0.0 0.0
H 0.0 0.0 1.559090204146417
3

H 0.0 0.0 -0.7638296666413359
H 0.0 0.0 0.0
H 0.0 0.0 1.5580908133193978
3

H 0.0 0.0 -0.7638645661380384
H 0.0 0.0 0.0
H 0.0 0.0 1.5570914224923786
3

H 0.0 0.0 -0.763899465634741
H 0.0 0.0 0.0
H 0.0 0.0 1.5560920316653597
3

H 0.0 0.0 -0.7639343651314435
H 0.0 0.0 0.0
H 0.0 0.0 1.5550926408383403
3

H 0.0 0.0 -0.7639692646281461
H 0.0 0.0 0.0
H 0.0 0.0 1.5540932500113211
3

H 0.0 0.0 -0.7640216005843891
H 0.0 0.0 0.0
H 0.0 0.0 1.5530946204765663
3

H 0.0 0.0 -0.7640565000810916
H 0.0 0.0 0.0
H 0.0 0.0 1.5520952296495474
3

H 0.0 0.0 -0.7640913995777942
H 0.0 0.0 0.0
H 0.0 0.0 1.5510958388225282
3

H 0.0 0.0 -0.7641262990744967
H 0.0 0.0 0.0
H 0.0 0.0 1.550096447995509
3

H 0.0 0.0 -0.7641611985711992
H 0.0 0.0 0.0
H 0.0 0.0 1.54909705716849
3

H 0.0 0.0 -0.7642135345274422
H 0.0 0.0 0.0
H 0.0 0.0 1.5480984276337353
3

H 0.0 0.0 -0.7642484340241448
H 0.0 0.0 0.0
H 0.0 0.0 1.547099036806716
3

H 0.0 0.0 -0.7642833335208473
H 0.0 0.0 0.0
H 0.0 0.0 1.546099645979697
3

H 0.0 0.0 -0.7643182330175499
H 0.0 0.0 0.0
H 0.0 0.0 1.5451002551526778
3

H 0.0 0.0 -0.7643705689737929
H 0.0 0.0 0.0
H 0.0 0.0 1.5441016256179232
3

H 0.0 0.0 -0.7644229049300358
H 0.0 0.0 0.0
H 0.0 0.0 1.5431029960831686
3

H 0.0 0.0 -0.7644752408862788
H 0.0 0.0 0.0
H 0.0 0.0 1.542104366548414
3

H 0.0 0.0 -0.7645275768425218
H 0.0 0.0 0.0
H 0.0 0.0 1.5411057370136594
3

H 0.0 0.0 -0.7645799127987648
H 0.0 0.0 0.0
H 0.0 0.0 1.5401071074789048
3

H 0.0 0.0 -0.7646322487550078
H 0.0 0.0 0.0
H 0.0 0.0 1.5391084779441502
3

H 0.0 0.0 -0.7646845847112508
H 0.0 0.0 0.0
H 0.0 0.0 1.5381098484093956
3

H 0.0 0.0 -0.7647369206674938
H 0.0 0.0 0.0
H 0.0 0.0 1.537111218874641
3

H 0.0 0.0 -0.7647892566237368
H 0.0 0.0 0.0
H 0.0 0.0 1.5361125893398864
3

H 0.0 0.0 -0.7648415925799797
H 0.0 0.0 0.0
H 0.0 0.0 1.5351139598051318
3

H 0.0 0.0 -0.7648939285362227
H 0.0 0.0 0.0
H 0.0 0.0 1.5341153302703772
3

H 0.0 0.0 -0.7649462644924657
H 0.0 0.0 0.0
H 0.0 0.0 1.5331167007356226
3

H 0.0 0.0 -0.7649986004487087
H 0.0 0.0 0.0
H 0.0 0.0 1.532118071200868
3

H 0.0 0.0 -0.7650509364049517
H 0.0 0.0 0.0
H 0.0 0.0 1.5311194416661134
3

H 0.0 0.0 -0.7651032723611947
H 0.0 0.0 0.0
H 0.0 0.0 1.5301208121313588
3

H 0.0 0.0 -0.7651556083174377
H 0.0 0.0 0.0
H 0.0 0.0 1.5291221825966042
3

H 0.0 0.0 -0.7652079442736807
H 0.0 0.0 0.0
H 0.0 0.0 1.5281235530618495
3

H 0.0 0.0 -0.7652602802299237
H 0.0 0.0 0.0
H 0.0 0.0 1.527124923527095
3

H 0.0 0.0 -0.7653126161861666
H 0.0 0.0 0.0
H 0.0 0.0 1.5261262939923403
3

H 0.0 0.0 -0.7653649521424096
H 0.0 0.0 0.0
H 0.0 0.0 1.5251276644575855
3

H 0.0 0.0 -0.7654172880986526
H 0.0 0.0 0.0
H 0.0 0.0 1.5241290349228311
3

H 0.0 0.0 -0.7654696240548956
H 0.0 0.0 0.0
H 0.0 0.0 1.5231304053880763
3

H 0.0 0.0 -0.7655219600111386
H 0.0 0.0 0.0
H 0.0 0.0 1.522131775853322
3

H 0.0 0.0 -0.7655742959673816
H 0.0 0.0 0.0
H 0.0 0.0 1.521133146318567
3

H 0.0 0.0 -0.7656266319236246
H 0.0 0.0 0.0
H 0.0 0.0 1.5201345167838127
3

H 0.0 0.0 -0.7656789678798676
H 0.0 0.0 0.0
H 0.0 0.0 1.519135887249058
3

H 0.0 0.0 -0.7657313038361105
H 0.0 0.0 0.0
H 0.0 0.0 1.5181372577143035
3

H 0.0 0.0 -0.7657836397923535
H 0.0 0.0 0.0
H 0.0 0.0 1.517138628179549
3

H 0.0 0.0 -0.7658359757485965
H 0.0 0.0 0.0
H 0.0 0.0 1.5161399986447943
3

H 0.0 0.0 -0.7658883117048395
H 0.0 0.0 0.0
H 0.0 0.0 1.5151413691100395
3

H 0.0 0.0 -0.7659406476610825
H 0.0 0.0 0.0
H 0.0 0.0 1.5141427395752851
3

H 0.0 0.0 -0.7659929836173255
H 0.0 0.0 0.0
H 0.0 0.0 1.5131441100405305
3

H 0.0 0.0 -0.7660453195735685
H 0.0 0.0 0.0
H 0.0 0.0 1.512145480505776
3

H 0.0 0.0 -0.7660976555298115
H 0.0 0.0 0.0
H 0.0 0.0 1.5111468509710213
3

H 0.0 0.0 -0.7661499914860544
H 0.0 0.0 0.0
H 0.0 0.0 1.5101482214362667
3

H 0.0 0.0 -0.7662023274422974
H 0.0 0.0 0.0
H 0.0 0.0 1.509149591901512
3

H 0.0 0.0 -0.7662546633985404
H 0.0 0.0 0.0
H 0.0 0.0 1.5081509623667575
3

H 0.0 0.0 -0.7663069993547834
H 0.0 0.0 0.0
H 0.0 0.0 1.507152332832003
3

H 0.0 0.0 -0.7663593353110264
H 0.0 0.0 0.0
H 0.0 0.0 1.5061537032972483
3

H 0.0 0.0 -0.7664116712672694
H 0.0 0.0 0.0
H 0.0 0.0 1.5051550737624937
3

H 0.0 0.0 -0.7664640072235124
H 0.0 0.0 0.0
H 0.0 0.0 1.504156444227739
3

H 0.0 0.0 -0.7665163431797554
H 0.0 0.0 0.0
H 0.0 0.0 1.5031578146929845
3

H 0.0 0.0 -0.7665686791359984
H 0.0 0.0 0.0
H 0.0 0.0 1.50215918515823
3

H 0.0 0.0 -0.7666210150922413
H 0.0 0.0 0.0
H 0.0 0.0 1.5011605556234753
3

H 0.0 0.0 -0.7666733510484843
H 0.0 0.0 0.0
H 0.0 0.0 1.500161926088721
3

H 0.0 0.0 -0.7667256870047273
H 0.0 0.0 0.0
H 0.0 0.0 1.499163296553966
3

H 0.0 0.0 -0.7667780229609703
H 0.0 0.0 0.0
H 0.0 0.0 1.4981646670192117
3

H 0.0 0.0 -0.7668303589172133
H 0.0 0.0 0.0
H 0.0 0.0 1.4971660374844569
3

H 0.0 0.0 -0.7668826948734563
H 0.0 0.0 0.0
H 0.0 0.0 1.4961674079497025
3

H 0.0 0.0 -0.7669350308296993
H 0.0 0.0 0.0
H 0.0 0.0 1.4951687784149477
3

H 0.0 0.0 -0.7669873667859423
H 0.0 0.0 0.0
H 0.0 0.0 1.494170148880193
3

H 0.0 0.0 -0.7670397027421852
H 0.0 0.0 0.0
H 0.0 0.0 1.4931715193454385
3

H 0.0 0.0 -0.7670920386984282
H 0.0 0.0 0.0
H 0.0 0.0 1.492172889810684
3

H 0.0 0.0 -0.7671443746546712
H 0.0 0.0 0.0
H 0.0 0.0 1.4911742602759293
3

H 0.0 0.0 -0.7671967106109142
H 0.0 0.0 0.0
H 0.0 0.0 1.4901756307411749
3

H 0.0 0.0 -0.7672490465671572
H 0.0 0.0 0.0
H 0.0 0.0 1.48917700120642
3

H 0.0 0.0 -0.7673013825234002
H 0.0 0.0 0.0
H 0.0 0.0 1.4881783716716654
3

H 0.0 0.0 -0.7673537184796432
H 0.0 0.0 0.0
H 0.0 0.0 1.4871797421369108
3

H 0.0 0.0 -0.7674060544358862
H 0.0 0.0 0.0
H 0.0 0.0 1.4861811126021562
3

H 0.0 0.0 -0.7674583903921292
H 0.0 0.0 0.0
H 0.0 0.0 1.4851824830674016
3

H 0.0 0.0 -0.7675107263483721
H 0.0 0.0 0.0
H 0.0 0.0 1.484183853532647
3

H 0.0 0.0 -0.7675630623046151
H 0.0 0.0 0.0
H 0.0 0.0 1.4831852239978924
3

H 0.0 0.0 -0.7676153982608581
H 0.0 0.0 0.0
H 0.0 0.0 1.4821865944631378
3

H 0.0 0.0 -0.7676677342171011
H 0.0 0.0 0.0
H 0.0 0.0 1.4811879649283832
3

H 0.0 0.0 -0.7677374906908452
H 0.0 0.0 0.0
H 0.0 0.0 1.4801904008781237
3

H 0.0 0.0 -0.7678072471645893
H 0.0 0.0 0.0
H 0.0 0.0 1.4791928368278635
3

H 0.0 0.0 -0.7678770036383333
H 0.0 0.0 0.0
H 0.0 0.0 1.478195272777604
3

H 0.0 0.0 -0.7679467601120774
H 0.0 0.0 0.0
H 0.0 0.0 1.4771977087273442
3

H 0.0 0.0 -0.7680165165858215
H 0.0 0.0 0.0
H 0.0 0.0 1.4762001446770845
3

H 0.0 0.0 -0.7680862730595656
H 0.0 0.0 0.0
H 0.0 0.0 1.4752025806268247
3

H 0.0 0.0 -0.7681560295333096
H 0.0 0.0 0.0
H 0.0 0.0 1.474205016576565
3

H 0.0 0.0 -0.7682257860070537
H 0.0 0.0 0.0
H 0.0 0.0 1.4732074525263053
3

H 0.0 0.0 -0.7682955424807978
H 0.0 0.0 0.0
H 0.0 0.0 1.4722098884760455
3

H 0.0 0.0 -0.7683652989545419
H 0.0 0.0 0.0
H 0.0 0.0 1.4712123244257858
3

H 0.0 0.0 -0.7684350554282859
H 0.0 0.0 0.0
H 0.0 0.0 1.470214760375526
3

H 0.0 0.0 -0.76850481190203
H 0.0 0.0 0.0
H 0.0 0.0 1.4692171963252665
3

H 0.0 0.0 -0.7685745683757741
H 0.0 0.0 0.0
H 0.0 0.0 1.4682196322750063
3

H 0.0 0.0 -0.7686443248495182
H 0.0 0.0 0.0
H 0.0 0.0 1.4672220682247468
3

H 0.0 0.0 -0.7687140813232622
H 0.0 0.0 0.0
H 0.0 0.0 1.466224504174487
3

H 0.0 0.0 -0.7687838377970063
H 0.0 0.0 0.0
H 0.0 0.0 1.4652269401242273
3

H 0.0 0.0 -0.7688535942707504
H 0.0 0.0 0.0
H 0.0 0.0 1.4642293760739675
3

H 0.0 0.0 -0.7689233507444945
H 0.0 0.0 0.0
H 0.0 0.0 1.4632318120237078
3

H 0.0 0.0 -0.7689931072182385
H 0.0 0.0 0.0
H 0.0 0.0 1.462234247973448
3

H 0.0 0.0 -0.7690628636919826
H 0.0 0.0 0.0
H 0.0 0.0 1.4612366839231885
3

H 0.0 0.0 -0.7691326201657267
H 0.0 0.0 0.0
H 0.0 0.0 1.4602391198729283
3

H 0.0 0.0 -0.7692023766394708
H 0.0 0.0 0.0
H 0.0 0.0 1.4592415558226688
3

H 0.0 0.0 -0.7692721331132149
H 0.0 0.0 0.0
H 0.0 0.0 1.458243991772409
3

H 0.0 0.0 -0.7693418895869589
H 0.0 0.0 0.0
H 0.0 0.0 1.4572464277221493
3

H 0.0 0.0 -0.769411646060703
H 0.0 0.0 0.0
H 0.0 0.0 1.4562488636718895
3

H 0.0 0.0 -0.7694814025344471
H 0.0 0.0 0.0
H 0.0 0.0 1.4552512996216298
3

H 0.0 0.0 -0.7695511590081912
H 0.0 0.0 0.0
H 0.0 0.0 1.45425373557137
3

H 0.0 0.0 -0.7696209154819352
H 0.0 0.0 0.0
H 0.0 0.0 1.4532561715211103
3

H 0.0 0.0 -0.7696906719556793
H 0.0 0.0 0.0
H 0.0 0.0 1.4522586074708506
3

H 0.0 0.0 -0.7697604284294234
H 0.0 0.0 0.0
H 0.0 0.0 1.4512610434205908
3

H 0.0 0.0 -0.7698301849031675
H 0.0 0.0 0.0
H 0.0 0.0 1.450263479370331
3

H 0.0 0.0 -0.7698999413769115
H 0.0 0.0 0.0
H 0.0 0.0 1.449265915320071
3

H 0.0 0.0 -0.7699696978506556
H 0.0 0.0 0.0
H 0.0 0.0 1.4482683512698116
3

H 0.0 0.0 -0.7700394543243997
H 0.0 0.0 0.0
H 0.0 0.0 1.4472707872195518
3

H 0.0 0.0 -0.7701092107981438
H 0.0 0.0 0.0
H 0.0 0.0 1.446273223169292
3

H 0.0 0.0 -0.7701789672718878
H 0.0 0.0 0.0
H 0.0 0.0 1.4452756591190323
3

H 0.0 0.0 -0.7702487237456319
H 0.0 0.0 0.0
H 0.0 0.0 1.4442780950687726
3

H 0.0 0.0 -0.770318480219376
H 0.0 0.0 0.0
H 0.0 0.0 1.4432805310185128
3

H 0.0 0.0 -0.7703882366931201
H 0.0 0.0 0.0
H 0.0 0.0 1.442282966968253
3

H 0.0 0.0 -0.7704579931668641
H 0.0 0.0 0.0
H 0.0 0.0 1.4412854029179931
3

H 0.0 0.0 -0.7705277496406082
H 0.0 0.0 0.0
H 0.0 0.0 1.4402878388677336
3

H 0.0 0.0 -0.7705975061143523
H 0.0 0.0 0.0
H 0.0 0.0 1.4392902748174738
3

H 0.0 0.0 -0.7706672625880964
H 0.0 0.0 0.0
H 0.0 0.0 1.438292710767214
3

H 0.0 0.0 -0.7707370190618404
H 0.0 0.0 0.0
H 0.0 0.0 1.4372951467169544
3

H 0.0 0.0 -0.7708067755355845
H 0.0 0.0 0.0
H 0.0 0.0 1.4362975826666946
3

H 0.0 0.0 -0.7708765320093286
H 0.0 0.0 0.0
H 0.0 0.0 1.4353000186164349
3

H 0.0 0.0 -0.7709462884830727
H 0.0 0.0 0.0
H 0.0 0.0 1.4343024545661751
3

H 0.0 0.0 -0.7710334442258203
H 0.0 0.0 0.0
H 0.0 0.0 1.4333062598680837
3

H 0.0 0.0 -0.771120599968568
H 0.0 0.0 0.0
H 0.0 0.0 1.4323100651699918
3

H 0.0 0.0 -0.7712077557113156
H 0.0 0.0 0.0
H 0.0 0.0 1.4313138704719002
3

H 0.0 0.0 -0.7712949114540633
H 0.0 0.0 0.0
H 0.0 0.0 1.4303176757738083
3

H 0.0 0.0 -0.7713820671968109
H 0.0 0.0 0.0
H 0.0 0.0 1.4293214810757169
3

H 0.0 0.0 -0.7714692229395586
H 0.0 0.0 0.0
H 0.0 0.0 1.4283252863776252
3

H 0.0 0.0 -0.7715563786823062
H 0.0 0.0 0.0
H 0.0 0.0 1.4273290916795336
3

H 0.0 0.0 -0.7716435344250538
H 0.0 0.0 0.0
H 0.0 0.0 1.426332896981442
3

H 0.0 0.0 -0.7717306901678015
H 0.0 0.0 0.0
H 0.0 0.0 1.4253367022833503
3

H 0.0 0.0 -0.7718178459105491
H 0.0 0.0 0.0
H 0.0 0.0 1.4243405075852589
3

H 0.0 0.0 -0.7719050016532968
H 0.0 0.0 0.0
H 0.0 0.0 1.423344312887167
3

H 0.0 0.0 -0.7719921573960444
H 0.0 0.0 0.0
H 0.0 0.0 1.4223481181890754
3

H 0.0 0.0 -0.7720793131387921
H 0.0 0.0 0.0
H 0.0 0.0 1.4213519234909835
3

H 0.0 0.0 -0.7721664688815397
H 0.0 0.0 0.0
H 0.0 0.0 1.420355728792892
3

H 0.0 0.0 -0.7722536246242874
H 0.0 0.0 0.0
H 0.0 0.0 1.4193595340948004
3

H 0.0 0.0 -0.772340780367035
H 0.0 0.0 0.0
H 0.0 0.0 1.4183633393967088
3

H 0.0 0.0 -0.7724279361097827
H 0.0 0.0 0.0
H 0.0 0.0 1.4173671446986171
3

H 0.0 0.0 -0.7725150918525303
H 0.0 0.0 0.0
H 0.0 0.0 1.4163709500005257
3

H 0.0 0.0 -0.772602247595278
H 0.0 0.0 0.0
H 0.0 0.0 1.4153747553024338
3

H 0.0 0.0 -0.7726894033380256
H 0.0 0.0 0.0
H 0.0 0.0 1.4143785606043422
3

H 0.0 0.0 -0.7727765590807733
H 0.0 0.0 0.0
H 0.0 0.0 1.4133823659062503
3

H 0.0 0.0 -0.7728637148235209
H 0.0 0.0 0.0
H 0.0 0.0 1.412386171208159
3

H 0.0 0.0 -0.7729508705662685
H 0.0 0.0 0.0
H 0.0 0.0 1.4113899765100673
3

H 0.0 0.0 -0.7730380263090162
H 0.0 0.0 0.0
H 0.0 0.0 1.4103937818119756
3

H 0.0 0.0 -0.7731251820517638
H 0.0 0.0 0.0
H 0.0 0.0 1.409397587113884
3

H 0.0 0.0 -0.7732123377945115
H 0.0 0.0 0.0
H 0.0 0.0 1.4084013924157923
3

H 0.0 0.0 -0.7732994935372591
H 0.0 0.0 0.0
H 0.0 0.0 1.407405197717701
3

H 0.0 0.0 -0.7733866492800068
H 0.0 0.0 0.0
H 0.0 0.0 1.406409003019609
3

H 0.0 0.0 -0.7734738050227544
H 0.0 0.0 0.0
H 0.0 0.0 1.4054128083215174
3

H 0.0 0.0 -0.7735609607655021
H 0.0 0.0 0.0
H 0.0 0.0 1.4044166136234255
3

H 0.0 0.0 -0.7736481165082497
H 0.0 0.0 0.0
H 0.0 0.0 1.403420418925334
3

H 0.0 0.0 -0.7737352722509974
H 0.0 0.0 0.0
H 0.0 0.0 1.4024242242272424
3

H 0.0 0.0 -0.773822427993745
H 0.0 0.0 0.0
H 0.0 0.0 1.4014280295291508
3

H 0.0 0.0 -0.7739095837364927
H 0.0 0.0 0.0
H 0.0 0.0 1.4004318348310592
3

H 0.0 0.0 -0.7739967394792403
H 0.0 0.0 0.0
H 0.0 0.0 1.3994356401329675
3

H 0.0 0.0 -0.774083895221988
H 0.0 0.0 0.0
H 0.0 0.0 1.398439445434876
3

H 0.0 0.0 -0.7741710509647356
H 0.0 0.0 0.0
H 0.0 0.0 1.3974432507367842
3

H 0.0 0.0 -0.7742755794280033
H 0.0 0.0 0.0
H 0.0 0.0 1.396448728841416
3

H 0.0 0.0 -0.774380107891271
H 0.0 0.0 0.0
H 0.0 0.0 1.3954542069460478
3

H 0.0 0.0 -0.7744846363545387
H 0.0 0.0 0.0
H 0.0 0.0 1.3944596850506796
3

H 0.0 0.0 -0.7745891648178064
H 0.0 0.0 0.0
H 0.0 0.0 1.3934651631553114
3

H 0.0 0.0 -0.7746936932810741
H 0.0 0.0 0.0
H 0.0 0.0 1.3924706412599432
3

H 0.0 0.0 -0.7747982217443418
H 0.0 0.0 0.0
H 0.0 0.0 1.391476119364575
3

H 0.0 0.0 -0.7749027502076095
H 0.0 0.0 0.0
H 0.0 0.0 1.3904815974692069
3

H 0.0 0.0 -0.7750072786708772
H 0.0 0.0 0.0
H 0.0 0.0 1.3894870755738389
3

H 0.0 0.0 -0.7751118071341448
H 0.0 0.0 0.0
H 0.0 0.0 1.3884925536784705
3

H 0.0 0.0 -0.7752163355974125
H 0.0 0.0 0.0
H 0.0 0.0 1.3874980317831025
3

H 0.0 0.0 -0.7753208640606802
H 0.0 0.0 0.0
H 0.0 0.0 1.386503509887734
3

H 0.0 0.0 -0.7754253925239479
H 0.0 0.0 0.0
H 0.0 0.0 1.385508987992366
3

H 0.0 0.0 -0.7755299209872156
H 0.0 0.0 0.0
H 0.0 0.0 1.3845144660969977
3

H 0.0 0.0 -0.7756344494504833
H 0.0 0.0 0.0
H 0.0 0.0 1.3835199442016295
3

H 0.0 0.0 -0.775738977913751
H 0.0 0.0 0.0
H 0.0 0.0 1.3825254223062613
3

H 0.0 0.0 -0.7758435063770187
H 0.0 0.0 0.0
H 0.0 0.0 1.381530900410893
3

H 0.0 0.0 -0.7759480348402864
H 0.0 0.0 0.0
H 0.0 0.0 1.380536378515525
3

H 0.0 0.0 -0.7760525633035541
H 0.0 0.0 0.0
H 0.0 0.0 1.3795418566201567
3

H 0.0 0.0 -0.7761570917668218
H 0.0 0.0 0.0
H 0.0 0.0 1.3785473347247883
3

H 0.0 0.0 -0.7762616202300895
H 0.0 0.0 0.0
H 0.0 0.0 1.3775528128294203
3

H 0.0 0.0 -0.7763661486933572
H 0.0 0.0 0.0
H 0.0 0.0 1.376558290934052
3

H 0.0 0.0 -0.7764706771566249
H 0.0 0.0 0.0
H 0.0 0.0 1.375563769038684
3

H 0.0 0.0 -0.7765752056198926
H 0.0 0.0 0.0
H 0.0 0.0 1.3745692471433155
3

H 0.0 0.0 -0.7766797340831603
H 0.0 0.0 0.0
H 0.0 0.0 1.3735747252479475
3

H 0.0 0.0 -0.776784262546428
H 0.0 0.0 0.0
H 0.0 0.0 1.3725802033525794
3

H 0.0 0.0 -0.7768887910096957
H 0.0 0.0 0.0
H 0.0 0.0 1.3715856814572112
3

H 0.0 0.0 -0.7769933194729634
H 0.0 0.0 0.0
H 0.0 0.0 1.370591159561843
3

H 0.0 0.0 -0.777097847936231
H 0.0 0.0 0.0
H 0.0 0.0 1.3695966376664748
3

H 0.0 0.0 -0.7772023763994987
H 0.0 0.0 0.0
H 0.0 0.0 1.3686021157711066
3

H 0.0 0.0 -0.7773242457429039
H 0.0 0.0 0.0
H 0.0 0.0 1.3676095696194652
3

H 0.0 0.0 -0.7774461150863091
H 0.0 0.0 0.0
H 0.0 0.0 1.366617023467824
3

H 0.0 0.0 -0.7775679844297143
H 0.0 0.0 0.0
H 0.0 0.0 1.3656244773161823
3

H 0.0 0.0 -0.7776898537731195
H 0.0 0.0 0.0
H 0.0 0.0 1.3646319311645412
3

H 0.0 0.0 -0.7778117231165247
H 0.0 0.0 0.0
H 0.0 0.0 1.3636393850128998
3

H 0.0 0.0 -0.7779335924599299
H 0.0 0.0 0.0
H 0.0 0.0 1.3626468388612585
3

H 0.0 0.0 -0.7780554618033351
H 0.0 0.0 0.0
H 0.0 0.0 1.3616542927096171
3

H 0.0 0.0 -0.7781773311467403
H 0.0 0.0 0.0
H 0.0 0.0 1.3606617465579758
3

H 0.0 0.0 -0.7782992004901454
H 0.0 0.0 0.0
H 0.0 0.0 1.3596692004063344
3

H 0.0 0.0 -0.7784210698335506
H 0.0 0.0 0.0
H 0.0 0.0 1.358676654254693
3

H 0.0 0.0 -0.7785429391769558
H 0.0 0.0 0.0
H 0.0 0.0 1.3576841081030515
3

H 0.0 0.0 -0.778664808520361
H 0.0 0.0 0.0
H 0.0 0.0 1.3566915619514104
3

H 0.0 0.0 -0.7787866778637662
H 0.0 0.0 0.0
H 0.0 0.0 1.355699015799769
3

H 0.0 0.0 -0.7789085472071714
H 0.0 0.0 0.0
H 0.0 0.0 1.3547064696481277
3

H 0.0 0.0 -0.7790304165505766
H 0.0 0.0 0.0
H 0.0 0.0 1.3537139234964863
3

H 0.0 0.0 -0.7791522858939818
H 0.0 0.0 0.0
H 0.0 0.0 1.352721377344845
3

H 0.0 0.0 -0.779274155237387
H 0.0 0.0 0.0
H 0.0 0.0 1.3517288311932036
3

H 0.0 0.0 -0.7793960245807922
H 0.0 0.0 0.0
H 0.0 0.0 1.3507362850415623
3

H 0.0 0.0 -0.7795178939241973
H 0.0 0.0 0.0
H 0.0 0.0 1.349743738889921
3

H 0.0 0.0 -0.7796397632676025
H 0.0 0.0 0.0
H 0.0 0.0 1.3487511927382796
3

H 0.0 0.0 -0.7797616326110077
H 0.0 0.0 0.0
H 0.0 0.0 1.3477586465866382
3

H 0.0 0.0 -0.7798835019544129
H 0.0 0.0 0.0
H 0.0 0.0 1.346766100434997
3

H 0.0 0.0 -0.7800053712978181
H 0.0 0.0 0.0
H 0.0 0.0 1.3457735542833555
3

H 0.0 0.0 -0.7801272406412233
H 0.0 0.0 0.0
H 0.0 0.0 1.3447810081317142
3

H 0.0 0.0 -0.7802491099846285
H 0.0 0.0 0.0
H 0.0 0.0 1.3437884619800728
3

H 0.0 0.0 -0.7803709793280337
H 0.0 0.0 0.0
H 0.0 0.0 1.3427959158284315
3

H 0.0 0.0 -0.7805101524289937
H 0.0 0.0 0.0
H 0.0 0.0 1.34180564775969
3

H 0.0 0.0 -0.7806493255299537
H 0.0 0.0 0.0
H 0.0 0.0 1.3408153796909486
3

H 0.0 0.0 -0.7807884986309137
H 0.0 0.0 0.0
H 0.0 0.0 1.339825111622207
3

H 0.0 0.0 -0.7809276717318737
H 0.0 0.0 0.0
H 0.0 0.0 1.3388348435534656
3

H 0.0 0.0 -0.7810668448328337
H 0.0 0.0 0.0
H 0.0 0.0 1.337844575484724
3

H 0.0 0.0 -0.7812060179337937
H 0.0 0.0 0.0
H 0.0 0.0 1.3368543074159829
3

H 0.0 0.0 -0.7813451910347537
H 0.0 0.0 0.0
H 0.0 0.0 1.3358640393472412
3

H 0.0 0.0 -0.7814843641357138
H 0.0 0.0 0.0
H 0.0 0.0 1.3348737712784997
3

H 0.0 0.0 -0.7816235372366738
H 0.0 0.0 0.0
H 0.0 0.0 1.3338835032097582
3

H 0.0 0.0 -0.7817627103376338
H 0.0 0.0 0.0
H 0.0 0.0 1.3328932351410168
3

H 0.0 0.0 -0.7819018834385938
H 0.0 0.0 0.0
H 0.0 0.0 1.3319029670722753
3

H 0.0 0.0 -0.7820410565395538
H 0.0 0.0 0.0
H 0.0 0.0 1.3309126990035338
3

H 0.0 0.0 -0.7821802296405138
H 0.0 0.0 0.0
H 0.0 0.0 1.3299224309347923
3

H 0.0 0.0 -0.7823194027414738
H 0.0 0.0 0.0
H 0.0 0.0 1.3289321628660509
3

H 0.0 0.0 -0.7824585758424338
H 0.0 0.0 0.0
H 0.0 0.0 1.3279418947973094
3

H 0.0 0.0 -0.7825977489433938
H 0.0 0.0 0.0
H 0.0 0.0 1.326951626728568
3

H 0.0 0.0 -0.7827369220443539
H 0.0 0.0 0.0
H 0.0 0.0 1.3259613586598265
3

H 0.0 0.0 -0.7828760951453139
H 0.0 0.0 0.0
H 0.0 0.0 1.324971090591085
3

H 0.0 0.0 -0.7830152682462739
H 0.0 0.0 0.0
H 0.0 0.0 1.3239808225223435
3

H 0.0 0.0 -0.7831544413472339
H 0.0 0.0 0.0
H 0.0 0.0 1.322990554453602
3

H 0.0 0.0 -0.7832936144481939
H 0.0 0.0 0.0
H 0.0 0.0 1.3220002863848606
3

H 0.0 0.0 -0.7834500489132341
H 0.0 0.0 0.0
H 0.0 0.0 1.3210125980442655
3

H 0.0 0.0 -0.7836064833782743
H 0.0 0.0 0.0
H 0.0 0.0 1.3200249097036705
3

H 0.0 0.0 -0.7837629178433145
H 0.0 0.0 0.0
H 0.0 0.0 1.3190372213630754
3

H 0.0 0.0 -0.7839193523083547
H 0.0 0.0 0.0
H 0.0 0.0 1.3180495330224804
3

H 0.0 0.0 -0.784075786773395
H 0.0 0.0 0.0
H 0.0 0.0 1.3170618446818854
3

H 0.0 0.0 -0.7842322212384352
H 0.0 0.0 0.0
H 0.0 0.0 1.3160741563412903
3

H 0.0 0.0 -0.7843886557034754
H 0.0 0.0 0.0
H 0.0 0.0 1.3150864680006953
3

H 0.0 0.0 -0.7845450901685156
H 0.0 0.0 0.0
H 0.0 0.0 1.3140987796601002
3

H 0.0 0.0 -0.7847015246335558
H 0.0 0.0 0.0
H 0.0 0.0 1.3131110913195052
3

H 0.0 0.0 -0.784857959098596
H 0.0 0.0 0.0
H 0.0 0.0 1.3121234029789102
3

H 0.0 0.0 -0.7850143935636362
H 0.0 0.0 0.0
H 0.0 0.0 1.3111357146383151
3

H 0.0 0.0 -0.7851708280286764
H 0.0 0.0 0.0
H 0.0 0.0 1.31014802629772
3

H 0.0 0.0 -0.7853272624937166
H 0.0 0.0 0.0
H 0.0 0.0 1.309160337957125
3

H 0.0 0.0 -0.7854836969587569
H 0.0 0.0 0.0
H 0.0 0.0 1.30817264961653
3

H 0.0 0.0 -0.7856401314237971
H 0.0 0.0 0.0
H 0.0 0.0 1.307184961275935
3

H 0.0 0.0 -0.7857965658888373
H 0.0 0.0 0.0
H 0.0 0.0 1.30619727293534
3

H 0.0 0.0 -0.7859530003538775
H 0.0 0.0 0.0
H 0.0 0.0 1.305209584594745
3

H 0.0 0.0 -0.7861094348189177
H 0.0 0.0 0.0
H 0.0 0.0 1.30422189625415
3

H 0.0 0.0 -0.7862658692839579
H 0.0 0.0 0.0
H 0.0 0.0 1.3032342079135548
3

H 0.0 0.0 -0.7864223037489981
H 0.0 0.0 0.0
H 0.0 0.0 1.3022465195729598
3

H 0.0 0.0 -0.7865959519266651
H 0.0 0.0 0.0
H 0.0 0.0 1.3012617118199477
3

H 0.0 0.0 -0.7867696001043321
H 0.0 0.0 0.0
H 0.0 0.0 1.3002769040669355
3

H 0.0 0.0 -0.786943248281999
H 0.0 0.0 0.0
H 0.0 0.0 1.2992920963139234
3

H 0.0 0.0 -0.787116896459666
H 0.0 0.0 0.0
H 0.0 0.0 1.2983072885609113
3

H 0.0 0.0 -0.787290544637333
H 0.0 0.0 0.0
H 0.0 0.0 1.2973224808078991
3

H 0.0 0.0 -0.7874641928149999
H 0.0 0.0 0.0
H 0.0 0.0 1.296337673054887
3

H 0.0 0.0 -0.7876378409926669
H 0.0 0.0 0.0
H 0.0 0.0 1.2953528653018749
3

H 0.0 0.0 -0.7878114891703338
H 0.0 0.0 0.0
H 0.0 0.0 1.2943680575488627
3

H 0.0 0.0 -0.7879851373480008
H 0.0 0.0 0.0
H 0.0 0.0 1.2933832497958506
3

H 0.0 0.0 -0.7881587855256678
H 0.0 0.0 0.0
H 0.0 0.0 1.2923984420428385
3

H 0.0 0.0 -0.7883324337033347
H 0.0 0.0 0.0
H 0.0 0.0 1.2914136342898264
3

H 0.0 0.0 -0.7885060818810017
H 0.0 0.0 0.0
H 0.0 0.0 1.2904288265368142
3

H 0.0 0.0 -0.7886797300586686
H 0.0 0.0 0.0
H 0.0 0.0 1.289444018783802
3

H 0.0 0.0 -0.7888533782363356
H 0.0 0.0 0.0
H 0.0 0.0 1.28845921103079
3

H 0.0 0.0 -0.7890270264140026
H 0.0 0.0 0.0
H 0.0 0.0 1.2874744032777778
3

H 0.0 0.0 -0.7892006745916695
H 0.0 0.0 0.0
H 0.0 0.0 1.2864895955247655
3

H 0.0 0.0 -0.7893743227693365
H 0.0 0.0 0.0
H 0.0 0.0 1.2855047877717536
3

H 0.0 0.0 -0.7895479709470035
H 0.0 0.0 0.0
H 0.0 0.0 1.2845199800187417
3

H 0.0 0.0 -0.78973877994238
H 0.0 0.0 0.0
H 0.0 0.0 1.2835383528352935
3

H 0.0 0.0 -0.7899295889377564
H 0.0 0.0 0.0
H 0.0 0.0 1.282556725651846
3

H 0.0 0.0 -0.7901203979331329
H 0.0 0.0 0.0
H 0.0 0.0 1.2815750984683982
3

H 0.0 0.0 -0.7903112069285094
H 0.0 0.0 0.0
H 0.0 0.0 1.2805934712849505
3

H 0.0 0.0 -0.7905020159238859
H 0.0 0.0 0.0
H 0.0 0.0 1.2796118441015027
3

H 0.0 0.0 -0.7906928249192624
H 0.0 0.0 0.0
H 0.0 0.0 1.278630216918055
3

H 0.0 0.0 -0.7908836339146389
H 0.0 0.0 0.0
H 0.0 0.0 1.2776485897346073
3

H 0.0 0.0 -0.7910744429100154
H 0.0 0.0 0.0
H 0.0 0.0 1.2766669625511595
3

H 0.0 0.0 -0.7912652519053919
H 0.0 0.0 0.0
H 0.0 0.0 1.2756853353677118
3

H 0.0 0.0 -0.7914560609007684
H 0.0 0.0 0.0
H 0.0 0.0 1.274703708184264
3

H 0.0 0.0 -0.7916468698961449
H 0.0 0.0 0.0
H 0.0 0.0 1.2737220810008163
3

H 0.0 0.0 -0.7918376788915213
H 0.0 0.0 0.0
H 0.0 0.0 1.2727404538173686
3

H 0.0 0.0 -0.7920284878868978
H 0.0 0.0 0.0
H 0.0 0.0 1.2717588266339208
3

H 0.0 0.0 -0.7922192968822743
H 0.0 0.0 0.0
H 0.0 0.0 1.270777199450473
3

H 0.0 0.0 -0.7924101058776508
H 0.0 0.0 0.0
H 0.0 0.0 1.269795572267025
3

H 0.0 0.0 -0.7926180175684686
H 0.0 0.0 0.0
H 0.0 0.0 1.2688174246662915
3

H 0.0 0.0 -0.7928259292592864
H 0.0 0.0 0.0
H 0.0 0.0 1.2678392770655578
3

H 0.0 0.0 -0.7930338409501042
H 0.0 0.0 0.0
H 0.0 0.0 1.266861129464824
3

H 0.0 0.0 -0.793241752640922
H 0.0 0.0 0.0
H 0.0 0.0 1.2658829818640902
3

H 0.0 0.0 -0.7934496643317398
H 0.0 0.0 0.0
H 0.0 0.0 1.2649048342633564
3

H 0.0 0.0 -0.7936575760225576
H 0.0 0.0 0.0
H 0.0 0.0 1.2639266866626226
3

H 0.0 0.0 -0.7938654877133754
H 0.0 0.0 0.0
H 0.0 0.0 1.2629485390618889
3

H 0.0 0.0 -0.7940733994041932
H 0.0 0.0 0.0
H 0.0 0.0 1.261970391461155
3

H 0.0 0.0 -0.794281311095011
H 0.0 0.0 0.0
H 0.0 0.0 1.2609922438604213
3

H 0.0 0.0 -0.7944892227858288
H 0.0 0.0 0.0
H 0.0 0.0 1.2600140962596875
3

H 0.0 0.0 -0.7946971344766466
H 0.0 0.0 0.0
H 0.0 0.0 1.2590359486589535
3

H 0.0 0.0 -0.7949050461674644
H 0.0 0.0 0.0
H 0.0 0.0 1.25805780105822
3

H 0.0 0.0 -0.7951129578582822
H 0.0 0.0 0.0
H 0.0 0.0 1.2570796534574862
3

H 0.0 0.0 -0.7953208695491
H 0.0 0.0 0.0
H 0.0 0.0 1.2561015058567524
3

H 0.0 0.0 -0.7955287812399178
H 0.0 0.0 0.0
H 0.0 0.0 1.2551233582560186
3

H 0.0 0.0 -0.7957537322942616
H 0.0 0.0 0.0
H 0.0 0.0 1.254148988191233
3

H 0.0 0.0 -0.7959786833486054
H 0.0 0.0 0.0
H 0.0 0.0 1.253174618126448
3

H 0.0 0.0 -0.7962036344029493
H 0.0 0.0 0.0
H 0.0 0.0 1.2522002480616627
3

H 0.0 0.0 -0.7964285854572931
H 0.0 0.0 0.0
H 0.0 0.0 1.2512258779968777
3

H 0.0 0.0 -0.796653536511637
H 0.0 0.0 0.0
H 0.0 0.0 1.2502515079320922
3

H 0.0 0.0 -0.7968784875659808
H 0.0 0.0 0.0
H 0.0 0.0 1.2492771378673069
3

H 0.0 0.0 -0.7971034386203246
H 0.0 0.0 0.0
H 0.0 0.0 1.2483027678025216
3

H 0.0 0.0 -0.7973283896746685
H 0.0 0.0 0.0
H 0.0 0.0 1.2473283977377363
3

H 0.0 0.0 -0.7975533407290123
H 0.0 0.0 0.0
H 0.0 0.0 1.246354027672951
3

H 0.0 0.0 -0.7977782917833561
H 0.0 0.0 0.0
H 0.0 0.0 1.2453796576081655
3

H 0.0 0.0 -0.7980032428377
H 0.0 0.0 0.0
H 0.0 0.0 1.2444052875433804
3

H 0.0 0.0 -0.7982281938920438
H 0.0 0.0 0.0
H 0.0 0.0 1.2434309174785951
3

H 0.0 0.0 -0.7984531449463876
H 0.0 0.0 0.0
H 0.0 0.0 1.2424565474138098
3

H 0.0 0.0 -0.7986780960007315
H 0.0 0.0 0.0
H 0.0 0.0 1.2414821773490246
3

H 0.0 0.0 -0.7989200178963312
H 0.0 0.0 0.0
H 0.0 0.0 1.2405118816227485
3

H 0.0 0.0 -0.7991619397919308
H 0.0 0.0 0.0
H 0.0 0.0 1.2395415858964725
3

H 0.0 0.0 -0.7994038616875305
H 0.0 0.0 0.0
H 0.0 0.0 1.2385712901701964
3

H 0.0 0.0 -0.7996457835831302
H 0.0 0.0 0.0
H 0.0 0.0 1.2376009944439204
3

H 0.0 0.0 -0.7998877054787299
H 0.0 0.0 0.0
H 0.0 0.0 1.2366306987176443
3

H 0.0 0.0 -0.8001296273743296
H 0.0 0.0 0.0
H 0.0 0.0 1.2356604029913685
3

H 0.0 0.0 -0.8003715492699293
H 0.0 0.0 0.0
H 0.0 0.0 1.2346901072650922
3

H 0.0 0.0 -0.800613471165529
H 0.0 0.0 0.0
H 0.0 0.0 1.2337198115388162
3

H 0.0 0.0 -0.8008553930611286
H 0.0 0.0 0.0
H 0.0 0.0 1.23274951581254
3

H 0.0 0.0 -0.8010973149567283
H 0.0 0.0 0.0
H 0.0 0.0 1.231779220086264
3

H 0.0 0.0 -0.801339236852328
H 0.0 0.0 0.0
H 0.0 0.0 1.230808924359988
3

H 0.0 0.0 -0.8015811587479277
H 0.0 0.0 0.0
H 0.0 0.0 1.229838628633712
3

H 0.0 0.0 -0.8018230806435274
H 0.0 0.0 0.0
H 0.0 0.0 1.228868332907436
3

H 0.0 0.0 -0.8020818996886299
H 0.0 0.0 0.0
H 0.0 0.0 1.2279024070811468
3

H 0.0 0.0 -0.8023407187337324
H 0.0 0.0 0.0
H 0.0 0.0 1.2269364812548578
3

H 0.0 0.0 -0.8025995377788349
H 0.0 0.0 0.0
H 0.0 0.0 1.2259705554285687
3

H 0.0 0.0 -0.8028583568239374
H 0.0 0.0 0.0
H 0.0 0.0 1.2250046296022796
3

H 0.0 0.0 -0.8031171758690399
H 0.0 0.0 0.0
H 0.0 0.0 1.2240387037759906
3

H 0.0 0.0 -0.8033759949141424
H 0.0 0.0 0.0
H 0.0 0.0 1.2230727779497017
3

H 0.0 0.0 -0.8036348139592449
H 0.0 0.0 0.0
H 0.0 0.0 1.2221068521234124
3

H 0.0 0.0 -0.8038936330043474
H 0.0 0.0 0.0
H 0.0 0.0 1.2211409262971231
3

H 0.0 0.0 -0.8041524520494499
H 0.0 0.0 0.0
H 0.0 0.0 1.2201750004708345
3

H 0.0 0.0 -0.8044112710945523
H 0.0 0.0 0.0
H 0.0 0.0 1.2192090746445452
3

H 0.0 0.0 -0.8046700901396548
H 0.0 0.0 0.0
H 0.0 0.0 1.218243148818256
3

H 0.0 0.0 -0.8049289091847573
H 0.0 0.0 0.0
H 0.0 0.0 1.217277222991967
3

H 0.0 0.0 -0.8052045465405744
H 0.0 0.0 0.0
H 0.0 0.0 1.2163159612960288
3

H 0.0 0.0 -0.8054801838963914
H 0.0 0.0 0.0
H 0.0 0.0 1.2153546996000906
3

H 0.0 0.0 -0.8057558212522085
H 0.0 0.0 0.0
H 0.0 0.0 1.2143934379041523
3

H 0.0 0.0 -0.8060314586080255
H 0.0 0.0 0.0
H 0.0 0.0 1.213432176208214
3

H 0.0 0.0 -0.8063070959638425
H 0.0 0.0 0.0
H 0.0 0.0 1.2124709145122758
3

H 0.0 0.0 -0.8065827333196596
H 0.0 0.0 0.0
H 0.0 0.0 1.2115096528163376
3

H 0.0 0.0 -0.8068583706754766
H 0.0 0.0 0.0
H 0.0 0.0 1.2105483911203994
3

H 0.0 0.0 -0.8071340080312936
H 0.0 0.0 0.0
H 0.0 0.0 1.2095871294244611
3

H 0.0 0.0 -0.8074096453871107
H 0.0 0.0 0.0
H 0.0 0.0 1.2086258677285229
3

H 0.0 0.0 -0.8076852827429277
H 0.0 0.0 0.0
H 0.0 0.0 1.2076646060325846
3

H 0.0 0.0 -0.8079609200987448
H 0.0 0.0 0.0
H 0.0 0.0 1.2067033443366464
3

H 0.0 0.0 -0.8082365574545618
H 0.0 0.0 0.0
H 0.0 0.0 1.205742082640708
3

H 0.0 0.0 -0.8085289291592845
H 0.0 0.0 0.0
H 0.0 0.0 1.204785777884745
3

H 0.0 0.0 -0.8088213008640073
H 0.0 0.0 0.0
H 0.0 0.0 1.203829473128782
3

H 0.0 0.0 -0.80911367256873
H 0.0 0.0 0.0
H 0.0 0.0 1.2028731683728189
3

H 0.0 0.0 -0.8094060442734528
H 0.0 0.0 0.0
H 0.0 0.0 1.2019168636168558
3

H 0.0 0.0 -0.8096984159781755
H 0.0 0.0 0.0
H 0.0 0.0 1.2009605588608927
3

H 0.0 0.0 -0.8099907876828982
H 0.0 0.0 0.0
H 0.0 0.0 1.2000042541049296
3

H 0.0 0.0 -0.810283159387621
H 0.0 0.0 0.0
H 0.0 0.0 1.1990479493489663
3

H 0.0 0.0 -0.8105755310923437
H 0.0 0.0 0.0
H 0.0 0.0 1.1980916445930034
3

H 0.0 0.0 -0.8108679027970664
H 0.0 0.0 0.0
H 0.0 0.0 1.1971353398370403
3

H 0.0 0.0 -0.8111602745017892
H 0.0 0.0 0.0
H 0.0 0.0 1.1961790350810773
3

H 0.0 0.0 -0.8114526462065119
H 0.0 0.0 0.0
H 0.0 0.0 1.1952227303251142
3

H 0.0 0.0 -0.8117450179112347
H 0.0 0.0 0.0
H 0.0 0.0 1.194266425569151
3

H 0.0 0.0 -0.8120540349056096
H 0.0 0.0 0.0
H 0.0 0.0 1.193315369052856
3

H 0.0 0.0 -0.8123630518999845
H 0.0 0.0 0.0
H 0.0 0.0 1.1923643125365608
3

H 0.0 0.0 -0.8126720688943594
H 0.0 0.0 0.0
H 0.0 0.0 1.1914132560202657
3

H 0.0 0.0 -0.8129810858887343
H 0.0 0.0 0.0
H 0.0 0.0 1.1904621995039706
3

H 0.0 0.0 -0.8132901028831092
H 0.0 0.0 0.0
H 0.0 0.0 1.1895111429876757
3

H 0.0 0.0 -0.8135991198774841
H 0.0 0.0 0.0
H 0.0 0.0 1.1885600864713803
3

H 0.0 0.0 -0.813908136871859
H 0.0 0.0 0.0
H 0.0 0.0 1.1876090299550852
3

H 0.0 0.0 -0.814217153866234
H 0.0 0.0 0.0
H 0.0 0.0 1.18665797343879
3

H 0.0 0.0 -0.8145261708606089
H 0.0 0.0 0.0
H 0.0 0.0 1.185706916922495
3

H 0.0 0.0 -0.8148351878549838
H 0.0 0.0 0.0
H 0.0 0.0 1.1847558604061998
3

H 0.0 0.0 -0.8151607560094409
H 0.0 0.0 0.0
H 0.0 0.0 1.1838103418306003
3

H 0.0 0.0 -0.8154863241638981
H 0.0 0.0 0.0
H 0.0 0.0 1.1828648232550012
3

H 0.0 0.0 -0.8158118923183553
H 0.0 0.0 0.0
H 0.0 0.0 1.181919304679402
3

H 0.0 0.0 -0.8161374604728124
H 0.0 0.0 0.0
H 0.0 0.0 1.1809737861038023
3

H 0.0 0.0 -0.8164630286272696
H 0.0 0.0 0.0
H 0.0 0.0 1.1800282675282032
3

H 0.0 0.0 -0.8167885967817268
H 0.0 0.0 0.0
H 0.0 0.0 1.179082748952604
3

H 0.0 0.0 -0.8171141649361839
H 0.0 0.0 0.0
H 0.0 0.0 1.1781372303770046
3

H 0.0 0.0 -0.8174397330906411
H 0.0 0.0 0.0
H 0.0 0.0 1.1771917118014052
3

H 0.0 0.0 -0.8177653012450983
H 0.0 0.0 0.0
H 0.0 0.0 1.176246193225806
3

H 0.0 0.0 -0.8180908693995554
H 0.0 0.0 0.0
H 0.0 0.0 1.1753006746502066
3

H 0.0 0.0 -0.8184164375540126
H 0.0 0.0 0.0
H 0.0 0.0 1.1743551560746073
3

H 0.0 0.0 -0.8187584576973382
H 0.0 0.0 0.0
H 0.0 0.0 1.1734154634538214
3

H 0.0 0.0 -0.8191004778406639
H 0.0 0.0 0.0
H 0.0 0.0 1.1724757708330356
3

H 0.0 0.0 -0.8194424979839895
H 0.0 0.0 0.0
H 0.0 0.0 1.1715360782122497
3

H 0.0 0.0 -0.8197845181273151
H 0.0 0.0 0.0
H 0.0 0.0 1.1705963855914638
3

H 0.0 0.0 -0.8201265382706407
H 0.0 0.0 0.0
H 0.0 0.0 1.169656692970678
3

H 0.0 0.0 -0.8204685584139664
H 0.0 0.0 0.0
H 0.0 0.0 1.168717000349892
3

H 0.0 0.0 -0.820810578557292
H 0.0 0.0 0.0
H 0.0 0.0 1.1677773077291065
3

H 0.0 0.0 -0.8211525987006176
H 0.0 0.0 0.0
H 0.0 0.0 1.1668376151083204
3

H 0.0 0.0 -0.8214946188439433
H 0.0 0.0 0.0
H 0.0 0.0 1.1658979224875343
3

H 0.0 0.0 -0.8218366389872689
H 0.0 0.0 0.0
H 0.0 0.0 1.164958229866749
3

H 0.0 0.0 -0.8221950069368141
H 0.0 0.0 0.0
H 0.0 0.0 1.1640246494402515
3

H 0.0 0.0 -0.8225533748863594
H 0.0 0.0 0.0
H 0.0 0.0 1.1630910690137544
3

H 0.0 0.0 -0.8229117428359046
H 0.0 0.0 0.0
H 0.0 0.0 1.1621574885872572
3

H 0.0 0.0 -0.8232701107854499
H 0.0 0.0 0.0
H 0.0 0.0 1.16122390816076
3

H 0.0 0.0 -0.8236284787349951
H 0.0 0.0 0.0
H 0.0 0.0 1.1602903277342629
3

H 0.0 0.0 -0.8239868466845404
H 0.0 0.0 0.0
H 0.0 0.0 1.1593567473077655
3

H 0.0 0.0 -0.8243452146340856
H 0.0 0.0 0.0
H 0.0 0.0 1.1584231668812686
3

H 0.0 0.0 -0.8247035825836309
H 0.0 0.0 0.0
H 0.0 0.0 1.1574895864547714
3

H 0.0 0.0 -0.8250619505331761
H 0.0 0.0 0.0
H 0.0 0.0 1.1565560060282742
3

H 0.0 0.0 -0.8254203184827213
H 0.0 0.0 0.0
H 0.0 0.0 1.155622425601777
3

H 0.0 0.0 -0.8257786864322666
H 0.0 0.0 0.0
H 0.0 0.0 1.15468884517528
3

H 0.0 0.0 -0.8261532930256825
H 0.0 0.0 0.0
H 0.0 0.0 1.1537616613207131
3

H 0.0 0.0 -0.8265278996190984
H 0.0 0.0 0.0
H 0.0 0.0 1.1528344774661463
3

H 0.0 0.0 -0.8269025062125144
H 0.0 0.0 0.0
H 0.0 0.0 1.1519072936115795
3

H 0.0 0.0 -0.8272771128059303
H 0.0 0.0 0.0
H 0.0 0.0 1.1509801097570127
3

H 0.0 0.0 -0.8276517193993462
H 0.0 0.0 0.0
H 0.0 0.0 1.150052925902446
3

H 0.0 0.0 -0.8280263259927622
H 0.0 0.0 0.0
H 0.0 0.0 1.149125742047879
3

H 0.0 0.0 -0.8284009325861781
H 0.0 0.0 0.0
H 0.0 0.0 1.1481985581933123
3

H 0.0 0.0 -0.828775539179594
H 0.0 0.0 0.0
H 0.0 0.0 1.1472713743387457
3

H 0.0 0.0 -0.8291501457730099
H 0.0 0.0 0.0
H 0.0 0.0 1.146344190484179
3

H 0.0 0.0 -0.8295247523664259
H 0.0 0.0 0.0
H 0.0 0.0 1.145417006629612
3

H 0.0 0.0 -0.8299154834949152
H 0.0 0.0 0.0
H 0.0 0.0 1.1444965017761597
3

H 0.0 0.0 -0.8303062146234045
H 0.0 0.0 0.0
H 0.0 0.0 1.143575996922707
3

H 0.0 0.0 -0.8306969457518938
H 0.0 0.0 0.0
H 0.0 0.0 1.1426554920692549
3

H 0.0 0.0 -0.8310876768803831
H 0.0 0.0 0.0
H 0.0 0.0 1.1417349872158022
3

H 0.0 0.0 -0.8314784080088724
H 0.0 0.0 0.0
H 0.0 0.0 1.1408144823623498
3

H 0.0 0.0 -0.8318691391373617
H 0.0 0.0 0.0
H 0.0 0.0 1.1398939775088974
3

H 0.0 0.0 -0.832259870265851
H 0.0 0.0 0.0
H 0.0 0.0 1.138973472655445
3

H 0.0 0.0 -0.8326506013943403
H 0.0 0.0 0.0
H 0.0 0.0 1.1380529678019926
3

H 0.0 0.0 -0.8330413325228296
H 0.0 0.0 0.0
H 0.0 0.0 1.1371324629485402
3

H 0.0 0.0 -0.8334320636513189
H 0.0 0.0 0.0
H 0.0 0.0 1.1362119580950878
3

H 0.0 0.0 -0.8338388002943947
H 0.0 0.0 0.0
H 0.0 0.0 1.1352984126374452
3

H 0.0 0.0 -0.8342455369374705
H 0.0 0.0 0.0
H 0.0 0.0 1.1343848671798027
3

H 0.0 0.0 -0.8346522735805463
H 0.0 0.0 0.0
H 0.0 0.0 1.13347132172216
3

H 0.0 0.0 -0.8350590102236221
H 0.0 0.0 0.0
H 0.0 0.0 1.1325577762645176
3

H 0.0 0.0 -0.8354657468666978
H 0.0 0.0 0.0
H 0.0 0.0 1.131644230806875
3

H 0.0 0.0 -0.8358724835097736
H 0.0 0.0 0.0
H 0.0 0.0 1.1307306853492325
3

H 0.0 0.0 -0.8362792201528494
H 0.0 0.0 0.0
H 0.0 0.0 1.12981713989159
3

H 0.0 0.0 -0.8366859567959252
H 0.0 0.0 0.0
H 0.0 0.0 1.1289035944339474
3

H 0.0 0.0 -0.837092693439001
H 0.0 0.0 0.0
H 0.0 0.0 1.1279900489763048
3

H 0.0 0.0 -0.8374994300820767
H 0.0 0.0 0.0
H 0.0 0.0 1.1270765035186625
3

H 0.0 0.0 -0.8379220483438174
H 0.0 0.0 0.0
H 0.0 0.0 1.1261701957316257
3

H 0.0 0.0 -0.8383446666055582
H 0.0 0.0 0.0
H 0.0 0.0 1.125263887944589
3

H 0.0 0.0 -0.8387672848672989
H 0.0 0.0 0.0
H 0.0 0.0 1.1243575801575525
3

H 0.0 0.0 -0.8391899031290396
H 0.0 0.0 0.0
H 0.0 0.0 1.123451272370516
3

H 0.0 0.0 -0.8396125213907804
H 0.0 0.0 0.0
H 0.0 0.0 1.1225449645834793
3

H 0.0 0.0 -0.8400351396525211
H 0.0 0.0 0.0
H 0.0 0.0 1.1216386567964427
3

H 0.0 0.0 -0.8404577579142618
H 0.0 0.0 0.0
H 0.0 0.0 1.120732349009406
3

H 0.0 0.0 -0.8408803761760025
H 0.0 0.0 0.0
H 0.0 0.0 1.1198260412223695
3

H 0.0 0.0 -0.8413029944377433
H 0.0 0.0 0.0
H 0.0 0.0 1.118919733435333
3

H 0.0 0.0 -0.8417413655845324
H 0.0 0.0 0.0
H 0.0 0.0 1.1180209393890337
3

H 0.0 0.0 -0.8421797367313215
H 0.0 0.0 0.0
H 0.0 0.0 1.1171221453427345
3

H 0.0 0.0 -0.8426181078781106
H 0.0 0.0 0.0
H 0.0 0.0 1.1162233512964352
3

H 0.0 0.0 -0.8430564790248998
H 0.0 0.0 0.0
H 0.0 0.0 1.115324557250136
3

H 0.0 0.0 -0.8434948501716889
H 0.0 0.0 0.0
H 0.0 0.0 1.1144257632038368
3

H 0.0 0.0 -0.843933221318478
H 0.0 0.0 0.0
H 0.0 0.0 1.1135269691575376
3

H 0.0 0.0 -0.8443715924652672
H 0.0 0.0 0.0
H 0.0 0.0 1.1126281751112383
3

H 0.0 0.0 -0.8448099636120563
H 0.0 0.0 0.0
H 0.0 0.0 1.1117293810649391
3

H 0.0 0.0 -0.8452483347588454
H 0.0 0.0 0.0
H 0.0 0.0 1.11083058701864
3

H 0.0 0.0 -0.8456867059056346
H 0.0 0.0 0.0
H 0.0 0.0 1.109931792972341
3

H 0.0 0.0 -0.8461406964053741
H 0.0 0.0 0.0
H 0.0 0.0 1.1090407864481524
3

H 0.0 0.0 -0.8465946869051137
H 0.0 0.0 0.0
H 0.0 0.0 1.108149779923964
3

H 0.0 0.0 -0.8470486774048533
H 0.0 0.0 0.0
H 0.0 0.0 1.107258773399776
3

H 0.0 0.0 -0.8475026679045929
H 0.0 0.0 0.0
H 0.0 0.0 1.1063677668755876
3

H 0.0 0.0 -0.8479566584043325
H 0.0 0.0 0.0
H 0.0 0.0 1.1054767603513993
3

H 0.0 0.0 -0.8484106489040721
H 0.0 0.0 0.0
H 0.0 0.0 1.104585753827211
3

H 0.0 0.0 -0.8488646394038117
H 0.0 0.0 0.0
H 0.0 0.0 1.1036947473030227
3

H 0.0 0.0 -0.8493186299035513
H 0.0 0.0 0.0
H 0.0 0.0 1.1028037407788345
3

H 0.0 0.0 -0.8497726204032909
H 0.0 0.0 0.0
H 0.0 0.0 1.1019127342546462
3

H 0.0 0.0 -0.8502266109030305
H 0.0 0.0 0.0
H 0.0 0.0 1.101021727730458
3

H 0.0 0.0 -0.8506960824658164
H 0.0 0.0 0.0
H 0.0 0.0 1.100138780137599
3

H 0.0 0.0 -0.8511655540286023
H 0.0 0.0 0.0
H 0.0 0.0 1.09925583254474
3

H 0.0 0.0 -0.8516350255913882
H 0.0 0.0 0.0
H 0.0 0.0 1.0983728849518812
3

H 0.0 0.0 -0.852104497154174
H 0.0 0.0 0.0
H 0.0 0.0 1.0974899373590223
3

H 0.0 0.0 -0.8525739687169599
H 0.0 0.0 0.0
H 0.0 0.0 1.0966069897661634
3

H 0.0 0.0 -0.8530434402797458
H 0.0 0.0 0.0
H 0.0 0.0 1.0957240421733043
3

H 0.0 0.0 -0.8535129118425316
H 0.0 0.0 0.0
H 0.0 0.0 1.0948410945804457
3

H 0.0 0.0 -0.8539823834053175
H 0.0 0.0 0.0
H 0.0 0.0 1.0939581469875868
3

H 0.0 0.0 -0.8544518549681034
H 0.0 0.0 0.0
H 0.0 0.0 1.093075199394728
3

H 0.0 0.0 -0.8549366645883497
H 0.0 0.0 0.0
H 0.0 0.0 1.0922005796875884
3

H 0.0 0.0 -0.855421474208596
H 0.0 0.0 0.0
H 0.0 0.0 1.091325959980449
3

H 0.0 0.0 -0.8559062838288424
H 0.0 0.0 0.0
H 0.0 0.0 1.0904513402733096
3

H 0.0 0.0 -0.8563910934490887
H 0.0 0.0 0.0
H 0.0 0.0 1.0895767205661702
3

H 0.0 0.0 -0.856875903069335
H 0.0 0.0 0.0
H 0.0 0.0 1.0887021008590307
3

H 0.0 0.0 -0.8573607126895814
H 0.0 0.0 0.0
H 0.0 0.0 1.087827481151891
3

H 0.0 0.0 -0.8578455223098277
H 0.0 0.0 0.0
H 0.0 0.0 1.086952861444752
3

H 0.0 0.0 -0.858330331930074
H 0.0 0.0 0.0
H 0.0 0.0 1.0860782417376125
3

H 0.0 0.0 -0.8588151415503203
H 0.0 0.0 0.0
H 0.0 0.0 1.085203622030473
3

H 0.0 0.0 -0.8592999511705667
H 0.0 0.0 0.0
H 0.0 0.0 1.0843290023233336
3

H 0.0 0.0 -0.8597999511705666
H 0.0 0.0 0.0
H 0.0 0.0 1.0834629769195492
3

H 0.0 0.0 -0.8602999511705666
H 0.0 0.0 0.0
H 0.0 0.0 1.0825969515157647
3

H 0.0 0.0 -0.8607999511705665
H 0.0 0.0 0.0
H 0.0 0.0 1.0817309261119803
3

H 0.0 0.0 -0.8612999511705665
H 0.0 0.0 0.0
H 0.0 0.0 1.080864900708196
3

H 0.0 0.0 -0.8617999511705664
H 0.0 0.0 0.0
H 0.0 0.0 1.0799988753044114
3

H 0.0 0.0 -0.8622999511705663
H 0.0 0.0 0.0
H 0.0 0.0 1.079132849900627
3

H 0.0 0.0 -0.8627999511705663
H 0.0 0.0 0.0
H 0.0 0.0 1.0782668244968423
3

H 0.0 0.0 -0.8632999511705662
H 0.0 0.0 0.0
H 0.0 0.0 1.077400799093058
3

H 0.0 0.0 -0.8637999511705662
H 0.0 0.0 0.0
H 0.0 0.0 1.0765347736892736
3

H 0.0 0.0 -0.8642999511705661
H 0.0 0.0 0.0
H 0.0 0.0 1.0756687482854892
3

H 0.0 0.0 -0.8648149892454762
H 0.0 0.0 0.0
H 0.0 0.0 1.0748115809847871
3

H 0.0 0.0 -0.8653300273203862
H 0.0 0.0 0.0
H 0.0 0.0 1.073954413684085
3

H 0.0 0.0 -0.8658450653952963
H 0.0 0.0 0.0
H 0.0 0.0 1.073097246383383
3

H 0.0 0.0 -0.8663601034702063
H 0.0 0.0 0.0
H 0.0 0.0 1.072240079082681
3

H 0.0 0.0 -0.8668751415451164
H 0.0 0.0 0.0
H 0.0 0.0 1.0713829117819789
3

H 0.0 0.0 -0.8673901796200264
H 0.0 0.0 0.0
H 0.0 0.0 1.0705257444812768
3

H 0.0 0.0 -0.8679052176949364
H 0.0 0.0 0.0
H 0.0 0.0 1.0696685771805747
3

H 0.0 0.0 -0.8684202557698465
H 0.0 0.0 0.0
H 0.0 0.0 1.0688114098798729
3

H 0.0 0.0 -0.8689352938447565
H 0.0 0.0 0.0
H 0.0 0.0 1.0679542425791706
3

H 0.0 0.0 -0.8694503319196666
H 0.0 0.0 0.0
H 0.0 0.0 1.0670970752784683
3

H 0.0 0.0 -0.8699802511838998
H 0.0 0.0 0.0
H 0.0 0.0 1.0662490271823122
3

H 0.0 0.0 -0.870510170448133
H 0.0 0.0 0.0
H 0.0 0.0 1.0654009790861558
3

H 0.0 0.0 -0.8710400897123661
H 0.0 0.0 0.0
H 0.0 0.0 1.0645529309899997
3

H 0.0 0.0 -0.8715700089765993
H 0.0 0.0 0.0
H 0.0 0.0 1.0637048828938431
3

H 0.0 0.0 -0.8720999282408325
H 0.0 0.0 0.0
H 0.0 0.0 1.0628568347976868
3

H 0.0 0.0 -0.8726298475050657
H 0.0 0.0 0.0
H 0.0 0.0 1.0620087867015304
3

H 0.0 0.0 -0.8731597667692989
H 0.0 0.0 0.0
H 0.0 0.0 1.061160738605374
3

H 0.0 0.0 -0.873689686033532
H 0.0 0.0 0.0
H 0.0 0.0 1.0603126905092175
3

H 0.0 0.0 -0.8742196052977652
H 0.0 0.0 0.0
H 0.0 0.0 1.0594646424130614
3

H 0.0 0.0 -0.8747495245619984
H 0.0 0.0 0.0
H 0.0 0.0 1.058616594316905
3

H 0.0 0.0 -0.8752941635970134
H 0.0 0.0 0.0
H 0.0 0.0 1.0577779237489595
3

H 0.0 0.0 -0.8758388026320284
H 0.0 0.0 0.0
H 0.0 0.0 1.056939253181014
3

H 0.0 0.0 -0.8763834416670434
H 0.0 0.0 0.0
H 0.0 0.0 1.0561005826130685
3

H 0.0 0.0 -0.8769280807020584
H 0.0 0.0 0.0
H 0.0 0.0 1.055261912045123
3

H 0.0 0.0 -0.8774727197370734
H 0.0 0.0 0.0
H 0.0 0.0 1.0544232414771777
3

H 0.0 0.0 -0.8780173587720884
H 0.0 0.0 0.0
H 0.0 0.0 1.053584570909232
3

H 0.0 0.0 -0.8785619978071034
H 0.0 0.0 0.0
H 0.0 0.0 1.0527459003412865
3

H 0.0 0.0 -0.8791066368421184
H 0.0 0.0 0.0
H 0.0 0.0 1.051907229773341
3

H 0.0 0.0 -0.8796512758771334
H 0.0 0.0 0.0
H 0.0 0.0 1.0510685592053954
3

H 0.0 0.0 -0.8801959149121484
H 0.0 0.0 0.0
H 0.0 0.0 1.05022988863745
3

H 0.0 0.0 -0.8807551078156192
H 0.0 0.0 0.0
H 0.0 0.0 1.049400851064895
3

H 0.0 0.0 -0.8813143007190899
H 0.0 0.0 0.0
H 0.0 0.0 1.04857181349234
3

H 0.0 0.0 -0.8818734936225606
H 0.0 0.0 0.0
H 0.0 0.0 1.0477427759197848
3

H 0.0 0.0 -0.8824326865260314
H 0.0 0.0 0.0
H 0.0 0.0 1.0469137383472298
3

H 0.0 0.0 -0.8829918794295021
H 0.0 0.0 0.0
H 0.0 0.0 1.0460847007746747
3

H 0.0 0.0 -0.8835510723329728
H 0.0 0.0 0.0
H 0.0 0.0 1.0452556632021195
3

H 0.0 0.0 -0.8841102652364435
H 0.0 0.0 0.0
H 0.0 0.0 1.044426625629565
3

H 0.0 0.0 -0.8846694581399143
H 0.0 0.0 0.0
H 0.0 0.0 1.0435975880570096
3

H 0.0 0.0 -0.885228651043385
H 0.0 0.0 0.0
H 0.0 0.0 1.0427685504844546
3

H 0.0 0.0 -0.8857878439468557
H 0.0 0.0 0.0
H 0.0 0.0 1.0419395129118996
3

H 0.0 0.0 -0.8863614203832068
H 0.0 0.0 0.0
H 0.0 0.0 1.0411203608676105
3

H 0.0 0.0 -0.8869349968195578
H 0.0 0.0 0.0
H 0.0 0.0 1.0403012088233214
3

H 0.0 0.0 -0.8875085732559088
H 0.0 0.0 0.0
H 0.0 0.0 1.0394820567790324
3

H 0.0 0.0 -0.8880821496922598
H 0.0 0.0 0.0
H 0.0 0.0 1.038662904734743
3

H 0.0 0.0 -0.8886557261286109
H 0.0 0.0 0.0
H 0.0 0.0 1.0378437526904545
3

H 0.0 0.0 -0.8892293025649619
H 0.0 0.0 0.0
H 0.0 0.0 1.0370246006461652
3

H 0.0 0.0 -0.8898028790013129
H 0.0 0.0 0.0
H 0.0 0.0 1.036205448601876
3

H 0.0 0.0 -0.890376455437664
H 0.0 0.0 0.0
H 0.0 0.0 1.035386296557587
3

H 0.0 0.0 -0.890950031874015
H 0.0 0.0 0.0
H 0.0 0.0 1.034567144513298
3

H 0.0 0.0 -0.891523608310366
H 0.0 0.0 0.0
H 0.0 0.0 1.033747992469009
3

H 0.0 0.0 -0.8921113935626586
H 0.0 0.0 0.0
H 0.0 0.0 1.032938975474634
3

H 0.0 0.0 -0.8926991788149511
H 0.0 0.0 0.0
H 0.0 0.0 1.0321299584802592
3

H 0.0 0.0 -0.8932869640672436
H 0.0 0.0 0.0
H 0.0 0.0 1.0313209414858844
3

H 0.0 0.0 -0.8938747493195361
H 0.0 0.0 0.0
H 0.0 0.0 1.0305119244915095
3

H 0.0 0.0 -0.8944625345718287
H 0.0 0.0 0.0
H 0.0 0.0 1.029702907497135
3

H 0.0 0.0 -0.8950503198241212
H 0.0 0.0 0.0
H 0.0 0.0 1.0288938905027598
3

H 0.0 0.0 -0.8956381050764137
H 0.0 0.0 0.0
H 0.0 0.0 1.028084873508385
3

H 0.0 0.0 -0.8962258903287063
H 0.0 0.0 0.0
H 0.0 0.0 1.02727585651401
3

H 0.0 0.0 -0.8968136755809988
H 0.0 0.0 0.0
H 0.0 0.0 1.0264668395196352
3

H 0.0 0.0 -0.8974014608332913
H 0.0 0.0 0.0
H 0.0 0.0 1.0256578225252604
3

H 0.0 0.0 -0.8980032758564434
H 0.0 0.0 0.0
H 0.0 0.0 1.024859187015213
3

H 0.0 0.0 -0.8986050908795954
H 0.0 0.0 0.0
H 0.0 0.0 1.0240605515051655
3

H 0.0 0.0 -0.8992069059027474
H 0.0 0.0 0.0
H 0.0 0.0 1.0232619159951184
3

H 0.0 0.0 -0.8998087209258995
H 0.0 0.0 0.0
H 0.0 0.0 1.022463280485071
3

H 0.0 0.0 -0.9004105359490515
H 0.0 0.0 0.0
H 0.0 0.0 1.0216646449750235
3

H 0.0 0.0 -0.9010123509722036
H 0.0 0.0 0.0
H 0.0 0.0 1.0208660094649764
3

H 0.0 0.0 -0.9016141659953556
H 0.0 0.0 0.0
H 0.0 0.0 1.020067373954929
3

H 0.0 0.0 -0.9022159810185076
H 0.0 0.0 0.0
H 0.0 0.0 1.0192687384448818
3

H 0.0 0.0 -0.9028177960416596
H 0.0 0.0 0.0
H 0.0 0.0 1.0184701029348344
3

H 0.0 0.0 -0.9034196110648116
H 0.0 0.0 0.0
H 0.0 0.0 1.017671467424787
3

H 0.0 0.0 -0.9040352725401374
H 0.0 0.0 0.0
H 0.0 0.0 1.0168834566711804
3

H 0.0 0.0 -0.904650934015463
H 0.0 0.0 0.0
H 0.0 0.0 1.0160954459175735
3

H 0.0 0.0 -0.9052665954907888
H 0.0 0.0 0.0
H 0.0 0.0 1.015307435163967
3

H 0.0 0.0 -0.9058822569661144
H 0.0 0.0 0.0
H 0.0 0.0 1.0145194244103604
3

H 0.0 0.0 -0.90649791844144
H 0.0 0.0 0.0
H 0.0 0.0 1.0137314136567537
3

H 0.0 0.0 -0.9071135799167656
H 0.0 0.0 0.0
H 0.0 0.0 1.012943402903147
3

H 0.0 0.0 -0.9077292413920912
H 0.0 0.0 0.0
H 0.0 0.0 1.0121553921495403
3

H 0.0 0.0 -0.908344902867417
H 0.0 0.0 0.0
H 0.0 0.0 1.0113673813959336
3

H 0.0 0.0 -0.9089605643427426
H 0.0 0.0 0.0
H 0.0 0.0 1.010579370642327
3

H 0.0 0.0 -0.9095762258180684
H 0.0 0.0 0.0
H 0.0 0.0 1.0097913598887205
3

H 0.0 0.0 -0.910191887293394
H 0.0 0.0 0.0
H 0.0 0.0 1.0090033491351136
3

H 0.0 0.0 -0.9108212076844436
H 0.0 0.0 0.0
H 0.0 0.0 1.0082262031736566
3

H 0.0 0.0 -0.9114505280754936
H 0.0 0.0 0.0
H 0.0 0.0 1.0074490572121997
3

H 0.0 0.0 -0.9120798484665432
H 0.0 0.0 0.0
H 0.0 0.0 1.0066719112507427
3

H 0.0 0.0 -0.9127091688575932
H 0.0 0.0 0.0
H 0.0 0.0 1.0058947652892858
3

H 0.0 0.0 -0.9133384892486428
H 0.0 0.0 0.0
H 0.0 0.0 1.0051176193278288
3

H 0.0 0.0 -0.9139678096396928
H 0.0 0.0 0.0
H 0.0 0.0 1.004340473366372
3

H 0.0 0.0 -0.9145971300307424
H 0.0 0.0 0.0
H 0.0 0.0 1.003563327404915
3

H 0.0 0.0 -0.9152264504217924
H 0.0 0.0 0.0
H 0.0 0.0 1.002786181443458
3

H 0.0 0.0 -0.915855770812842
H 0.0 0.0 0.0
H 0.0 0.0 1.002009035482001
3

H 0.0 0.0 -0.916485091203892
H 0.0 0.0 0.0
H 0.0 0.0 1.001231889520544
3

H 0.0 0.0 -0.9171144115949416
H 0.0 0.0 0.0
H 0.0 0.0 1.0004547435590871
3

H 0.0 0.0 -0.9177571992046282
H 0.0 0.0 0.0
H 0.0 0.0 0.9996886991159682
3

H 0.0 0.0 -0.9183999868143148
H 0.0 0.0 0.0
H 0.0 0.0 0.9989226546728492
3

H 0.0 0.0 -0.9190427744240012
H 0.0 0.0 0.0
H 0.0 0.0 0.9981566102297302
3

H 0.0 0.0 -0.9196855620336876
H 0.0 0.0 0.0
H 0.0 0.0 0.9973905657866112
3

H 0.0 0.0 -0.9203283496433742
H 0.0 0.0 0.0
H 0.0 0.0 0.9966245213434922
3

H 0.0 0.0 -0.9209711372530608
H 0.0 0.0 0.0
H 0.0 0.0 0.9958584769003732
3

H 0.0 0.0 -0.9216139248627472
H 0.0 0.0 0.0
H 0.0 0.0 0.9950924324572542
3

H 0.0 0.0 -0.9222567124724336
H 0.0 0.0 0.0
H 0.0 0.0 0.9943263880141352
3

H 0.0 0.0 -0.9228995000821202
H 0.0 0.0 0.0
H 0.0 0.0 0.9935603435710162
3

H 0.0 0.0 -0.9235422876918068
H 0.0 0.0 0.0
H 0.0 0.0 0.9927942991278972
3

H 0.0 0.0 -0.9241983467207971
H 0.0 0.0 0.0
H 0.0 0.0 0.9920395895476743
3

H 0.0 0.0 -0.9248544057497876
H 0.0 0.0 0.0
H 0.0 0.0 0.9912848799674516
3

H 0.0 0.0 -0.925510464778778
H 0.0 0.0 0.0
H 0.0 0.0 0.990530170387229
3

H 0.0 0.0 -0.9261665238077684
H 0.0 0.0 0.0
H 0.0 0.0 0.9897754608070064
3

H 0.0 0.0 -0.926822582836759
H 0.0 0.0 0.0
H 0.0 0.0 0.9890207512267836
3

H 0.0 0.0 -0.9274786418657496
H 0.0 0.0 0.0
H 0.0 0.0 0.9882660416465608
3

H 0.0 0.0 -0.92813470089474
H 0.0 0.0 0.0
H 0.0 0.0 0.987511332066338
3

H 0.0 0.0 -0.9287907599237304
H 0.0 0.0 0.0
H 0.0 0.0 0.9867566224861154
3

H 0.0 0.0 -0.9294468189527209
H 0.0 0.0 0.0
H 0.0 0.0 0.9860019129058928
3

H 0.0 0.0 -0.9301028779817112
H 0.0 0.0 0.0
H 0.0 0.0 0.98524720332567
3

H 0.0 0.0 -0.9307589370107018
H 0.0 0.0 0.0
H 0.0 0.0 0.9844924937454472
3

H 0.0 0.0 -0.9314280676170608
H 0.0 0.0 0.0
H 0.0 0.0 0.9837493489199698
3

H 0.0 0.0 -0.9320971982234196
H 0.0 0.0 0.0
H 0.0 0.0 0.9830062040944924
3

H 0.0 0.0 -0.9327663288297784
H 0.0 0.0 0.0
H 0.0 0.0 0.9822630592690148
3

H 0.0 0.0 -0.9334354594361371
H 0.0 0.0 0.0
H 0.0 0.0 0.9815199144435376
3

H 0.0 0.0 -0.934104590042496
H 0.0 0.0 0.0
H 0.0 0.0 0.98077676961806
3

H 0.0 0.0 -0.934773720648855
H 0.0 0.0 0.0
H 0.0 0.0 0.9800336247925826
3

H 0.0 0.0 -0.935442851255214
H 0.0 0.0 0.0
H 0.0 0.0 0.9792904799671052
3

H 0.0 0.0 -0.9361119818615729
H 0.0 0.0 0.0
H 0.0 0.0 0.9785473351416276
3

H 0.0 0.0 -0.9367811124679316
H 0.0 0.0 0.0
H 0.0 0.0 0.9778041903161504
3

H 0.0 0.0 -0.9374502430742904
H 0.0 0.0 0.0
H 0.0 0.0 0.9770610454906729
3

H 0.0 0.0 -0.9381193736806492
H 0.0 0.0 0.0
H 0.0 0.0 0.9763179006651954
3

H 0.0 0.0 -0.938801372040712
H 0.0 0.0 0.0
H 0.0 0.0 0.9755865469635764
3

H 0.0 0.0 -0.9394833704007745
H 0.0 0.0 0.0
H 0.0 0.0 0.9748551932619572
3

H 0.0 0.0 -0.940165368760837
H 0.0 0.0 0.0
H 0.0 0.0 0.974123839560338
3

H 0.0 0.0 -0.9408473671208996
H 0.0 0.0 0.0
H 0.0 0.0 0.9733924858587188
3

H 0.0 0.0 -0.941529365480962
H 0.0 0.0 0.0
H 0.0 0.0 0.9726611321570996
3

H 0.0 0.0 -0.9422113638410248
H 0.0 0.0 0.0
H 0.0 0.0 0.9719297784554806
3

H 0.0 0.0 -0.9428933622010872
H 0.0 0.0 0.0
H 0.0 0.0 0.9711984247538614
3

H 0.0 0.0 -0.9435753605611498
H 0.0 0.0 0.0
H 0.0 0.0 0.9704670710522424
3

H 0.0 0.0 -0.9442573589212124
H 0.0 0.0 0.0
H 0.0 0.0 0.9697357173506232
3

H 0.0 0.0 -0.9449393572812748
H 0.0 0.0 0.0
H 0.0 0.0 0.969004363649004
3

H 0.0 0.0 -0.9456213556413374
H 0.0 0.0 0.0
H 0.0 0.0 0.9682730099473849
3

H 0.0 0.0 -0.9463160140117964
H 0.0 0.0 0.0
H 0.0 0.0 0.9675536701470462
3

H 0.0 0.0 -0.9470106723822554
H 0.0 0.0 0.0
H 0.0 0.0 0.9668343303467076
3

H 0.0 0.0 -0.9477053307527143
H 0.0 0.0 0.0
H 0.0 0.0 0.9661149905463688
3

H 0.0 0.0 -0.9483999891231736
H 0.0 0.0 0.0
H 0.0 0.0 0.9653956507460302
3

H 0.0 0.0 -0.9490946474936324
H 0.0 0.0 0.0
H 0.0 0.0 0.9646763109456916
3

H 0.0 0.0 -0.9497893058640916
H 0.0 0.0 0.0
H 0.0 0.0 0.9639569711453528
3

H 0.0 0.0 -0.9504839642345504
H 0.0 0.0 0.0
H 0.0 0.0 0.9632376313450142
3

H 0.0 0.0 -0.9511786226050096
H 0.0 0.0 0.0
H 0.0 0.0 0.9625182915446756
3

H 0.0 0.0 -0.9518732809754684
H 0.0 0.0 0.0
H 0.0 0.0 0.9617989517443368
3

H 0.0 0.0 -0.9525679393459277
H 0.0 0.0 0.0
H 0.0 0.0 0.9610796119439982
3

H 0.0 0.0 -0.9532625977163866
H 0.0 0.0 0.0
H 0.0 0.0 0.9603602721436596
3

H 0.0 0.0 -0.9539697044975732
H 0.0 0.0 0.0
H 0.0 0.0 0.9596531653624728
3

H 0.0 0.0 -0.954664362868032
H 0.0 0.0 0.0
H 0.0 0.0 0.9589338255621342
3

H 0.0 0.0 -0.9553590212384911
H 0.0 0.0 0.0
H 0.0 0.0 0.9582144857617956
3

H 0.0 0.0 -0.9560536796089502
H 0.0 0.0 0.0
H 0.0 0.0 0.9574951459614568
3

H 0.0 0.0 -0.956683
H 0.0 0.0 0.0
H 0.0 0.0 0.956718
3

H 0.0 0.0 -0.956683
H 0.0 0.0 0.0
H 0.0 0.0 0.956718
3

H 0.0 0.0 -0.9574601459614568
H 0.0 0.0 0.0
H 0.0 0.0 0.9560886796089502
3

H 0.0 0.0 -0.9581794857617956
H 0.0 0.0 0.0
H 0.0 0.0 0.9553940212384912
3

H 0.0 0.0 -0.9588988255621342
H 0.0 0.0 0.0
H 0.0 0.0 0.954699362868032
3

H 0.0 0.0 -0.9596181653624728
H 0.0 0.0 0.0
H 0.0 0.0 0.9540047044975732
3

H 0.0 0.0 -0.9603252721436596
H 0.0 0.0 0.0
H 0.0 0.0 0.9532975977163866
3

H 0.0 0.0 -0.9610446119439982
H 0.0 0.0 0.0
H 0.0 0.0 0.9526029393459275
3

H 0.0 0.0 -0.9617639517443368
H 0.0 0.0 0.0
H 0.0 0.0 0.9519082809754684
3

H 0.0 0.0 -0.9624832915446756
H 0.0 0.0 0.0
H 0.0 0.0 0.9512136226050096
3

H 0.0 0.0 -0.9632026313450142
H 0.0 0.0 0.0
H 0.0 0.0 0.9505189642345504
3

H 0.0 0.0 -0.9639219711453528
H 0.0 0.0 0.0
H 0.0 0.0 0.9498243058640916
3

H 0.0 0.0 -0.9646413109456916
H 0.0 0.0 0.0
H 0.0 0.0 0.9491296474936324
3

H 0.0 0.0 -0.9653606507460302
H 0.0 0.0 0.0
H 0.0 0.0 0.9484349891231736
3

H 0.0 0.0 -0.9660799905463688
H 0.0 0.0 0.0
H 0.0 0.0 0.9477403307527144
3

H 0.0 0.0 -0.9667993303467076
H 0.0 0.0 0.0
H 0.0 0.0 0.9470456723822556
3

H 0.0 0.0 -0.9675186701470462
H 0.0 0.0 0.0
H 0.0 0.0 0.9463510140117964
3

H 0.0 0.0 -0.9682380099473848
H 0.0 0.0 0.0
H 0.0 0.0 0.9456563556413374
3

H 0.0 0.0 -0.968969363649004
H 0.0 0.0 0.0
H 0.0 0.0 0.9449743572812748
3

H 0.0 0.0 -0.9697007173506232
H 0.0 0.0 0.0
H 0.0 0.0 0.9442923589212124
3

H 0.0 0.0 -0.9704320710522424
H 0.0 0.0 0.0
H 0.0 0.0 0.9436103605611498
3

H 0.0 0.0 -0.9711634247538614
H 0.0 0.0 0.0
H 0.0 0.0 0.9429283622010872
3

H 0.0 0.0 -0.9718947784554806
H 0.0 0.0 0.0
H 0.0 0.0 0.9422463638410248
3

H 0.0 0.0 -0.9726261321570996
H 0.0 0.0 0.0
H 0.0 0.0 0.941564365480962
3

H 0.0 0.0 -0.9733574858587188
H 0.0 0.0 0.0
H 0.0 0.0 0.9408823671208996
3

H 0.0 0.0 -0.974088839560338
H 0.0 0.0 0.0
H 0.0 0.0 0.940200368760837
3

H 0.0 0.0 -0.9748201932619572
H 0.0 0.0 0.0
H 0.0 0.0 0.9395183704007743
3

H 0.0 0.0 -0.9755515469635764
H 0.0 0.0 0.0
H 0.0 0.0 0.938836372040712
3

H 0.0 0.0 -0.9762829006651954
H 0.0 0.0 0.0
H 0.0 0.0 0.9381543736806494
3

H 0.0 0.0 -0.9770260454906728
H 0.0 0.0 0.0
H 0.0 0.0 0.9374852430742904
3

H 0.0 0.0 -0.9777691903161504
H 0.0 0.0 0.0
H 0.0 0.0 0.9368161124679316
3

H 0.0 0.0 -0.9785123351416276
H 0.0 0.0 0.0
H 0.0 0.0 0.9361469818615727
3

H 0.0 0.0 -0.9792554799671052
H 0.0 0.0 0.0
H 0.0 0.0 0.935477851255214
3

H 0.0 0.0 -0.9799986247925826
H 0.0 0.0 0.0
H 0.0 0.0 0.934808720648855
3

H 0.0 0.0 -0.98074176961806
H 0.0 0.0 0.0
H 0.0 0.0 0.934139590042496
3

H 0.0 0.0 -0.9814849144435376
H 0.0 0.0 0.0
H 0.0 0.0 0.9334704594361372
3

H 0.0 0.0 -0.9822280592690148
H 0.0 0.0 0.0
H 0.0 0.0 0.9328013288297784
3

H 0.0 0.0 -0.9829712040944923
H 0.0 0.0 0.0
H 0.0 0.0 0.9321321982234196
3

H 0.0 0.0 -0.9837143489199698
H 0.0 0.0 0.0
H 0.0 0.0 0.9314630676170608
3

H 0.0 0.0 -0.9844574937454472
H 0.0 0.0 0.0
H 0.0 0.0 0.9307939370107018
3

H 0.0 0.0 -0.98521220332567
H 0.0 0.0 0.0
H 0.0 0.0 0.9301378779817112
3

H 0.0 0.0 -0.9859669129058928
H 0.0 0.0 0.0
H 0.0 0.0 0.9294818189527208
3

H 0.0 0.0 -0.9867216224861154
H 0.0 0.0 0.0
H 0.0 0.0 0.9288257599237304
3

H 0.0 0.0 -0.987476332066338
H 0.0 0.0 0.0
H 0.0 0.0 0.92816970089474
3

H 0.0 0.0 -0.9882310416465608
H 0.0 0.0 0.0
H 0.0 0.0 0.9275136418657496
3

H 0.0 0.0 -0.9889857512267836
H 0.0 0.0 0.0
H 0.0 0.0 0.926857582836759
3

H 0.0 0.0 -0.9897404608070064
H 0.0 0.0 0.0
H 0.0 0.0 0.9262015238077684
3

H 0.0 0.0 -0.990495170387229
H 0.0 0.0 0.0
H 0.0 0.0 0.925545464778778
3

H 0.0 0.0 -0.9912498799674516
H 0.0 0.0 0.0
H 0.0 0.0 0.9248894057497876
3

H 0.0 0.0 -0.9920045895476745
H 0.0 0.0 0.0
H 0.0 0.0 0.9242333467207972
3

H 0.0 0.0 -0.9927592991278972
H 0.0 0.0 0.0
H 0.0 0.0 0.9235772876918068
3

H 0.0 0.0 -0.9935253435710162
H 0.0 0.0 0.0
H 0.0 0.0 0.9229345000821202
3

H 0.0 0.0 -0.9942913880141352
H 0.0 0.0 0.0
H 0.0 0.0 0.9222917124724336
3

H 0.0 0.0 -0.9950574324572542
H 0.0 0.0 0.0
H 0.0 0.0 0.9216489248627472
3

H 0.0 0.0 -0.9958234769003732
H 0.0 0.0 0.0
H 0.0 0.0 0.9210061372530608
3

H 0.0 0.0 -0.9965895213434922
H 0.0 0.0 0.0
H 0.0 0.0 0.9203633496433742
3

H 0.0 0.0 -0.9973555657866112
H 0.0 0.0 0.0
H 0.0 0.0 0.9197205620336876
3

H 0.0 0.0 -0.9981216102297302
H 0.0 0.0 0.0
H 0.0 0.0 0.9190777744240012
3

H 0.0 0.0 -0.9988876546728492
H 0.0 0.0 0.0
H 0.0 0.0 0.9184349868143148
3

H 0.0 0.0 -0.9996536991159682
H 0.0 0.0 0.0
H 0.0 0.0 0.9177921992046282
3

H 0.0 0.0 -1.0004197435590871
H 0.0 0.0 0.0
H 0.0 0.0 0.9171494115949416
3

H 0.0 0.0 -1.001185788002206
H 0.0 0.0 0.0
H 0.0 0.0 0.9165066239852552
3

H 0.0 0.0 -1.001962933963663
H 0.0 0.0 0.0
H 0.0 0.0 0.9158773035942054
3

H 0.0 0.0 -1.00274007992512
H 0.0 0.0 0.0
H 0.0 0.0 0.9152479832031556
3

H 0.0 0.0 -1.003517225886577
H 0.0 0.0 0.0
H 0.0 0.0 0.9146186628121058
3

H 0.0 0.0 -1.004294371848034
H 0.0 0.0 0.0
H 0.0 0.0 0.913989342421056
3

H 0.0 0.0 -1.0050715178094909
H 0.0 0.0 0.0
H 0.0 0.0 0.9133600220300062
3

H 0.0 0.0 -1.0058486637709478
H 0.0 0.0 0.0
H 0.0 0.0 0.9127307016389564
3

H 0.0 0.0 -1.0066258097324048
H 0.0 0.0 0.0
H 0.0 0.0 0.9121013812479066
3

H 0.0 0.0 -1.0074029556938615
H 0.0 0.0 0.0
H 0.0 0.0 0.9114720608568568
3

H 0.0 0.0 -1.008180101655319
H 0.0 0.0 0.0
H 0.0 0.0 0.910842740465807
3

H 0.0 0.0 -1.0089572476167756
H 0.0 0.0 0.0
H 0.0 0.0 0.9102134200747573
3

H 0.0 0.0 -1.0097452583703823
H 0.0 0.0 0.0
H 0.0 0.0 0.9095977585994316
3

H 0.0 0.0 -1.010533269123989
H 0.0 0.0 0.0
H 0.0 0.0 0.908982097124106
3

H 0.0 0.0 -1.0113212798775957
H 0.0 0.0 0.0
H 0.0 0.0 0.9083664356487804
3

H 0.0 0.0 -1.0121092906312024
H 0.0 0.0 0.0
H 0.0 0.0 0.9077507741734546
3

H 0.0 0.0 -1.012897301384809
H 0.0 0.0 0.0
H 0.0 0.0 0.907135112698129
3

H 0.0 0.0 -1.0136853121384155
H 0.0 0.0 0.0
H 0.0 0.0 0.9065194512228032
3

H 0.0 0.0 -1.0144733228920224
H 0.0 0.0 0.0
H 0.0 0.0 0.9059037897474777
3

H 0.0 0.0 -1.015261333645629
H 0.0 0.0 0.0
H 0.0 0.0 0.905288128272152
3

H 0.0 0.0 -1.0160493443992358
H 0.0 0.0 0.0
H 0.0 0.0 0.9046724667968264
3

H 0.0 0.0 -1.0168373551528425
H 0.0 0.0 0.0
H 0.0 0.0 0.9040568053215008
3

H 0.0 0.0 -1.0176359906628898
H 0.0 0.0 0.0
H 0.0 0.0 0.9034549902983486
3

H 0.0 0.0 -1.0184346261729371
H 0.0 0.0 0.0
H 0.0 0.0 0.9028531752751966
3

H 0.0 0.0 -1.0192332616829844
H 0.0 0.0 0.0
H 0.0 0.0 0.9022513602520446
3

H 0.0 0.0 -1.0200318971930318
H 0.0 0.0 0.0
H 0.0 0.0 0.9016495452288924
3

H 0.0 0.0 -1.020830532703079
H 0.0 0.0 0.0
H 0.0 0.0 0.9010477302057404
3

H 0.0 0.0 -1.0216291682131264
H 0.0 0.0 0.0
H 0.0 0.0 0.9004459151825884
3

H 0.0 0.0 -1.0224278037231738
H 0.0 0.0 0.0
H 0.0 0.0 0.8998441001594364
3

H 0.0 0.0 -1.023226439233221
H 0.0 0.0 0.0
H 0.0 0.0 0.8992422851362843
3

H 0.0 0.0 -1.0240250747432684
H 0.0 0.0 0.0
H 0.0 0.0 0.8986404701131323
3

H 0.0 0.0 -1.0248237102533158
H 0.0 0.0 0.0
H 0.0 0.0 0.8980386550899803
3

H 0.0 0.0 -1.025622345763363
H 0.0 0.0 0.0
H 0.0 0.0 0.8974368400668282
3

H 0.0 0.0 -1.026431362757738
H 0.0 0.0 0.0
H 0.0 0.0 0.8968490548145357
3

H 0.0 0.0 -1.0272403797521128
H 0.0 0.0 0.0
H 0.0 0.0 0.8962612695622432
3

H 0.0 0.0 -1.0280493967464877
H 0.0 0.0 0.0
H 0.0 0.0 0.8956734843099506
3

H 0.0 0.0 -1.0288584137408625
H 0.0 0.0 0.0
H 0.0 0.0 0.8950856990576581
3

H 0.0 0.0 -1.0296674307352374
H 0.0 0.0 0.0
H 0.0 0.0 0.8944979138053656
3

H 0.0 0.0 -1.0304764477296122
H 0.0 0.0 0.0
H 0.0 0.0 0.8939101285530731
3

H 0.0 0.0 -1.031285464723987
H 0.0 0.0 0.0
H 0.0 0.0 0.8933223433007805
3

H 0.0 0.0 -1.032094481718362
H 0.0 0.0 0.0
H 0.0 0.0 0.892734558048488
3

H 0.0 0.0 -1.0329034987127368
H 0.0 0.0 0.0
H 0.0 0.0 0.8921467727961955
3

H 0.0 0.0 -1.0337125157071116
H 0.0 0.0 0.0
H 0.0 0.0 0.891558987543903
3

H 0.0 0.0 -1.0345316677514007
H 0.0 0.0 0.0
H 0.0 0.0 0.8909854111075519
3

H 0.0 0.0 -1.0353508197956898
H 0.0 0.0 0.0
H 0.0 0.0 0.8904118346712009
3

H 0.0 0.0 -1.0361699718399788
H 0.0 0.0 0.0
H 0.0 0.0 0.8898382582348499
3

H 0.0 0.0 -1.036989123884268
H 0.0 0.0 0.0
H 0.0 0.0 0.8892646817984988
3

H 0.0 0.0 -1.037808275928557
H 0.0 0.0 0.0
H 0.0 0.0 0.8886911053621478
3

H 0.0 0.0 -1.038627427972846
H 0.0 0.0 0.0
H 0.0 0.0 0.8881175289257968
3

H 0.0 0.0 -1.039446580017135
H 0.0 0.0 0.0
H 0.0 0.0 0.8875439524894457
3

H 0.0 0.0 -1.040265732061424
H 0.0 0.0 0.0
H 0.0 0.0 0.8869703760530947
3

H 0.0 0.0 -1.0410848841057132
H 0.0 0.0 0.0
H 0.0 0.0 0.8863967996167437
3

H 0.0 0.0 -1.0419040361500025
H 0.0 0.0 0.0
H 0.0 0.0 0.8858232231803926
3

H 0.0 0.0 -1.0427330737225573
H 0.0 0.0 0.0
H 0.0 0.0 0.8852640302769219
3

H 0.0 0.0 -1.0435621112951123
H 0.0 0.0 0.0
H 0.0 0.0 0.8847048373734512
3

H 0.0 0.0 -1.0443911488676674
H 0.0 0.0 0.0
H 0.0 0.0 0.8841456444699805
3

H 0.0 0.0 -1.0452201864402224
H 0.0 0.0 0.0
H 0.0 0.0 0.8835864515665097
3

H 0.0 0.0 -1.0460492240127774
H 0.0 0.0 0.0
H 0.0 0.0 0.883027258663039
3

H 0.0 0.0 -1.0468782615853325
H 0.0 0.0 0.0
H 0.0 0.0 0.8824680657595683
3

H 0.0 0.0 -1.0477072991578875
H 0.0 0.0 0.0
H 0.0 0.0 0.8819088728560975
3

H 0.0 0.0 -1.0485363367304426
H 0.0 0.0 0.0
H 0.0 0.0 0.8813496799526268
3

H 0.0 0.0 -1.0493653743029976
H 0.0 0.0 0.0
H 0.0 0.0 0.8807904870491561
3

H 0.0 0.0 -1.0501944118755526
H 0.0 0.0 0.0
H 0.0 0.0 0.8802312941456854
3

H 0.0 0.0 -1.0510234494481077
H 0.0 0.0 0.0
H 0.0 0.0 0.8796721012422146
3

H 0.0 0.0 -1.0518621200160532
H 0.0 0.0 0.0
H 0.0 0.0 0.8791274622071996
3

H 0.0 0.0 -1.052700790583999
H 0.0 0.0 0.0
H 0.0 0.0 0.8785828231721846
3

H 0.0 0.0 -1.0535394611519442
H 0.0 0.0 0.0
H 0.0 0.0 0.8780381841371696
3

H 0.0 0.0 -1.0543781317198897
H 0.0 0.0 0.0
H 0.0 0.0 0.8774935451021546
3

H 0.0 0.0 -1.0552168022878352
H 0.0 0.0 0.0
H 0.0 0.0 0.8769489060671396
3

H 0.0 0.0 -1.0560554728557807
H 0.0 0.0 0.0
H 0.0 0.0 0.8764042670321246
3

H 0.0 0.0 -1.0568941434237262
H 0.0 0.0 0.0
H 0.0 0.0 0.8758596279971096
3

H 0.0 0.0 -1.0577328139916715
H 0.0 0.0 0.0
H 0.0 0.0 0.8753149889620946
3

H 0.0 0.0 -1.0585714845596172
H 0.0 0.0 0.0
H 0.0 0.0 0.8747703499270796
3

H 0.0 0.0 -1.0594195326557736
H 0.0 0.0 0.0
H 0.0 0.0 0.8742404306628464
3

H 0.0 0.0 -1.06026758075193
H 0.0 0.0 0.0
H 0.0 0.0 0.8737105113986132
3

H 0.0 0.0 -1.0611156288480863
H 0.0 0.0 0.0
H 0.0 0.0 0.87318059213438
3

H 0.0 0.0 -1.0619636769442429
H 0.0 0.0 0.0
H 0.0 0.0 0.8726506728701469
3

H 0.0 0.0 -1.062811725040399
H 0.0 0.0 0.0
H 0.0 0.0 0.8721207536059137
3

H 0.0 0.0 -1.0636597731365554
H 0.0 0.0 0.0
H 0.0 0.0 0.8715908343416805
3

H 0.0 0.0 -1.0645078212327117
H 0.0 0.0 0.0
H 0.0 0.0 0.8710609150774473
3

H 0.0 0.0 -1.065355869328868
H 0.0 0.0 0.0
H 0.0 0.0 0.8705309958132141
3

H 0.0 0.0 -1.0662039174250244
H 0.0 0.0 0.0
H 0.0 0.0 0.870001076548981
3

H 0.0 0.0 -1.0670519655211808
H 0.0 0.0 0.0
H 0.0 0.0 0.8694711572847478
3

H 0.0 0.0 -1.0679091328218828
H 0.0 0.0 0.0
H 0.0 0.0 0.8689561192098377
3

H 0.0 0.0 -1.068766300122585
H 0.0 0.0 0.0
H 0.0 0.0 0.8684410811349277
3

H 0.0 0.0 -1.069623467423287
H 0.0 0.0 0.0
H 0.0 0.0 0.8679260430600176
3

H 0.0 0.0 -1.070480634723989
H 0.0 0.0 0.0
H 0.0 0.0 0.8674110049851076
3

H 0.0 0.0 -1.071337802024691
H 0.0 0.0 0.0
H 0.0 0.0 0.8668959669101975
3

H 0.0 0.0 -1.0721949693253932
H 0.0 0.0 0.0
H 0.0 0.0 0.8663809288352875
3

H 0.0 0.0 -1.0730521366260952
H 0.0 0.0 0.0
H 0.0 0.0 0.8658658907603775
3

H 0.0 0.0 -1.0739093039267973
H 0.0 0.0 0.0
H 0.0 0.0 0.8653508526854674
3

H 0.0 0.0 -1.0747664712274994
H 0.0 0.0 0.0
H 0.0 0.0 0.8648358146105574
3

H 0.0 0.0 -1.0756236385282014
H 0.0 0.0 0.0
H 0.0 0.0 0.8643207765356473
3

H 0.0 0.0 -1.076489663931986
H 0.0 0.0 0.0
H 0.0 0.0 0.8638207765356474
3

H 0.0 0.0 -1.0773556893357703
H 0.0 0.0 0.0
H 0.0 0.0 0.8633207765356474
3

H 0.0 0.0 -1.0782217147395547
H 0.0 0.0 0.0
H 0.0 0.0 0.8628207765356475
3

H 0.0 0.0 -1.0790877401433392
H 0.0 0.0 0.0
H 0.0 0.0 0.8623207765356475
3

H 0.0 0.0 -1.0799537655471236
H 0.0 0.0 0.0
H 0.0 0.0 0.8618207765356476
3

H 0.0 0.0 -1.080819790950908
H 0.0 0.0 0.0
H 0.0 0.0 0.8613207765356476
3

H 0.0 0.0 -1.0816858163546923
H 0.0 0.0 0.0
H 0.0 0.0 0.8608207765356477
3

H 0.0 0.0 -1.082551841758477
H 0.0 0.0 0.0
H 0.0 0.0 0.8603207765356478
3

H 0.0 0.0 -1.0834178671622614
H 0.0 0.0 0.0
H 0.0 0.0 0.8598207765356478
3

H 0.0 0.0 -1.0842838925660458
H 0.0 0.0 0.0
H 0.0 0.0 0.8593207765356479
3

H 0.0 0.0 -1.0851585122731853
H 0.0 0.0 0.0
H 0.0 0.0 0.8588359669154015
3

H 0.0 0.0 -1.0860331319803247
H 0.0 0.0 0.0
H 0.0 0.0 0.8583511572951552
3

H 0.0 0.0 -1.086907751687464
H 0.0 0.0 0.0
H 0.0 0.0 0.8578663476749089
3

H 0.0 0.0 -1.0877823713946035
H 0.0 0.0 0.0
H 0.0 0.0 0.8573815380546626
3

H 0.0 0.0 -1.088656991101743
H 0.0 0.0 0.0
H 0.0 0.0 0.8568967284344162
3

H 0.0 0.0 -1.0895316108088824
H 0.0 0.0 0.0
H 0.0 0.0 0.8564119188141699
3

H 0.0 0.0 -1.0904062305160218
H 0.0 0.0 0.0
H 0.0 0.0 0.8559271091939236
3

H 0.0 0.0 -1.0912808502231612
H 0.0 0.0 0.0
H 0.0 0.0 0.8554422995736772
3

H 0.0 0.0 -1.0921554699303009
H 0.0 0.0 0.0
H 0.0 0.0 0.8549574899534309
3

H 0.0 0.0 -1.09303008963744
H 0.0 0.0 0.0
H 0.0 0.0 0.8544726803331846
3

H 0.0 0.0 -1.093913037230299
H 0.0 0.0 0.0
H 0.0 0.0 0.8540032087703987
3

H 0.0 0.0 -1.094795984823158
H 0.0 0.0 0.0
H 0.0 0.0 0.8535337372076128
3

H 0.0 0.0 -1.0956789324160168
H 0.0 0.0 0.0
H 0.0 0.0 0.853064265644827
3

H 0.0 0.0 -1.0965618800088757
H 0.0 0.0 0.0
H 0.0 0.0 0.8525947940820411
3

H 0.0 0.0 -1.0974448276017346
H 0.0 0.0 0.0
H 0.0 0.0 0.8521253225192552
3

H 0.0 0.0 -1.0983277751945937
H 0.0 0.0 0.0
H 0.0 0.0 0.8516558509564693
3

H 0.0 0.0 -1.0992107227874524
H 0.0 0.0 0.0
H 0.0 0.0 0.8511863793936835
3

H 0.0 0.0 -1.1000936703803113
H 0.0 0.0 0.0
H 0.0 0.0 0.8507169078308976
3

H 0.0 0.0 -1.10097661797317
H 0.0 0.0 0.0
H 0.0 0.0 0.8502474362681117
3

H 0.0 0.0 -1.1018676244973584
H 0.0 0.0 0.0
H 0.0 0.0 0.8497934457683721
3

H 0.0 0.0 -1.1027586310215467
H 0.0 0.0 0.0
H 0.0 0.0 0.8493394552686325
3

H 0.0 0.0 -1.103649637545735
H 0.0 0.0 0.0
H 0.0 0.0 0.8488854647688929
3

H 0.0 0.0 -1.1045406440699232
H 0.0 0.0 0.0
H 0.0 0.0 0.8484314742691533
3

H 0.0 0.0 -1.1054316505941115
H 0.0 0.0 0.0
H 0.0 0.0 0.8479774837694137
3

H 0.0 0.0 -1.1063226571182998
H 0.0 0.0 0.0
H 0.0 0.0 0.8475234932696741
3

H 0.0 0.0 -1.107213663642488
H 0.0 0.0 0.0
H 0.0 0.0 0.8470695027699345
3

H 0.0 0.0 -1.1081046701666764
H 0.0 0.0 0.0
H 0.0 0.0 0.8466155122701949
3

H 0.0 0.0 -1.1089956766908646
H 0.0 0.0 0.0
H 0.0 0.0 0.8461615217704553
3

H 0.0 0.0 -1.109886683215053
H 0.0 0.0 0.0
H 0.0 0.0 0.8457075312707157
3

H 0.0 0.0 -1.110785477261352
H 0.0 0.0 0.0
H 0.0 0.0 0.8452691601239266
3

H 0.0 0.0 -1.1116842713076514
H 0.0 0.0 0.0
H 0.0 0.0 0.8448307889771375
3

H 0.0 0.0 -1.1125830653539506
H 0.0 0.0 0.0
H 0.0 0.0 0.8443924178303484
3

H 0.0 0.0 -1.1134818594002498
H 0.0 0.0 0.0
H 0.0 0.0 0.8439540466835592
3

H 0.0 0.0 -1.114380653446549
H 0.0 0.0 0.0
H 0.0 0.0 0.8435156755367701
3

H 0.0 0.0 -1.1152794474928482
H 0.0 0.0 0.0
H 0.0 0.0 0.843077304389981
3

H 0.0 0.0 -1.1161782415391477
H 0.0 0.0 0.0
H 0.0 0.0 0.8426389332431918
3

H 0.0 0.0 -1.117077035585447
H 0.0 0.0 0.0
H 0.0 0.0 0.8422005620964027
3

H 0.0 0.0 -1.117975829631746
H 0.0 0.0 0.0
H 0.0 0.0 0.8417621909496136
3

H 0.0 0.0 -1.1188746236780451
H 0.0 0.0 0.0
H 0.0 0.0 0.8413238198028244
3

H 0.0 0.0 -1.1197809314650815
H 0.0 0.0 0.0
H 0.0 0.0 0.8409012015410837
3

H 0.0 0.0 -1.1206872392521183
H 0.0 0.0 0.0
H 0.0 0.0 0.840478583279343
3

H 0.0 0.0 -1.121593547039155
H 0.0 0.0 0.0
H 0.0 0.0 0.8400559650176023
3

H 0.0 0.0 -1.1224998548261915
H 0.0 0.0 0.0
H 0.0 0.0 0.8396333467558615
3

H 0.0 0.0 -1.123406162613228
H 0.0 0.0 0.0
H 0.0 0.0 0.8392107284941208
3

H 0.0 0.0 -1.1243124704002647
H 0.0 0.0 0.0
H 0.0 0.0 0.8387881102323801
3

H 0.0 0.0 -1.125218778187301
H 0.0 0.0 0.0
H 0.0 0.0 0.8383654919706394
3

H 0.0 0.0 -1.126125085974338
H 0.0 0.0 0.0
H 0.0 0.0 0.8379428737088986
3

H 0.0 0.0 -1.1270313937613743
H 0.0 0.0 0.0
H 0.0 0.0 0.8375202554471579
3

H 0.0 0.0 -1.127937701548411
H 0.0 0.0 0.0
H 0.0 0.0 0.8370976371854172
3

H 0.0 0.0 -1.1288512470060537
H 0.0 0.0 0.0
H 0.0 0.0 0.8366909005423414
3

H 0.0 0.0 -1.1297647924636962
H 0.0 0.0 0.0
H 0.0 0.0 0.8362841638992656
3

H 0.0 0.0 -1.1306783379213388
H 0.0 0.0 0.0
H 0.0 0.0 0.8358774272561899
3

H 0.0 0.0 -1.131591883378981
H 0.0 0.0 0.0
H 0.0 0.0 0.8354706906131141
3

H 0.0 0.0 -1.132505428836624
H 0.0 0.0 0.0
H 0.0 0.0 0.8350639539700383
3

H 0.0 0.0 -1.1334189742942664
H 0.0 0.0 0.0
H 0.0 0.0 0.8346572173269625
3

H 0.0 0.0 -1.134332519751909
H 0.0 0.0 0.0
H 0.0 0.0 0.8342504806838867
3

H 0.0 0.0 -1.1352460652095515
H 0.0 0.0 0.0
H 0.0 0.0 0.833843744040811
3

H 0.0 0.0 -1.136159610667194
H 0.0 0.0 0.0
H 0.0 0.0 0.8334370073977352
3

H 0.0 0.0 -1.1370801155206465
H 0.0 0.0 0.0
H 0.0 0.0 0.8330462762692459
3

H 0.0 0.0 -1.1380006203740989
H 0.0 0.0 0.0
H 0.0 0.0 0.8326555451407566
3

H 0.0 0.0 -1.1389211252275513
H 0.0 0.0 0.0
H 0.0 0.0 0.8322648140122673
3

H 0.0 0.0 -1.1398416300810037
H 0.0 0.0 0.0
H 0.0 0.0 0.831874082883778
3

H 0.0 0.0 -1.140762134934456
H 0.0 0.0 0.0
H 0.0 0.0 0.8314833517552886
3

H 0.0 0.0 -1.1416826397879083
H 0.0 0.0 0.0
H 0.0 0.0 0.8310926206267993
3

H 0.0 0.0 -1.142603144641361
H 0.0 0.0 0.0
H 0.0 0.0 0.83070188949831
3

H 0.0 0.0 -1.143523649494813
H 0.0 0.0 0.0
H 0.0 0.0 0.8303111583698207
3

H 0.0 0.0 -1.1444441543482655
H 0.0 0.0 0.0
H 0.0 0.0 0.8299204272413314
3

H 0.0 0.0 -1.145364659201718
H 0.0 0.0 0.0
H 0.0 0.0 0.8295296961128421
3

H 0.0 0.0 -1.146291843056285
H 0.0 0.0 0.0
H 0.0 0.0 0.8291550895194262
3

H 0.0 0.0 -1.1472190269108518
H 0.0 0.0 0.0
H 0.0 0.0 0.8287804829260103
3

H 0.0 0.0 -1.1481462107654186
H 0.0 0.0 0.0
H 0.0 0.0 0.8284058763325943
3

H 0.0 0.0 -1.1490733946199854
H 0.0 0.0 0.0
H 0.0 0.0 0.8280312697391784
3

H 0.0 0.0 -1.1500005784745522
H 0.0 0.0 0.0
H 0.0 0.0 0.8276566631457625
3

H 0.0 0.0 -1.150927762329119
H 0.0 0.0 0.0
H 0.0 0.0 0.8272820565523465
3

H 0.0 0.0 -1.1518549461836858
H 0.0 0.0 0.0
H 0.0 0.0 0.8269074499589306
3

H 0.0 0.0 -1.1527821300382526
H 0.0 0.0 0.0
H 0.0 0.0 0.8265328433655147
3

H 0.0 0.0 -1.1537093138928194
H 0.0 0.0 0.0
H 0.0 0.0 0.8261582367720988
3

H 0.0 0.0 -1.1546364977473862
H 0.0 0.0 0.0
H 0.0 0.0 0.8257836301786828
3

H 0.0 0.0 -1.1555700781738834
H 0.0 0.0 0.0
H 0.0 0.0 0.8254252622291376
3

H 0.0 0.0 -1.1565036586003803
H 0.0 0.0 0.0
H 0.0 0.0 0.8250668942795923
3

H 0.0 0.0 -1.1574372390268777
H 0.0 0.0 0.0
H 0.0 0.0 0.8247085263300471
3

H 0.0 0.0 -1.1583708194533748
H 0.0 0.0 0.0
H 0.0 0.0 0.8243501583805019
3

H 0.0 0.0 -1.159304399879872
H 0.0 0.0 0.0
H 0.0 0.0 0.8239917904309566
3

H 0.0 0.0 -1.1602379803063692
H 0.0 0.0 0.0
H 0.0 0.0 0.8236334224814114
3

H 0.0 0.0 -1.1611715607328663
H 0.0 0.0 0.0
H 0.0 0.0 0.8232750545318661
3

H 0.0 0.0 -1.1621051411593637
H 0.0 0.0 0.0
H 0.0 0.0 0.8229166865823209
3

H 0.0 0.0 -1.1630387215858606
H 0.0 0.0 0.0
H 0.0 0.0 0.8225583186327756
3

H 0.0 0.0 -1.1639723020123578
H 0.0 0.0 0.0
H 0.0 0.0 0.8221999506832304
3

H 0.0 0.0 -1.164905882438855
H 0.0 0.0 0.0
H 0.0 0.0 0.8218415827336851
3

H 0.0 0.0 -1.1658455750596408
H 0.0 0.0 0.0
H 0.0 0.0 0.8214995625903595
3

H 0.0 0.0 -1.166785267680427
H 0.0 0.0 0.0
H 0.0 0.0 0.8211575424470339
3

H 0.0 0.0 -1.1677249603012123
H 0.0 0.0 0.0
H 0.0 0.0 0.8208155223037082
3

H 0.0 0.0 -1.1686646529219984
H 0.0 0.0 0.0
H 0.0 0.0 0.8204735021603826
3

H 0.0 0.0 -1.1696043455427845
H 0.0 0.0 0.0
H 0.0 0.0 0.820131482017057
3

H 0.0 0.0 -1.17054403816357
H 0.0 0.0 0.0
H 0.0 0.0 0.8197894618737314
3

H 0.0 0.0 -1.171483730784356
H 0.0 0.0 0.0
H 0.0 0.0 0.8194474417304057
3

H 0.0 0.0 -1.1724234234051418
H 0.0 0.0 0.0
H 0.0 0.0 0.8191054215870801
3

H 0.0 0.0 -1.1733631160259277
H 0.0 0.0 0.0
H 0.0 0.0 0.8187634014437545
3

H 0.0 0.0 -1.1743028086467135
H 0.0 0.0 0.0
H 0.0 0.0 0.8184213813004289
3

H 0.0 0.0 -1.1752483272223129
H 0.0 0.0 0.0
H 0.0 0.0 0.8180958131459717
3

H 0.0 0.0 -1.1761938457979122
H 0.0 0.0 0.0
H 0.0 0.0 0.8177702449915145
3

H 0.0 0.0 -1.1771393643735115
H 0.0 0.0 0.0
H 0.0 0.0 0.8174446768370573
3

H 0.0 0.0 -1.1780848829491108
H 0.0 0.0 0.0
H 0.0 0.0 0.8171191086826002
3

H 0.0 0.0 -1.1790304015247102
H 0.0 0.0 0.0
H 0.0 0.0 0.816793540528143
3

H 0.0 0.0 -1.1799759201003095
H 0.0 0.0 0.0
H 0.0 0.0 0.8164679723736858
3

H 0.0 0.0 -1.1809214386759088
H 0.0 0.0 0.0
H 0.0 0.0 0.8161424042192287
3

H 0.0 0.0 -1.181866957251508
H 0.0 0.0 0.0
H 0.0 0.0 0.8158168360647715
3

H 0.0 0.0 -1.1828124758271077
H 0.0 0.0 0.0
H 0.0 0.0 0.8154912679103143
3

H 0.0 0.0 -1.1837579944027068
H 0.0 0.0 0.0
H 0.0 0.0 0.8151656997558572
3

H 0.0 0.0 -1.184709050919002
H 0.0 0.0 0.0
H 0.0 0.0 0.8148566827614823
3

H 0.0 0.0 -1.185660107435297
H 0.0 0.0 0.0
H 0.0 0.0 0.8145476657671074
3

H 0.0 0.0 -1.1866111639515922
H 0.0 0.0 0.0
H 0.0 0.0 0.8142386487727324
3

H 0.0 0.0 -1.1875622204678873
H 0.0 0.0 0.0
H 0.0 0.0 0.8139296317783575
3

H 0.0 0.0 -1.1885132769841824
H 0.0 0.0 0.0
H 0.0 0.0 0.8136206147839826
3

H 0.0 0.0 -1.1894643335004775
H 0.0 0.0 0.0
H 0.0 0.0 0.8133115977896077
3

H 0.0 0.0 -1.1904153900167729
H 0.0 0.0 0.0
H 0.0 0.0 0.8130025807952328
3

H 0.0 0.0 -1.1913664465330678
H 0.0 0.0 0.0
H 0.0 0.0 0.8126935638008579
3

H 0.0 0.0 -1.192317503049363
H 0.0 0.0 0.0
H 0.0 0.0 0.812384546806483
3

H 0.0 0.0 -1.193268559565658
H 0.0 0.0 0.0
H 0.0 0.0 0.8120755298121081
3

H 0.0 0.0 -1.1942196160819532
H 0.0 0.0 0.0
H 0.0 0.0 0.8117665128177332
3

H 0.0 0.0 -1.1951706725982485
H 0.0 0.0 0.0
H 0.0 0.0 0.8114574958233582
3

H 0.0 0.0 -1.1961269773542114
H 0.0 0.0 0.0
H 0.0 0.0 0.8111651241186355
3

H 0.0 0.0 -1.1970832821101745
H 0.0 0.0 0.0
H 0.0 0.0 0.8108727524139128
3

H 0.0 0.0 -1.1980395868661375
H 0.0 0.0 0.0
H 0.0 0.0 0.81058038070919
3

H 0.0 0.0 -1.1989958916221006
H 0.0 0.0 0.0
H 0.0 0.0 0.8102880090044673
3

H 0.0 0.0 -1.1999521963780635
H 0.0 0.0 0.0
H 0.0 0.0 0.8099956372997446
3

H 0.0 0.0 -1.2009085011340268
H 0.0 0.0 0.0
H 0.0 0.0 0.8097032655950218
3

H 0.0 0.0 -1.20186480588999
H 0.0 0.0 0.0
H 0.0 0.0 0.8094108938902991
3

H 0.0 0.0 -1.202821110645953
H 0.0 0.0 0.0
H 0.0 0.0 0.8091185221855763
3

H 0.0 0.0 -1.203777415401916
H 0.0 0.0 0.0
H 0.0 0.0 0.8088261504808536
3

H 0.0 0.0 -1.2047337201578792
H 0.0 0.0 0.0
H 0.0 0.0 0.8085337787761309
3

H 0.0 0.0 -1.2056900249138425
H 0.0 0.0 0.0
H 0.0 0.0 0.8082414070714081
3

H 0.0 0.0 -1.2066512866097805
H 0.0 0.0 0.0
H 0.0 0.0 0.8079657697155911
3

H 0.0 0.0 -1.2076125483057187
H 0.0 0.0 0.0
H 0.0 0.0 0.807690132359774
3

H 0.0 0.0 -1.208573810001657
H 0.0 0.0 0.0
H 0.0 0.0 0.807414495003957
3

H 0.0 0.0 -1.2095350716975952
H 0.0 0.0 0.0
H 0.0 0.0 0.80713885764814
3

H 0.0 0.0 -1.2104963333935337
H 0.0 0.0 0.0
H 0.0 0.0 0.8068632202923229
3

H 0.0 0.0 -1.2114575950894717
H 0.0 0.0 0.0
H 0.0 0.0 0.8065875829365059
3

H 0.0 0.0 -1.21241885678541
H 0.0 0.0 0.0
H 0.0 0.0 0.8063119455806889
3

H 0.0 0.0 -1.2133801184813482
H 0.0 0.0 0.0
H 0.0 0.0 0.8060363082248718
3

H 0.0 0.0 -1.2143413801772864
H 0.0 0.0 0.0
H 0.0 0.0 0.8057606708690548
3

H 0.0 0.0 -1.215302641873225
H 0.0 0.0 0.0
H 0.0 0.0 0.8054850335132377
3

H 0.0 0.0 -1.216263903569163
H 0.0 0.0 0.0
H 0.0 0.0 0.8052093961574207
3

H 0.0 0.0 -1.2172251652651012
H 0.0 0.0 0.0
H 0.0 0.0 0.8049337588016037
3

H 0.0 0.0 -1.2181910910913902
H 0.0 0.0 0.0
H 0.0 0.0 0.8046749397565012
3

H 0.0 0.0 -1.2191570169176793
H 0.0 0.0 0.0
H 0.0 0.0 0.8044161207113987
3

H 0.0 0.0 -1.2201229427439684
H 0.0 0.0 0.0
H 0.0 0.0 0.8041573016662962
3

H 0.0 0.0 -1.2210888685702574
H 0.0 0.0 0.0
H 0.0 0.0 0.8038984826211937
3

H 0.0 0.0 -1.2220547943965463
H 0.0 0.0 0.0
H 0.0 0.0 0.8036396635760912
3

H 0.0 0.0 -1.2230207202228356
H 0.0 0.0 0.0
H 0.0 0.0 0.8033808445309887
3

H 0.0 0.0 -1.2239866460491249
H 0.0 0.0 0.0
H 0.0 0.0 0.8031220254858862
3

H 0.0 0.0 -1.2249525718754135
H 0.0 0.0 0.0
H 0.0 0.0 0.8028632064407837
3

H 0.0 0.0 -1.2259184977017028
H 0.0 0.0 0.0
H 0.0 0.0 0.8026043873956812
3

H 0.0 0.0 -1.226884423527992
H 0.0 0.0 0.0
H 0.0 0.0 0.8023455683505787
3

H 0.0 0.0 -1.227850349354281
H 0.0 0.0 0.0
H 0.0 0.0 0.8020867493054762
3

H 0.0 0.0 -1.22881627518057
H 0.0 0.0 0.0
H 0.0 0.0 0.8018279302603737
3

H 0.0 0.0 -1.229786570906846
H 0.0 0.0 0.0
H 0.0 0.0 0.801586008364774
3

H 0.0 0.0 -1.230756866633122
H 0.0 0.0 0.0
H 0.0 0.0 0.8013440864691743
3

H 0.0 0.0 -1.2317271623593982
H 0.0 0.0 0.0
H 0.0 0.0 0.8011021645735746
3

H 0.0 0.0 -1.2326974580856742
H 0.0 0.0 0.0
H 0.0 0.0 0.800860242677975
3

H 0.0 0.0 -1.2336677538119505
H 0.0 0.0 0.0
H 0.0 0.0 0.8006183207823753
3

H 0.0 0.0 -1.2346380495382263
H 0.0 0.0 0.0
H 0.0 0.0 0.8003763988867756
3

H 0.0 0.0 -1.2356083452645024
H 0.0 0.0 0.0
H 0.0 0.0 0.8001344769911759
3

H 0.0 0.0 -1.2365786409907784
H 0.0 0.0 0.0
H 0.0 0.0 0.7998925550955762
3

H 0.0 0.0 -1.2375489367170545
H 0.0 0.0 0.0
H 0.0 0.0 0.7996506331999765
3

H 0.0 0.0 -1.2385192324433305
H 0.0 0.0 0.0
H 0.0 0.0 0.7994087113043769
3

H 0.0 0.0 -1.2394895281696066
H 0.0 0.0 0.0
H 0.0 0.0 0.7991667894087772
3

H 0.0 0.0 -1.2404598238958826
H 0.0 0.0 0.0
H 0.0 0.0 0.7989248675131775
3

H 0.0 0.0 -1.2414301196221589
H 0.0 0.0 0.0
H 0.0 0.0 0.7986829456175778
3

H 0.0 0.0 -1.242404489686944
H 0.0 0.0 0.0
H 0.0 0.0 0.798457994563234
3

H 0.0 0.0 -1.2433788597517292
H 0.0 0.0 0.0
H 0.0 0.0 0.7982330435088901
3

H 0.0 0.0 -1.2443532298165143
H 0.0 0.0 0.0
H 0.0 0.0 0.7980080924545463
3

H 0.0 0.0 -1.2453275998812998
H 0.0 0.0 0.0
H 0.0 0.0 0.7977831414002025
3

H 0.0 0.0 -1.246301969946085
H 0.0 0.0 0.0
H 0.0 0.0 0.7975581903458586
3

H 0.0 0.0 -1.2472763400108704
H 0.0 0.0 0.0
H 0.0 0.0 0.7973332392915148
3

H 0.0 0.0 -1.2482507100756557
H 0.0 0.0 0.0
H 0.0 0.0 0.797108288237171
3

H 0.0 0.0 -1.249225080140441
H 0.0 0.0 0.0
H 0.0 0.0 0.7968833371828271
3

H 0.0 0.0 -1.2501994502052265
H 0.0 0.0 0.0
H 0.0 0.0 0.7966583861284833
3

H 0.0 0.0 -1.2511738202700116
H 0.0 0.0 0.0
H 0.0 0.0 0.7964334350741394
3

H 0.0 0.0 -1.2521481903347969
H 0.0 0.0 0.0
H 0.0 0.0 0.7962084840197956
3

H 0.0 0.0 -1.253122560399582
H 0.0 0.0 0.0
H 0.0 0.0 0.7959835329654518
3

H 0.0 0.0 -1.2540969304643674
H 0.0 0.0 0.0
H 0.0 0.0 0.7957585819111079
3

H 0.0 0.0 -1.2550713005291527
H 0.0 0.0 0.0
H 0.0 0.0 0.7955336308567641
3

H 0.0 0.0 -1.2560494481298865
H 0.0 0.0 0.0
H 0.0 0.0 0.7953257191659463
3

H 0.0 0.0 -1.2570275957306205
H 0.0 0.0 0.0
H 0.0 0.0 0.7951178074751285
3

H 0.0 0.0 -1.258005743331354
H 0.0 0.0 0.0
H 0.0 0.0 0.7949098957843107
3

H 0.0 0.0 -1.2589838909320878
H 0.0 0.0 0.0
H 0.0 0.0 0.7947019840934929
3

H 0.0 0.0 -1.2599620385328216
H 0.0 0.0 0.0
H 0.0 0.0 0.7944940724026751
3

H 0.0 0.0 -1.2609401861335554
H 0.0 0.0 0.0
H 0.0 0.0 0.7942861607118573
3

H 0.0 0.0 -1.2619183337342892
H 0.0 0.0 0.0
H 0.0 0.0 0.7940782490210395
3

H 0.0 0.0 -1.262896481335023
H 0.0 0.0 0.0
H 0.0 0.0 0.7938703373302217
3

H 0.0 0.0 -1.2638746289357567
H 0.0 0.0 0.0
H 0.0 0.0 0.7936624256394039
3

H 0.0 0.0 -1.2648527765364903
H 0.0 0.0 0.0
H 0.0 0.0 0.7934545139485861
3

H 0.0 0.0 -1.2658309241372243
H 0.0 0.0 0.0
H 0.0 0.0 0.7932466022577683
3

H 0.0 0.0 -1.266809071737958
H 0.0 0.0 0.0
H 0.0 0.0 0.7930386905669505
3

H 0.0 0.0 -1.267787219338692
H 0.0 0.0 0.0
H 0.0 0.0 0.7928307788761327
3

H 0.0 0.0 -1.2687653669394257
H 0.0 0.0 0.0
H 0.0 0.0 0.7926228671853149
3

H 0.0 0.0 -1.2697435145401594
H 0.0 0.0 0.0
H 0.0 0.0 0.7924149554944971
3

H 0.0 0.0 -1.2707251417236072
H 0.0 0.0 0.0
H 0.0 0.0 0.7922241464991207
3

H 0.0 0.0 -1.271706768907055
H 0.0 0.0 0.0
H 0.0 0.0 0.7920333375037442
3

H 0.0 0.0 -1.2726883960905029
H 0.0 0.0 0.0
H 0.0 0.0 0.7918425285083677
3

H 0.0 0.0 -1.2736700232739504
H 0.0 0.0 0.0
H 0.0 0.0 0.7916517195129912
3

H 0.0 0.0 -1.274651650457398
H 0.0 0.0 0.0
H 0.0 0.0 0.7914609105176147
3

H 0.0 0.0 -1.275633277640846
H 0.0 0.0 0.0
H 0.0 0.0 0.7912701015222382
3

H 0.0 0.0 -1.2766149048242936
H 0.0 0.0 0.0
H 0.0 0.0 0.7910792925268617
3

H 0.0 0.0 -1.2775965320077414
H 0.0 0.0 0.0
H 0.0 0.0 0.7908884835314852
3

H 0.0 0.0 -1.2785781591911891
H 0.0 0.0 0.0
H 0.0 0.0 0.7906976745361087
3

H 0.0 0.0 -1.2795597863746369
H 0.0 0.0 0.0
H 0.0 0.0 0.7905068655407322
3

H 0.0 0.0 -1.2805414135580846
H 0.0 0.0 0.0
H 0.0 0.0 0.7903160565453557
3

H 0.0 0.0 -1.2815230407415323
H 0.0 0.0 0.0
H 0.0 0.0 0.7901252475499793
3

H 0.0 0.0 -1.28250466792498
H 0.0 0.0 0.0
H 0.0 0.0 0.7899344385546028
3

H 0.0 0.0 -1.2834862951084278
H 0.0 0.0 0.0
H 0.0 0.0 0.7897436295592263
3

H 0.0 0.0 -1.2844679222918756
H 0.0 0.0 0.0
H 0.0 0.0 0.7895528205638498
3

H 0.0 0.0 -1.2854527300448877
H 0.0 0.0 0.0
H 0.0 0.0 0.7893791723861828
3

H 0.0 0.0 -1.2864375377978998
H 0.0 0.0 0.0
H 0.0 0.0 0.7892055242085159
3

H 0.0 0.0 -1.287422345550912
H 0.0 0.0 0.0
H 0.0 0.0 0.7890318760308489
3

H 0.0 0.0 -1.288407153303924
H 0.0 0.0 0.0
H 0.0 0.0 0.7888582278531819
3

H 0.0 0.0 -1.2893919610569362
H 0.0 0.0 0.0
H 0.0 0.0 0.788684579675515
3

H 0.0 0.0 -1.2903767688099483
H 0.0 0.0 0.0
H 0.0 0.0 0.788510931497848
3

H 0.0 0.0 -1.2913615765629605
H 0.0 0.0 0.0
H 0.0 0.0 0.788337283320181
3

H 0.0 0.0 -1.2923463843159726
H 0.0 0.0 0.0
H 0.0 0.0 0.7881636351425141
3

H 0.0 0.0 -1.2933311920689847
H 0.0 0.0 0.0
H 0.0 0.0 0.7879899869648471
3

H 0.0 0.0 -1.2943159998219969
H 0.0 0.0 0.0
H 0.0 0.0 0.7878163387871802
3

H 0.0 0.0 -1.295300807575009
H 0.0 0.0 0.0
H 0.0 0.0 0.7876426906095132
3

H 0.0 0.0 -1.2962856153280211
H 0.0 0.0 0.0
H 0.0 0.0 0.7874690424318462
3

H 0.0 0.0 -1.2972704230810332
H 0.0 0.0 0.0
H 0.0 0.0 0.7872953942541793
3

H 0.0 0.0 -1.2982552308340454
H 0.0 0.0 0.0
H 0.0 0.0 0.7871217460765123
3

H 0.0 0.0 -1.2992400385870575
H 0.0 0.0 0.0
H 0.0 0.0 0.7869480978988453
3

H 0.0 0.0 -1.3002248463400696
H 0.0 0.0 0.0
H 0.0 0.0 0.7867744497211784
3

H 0.0 0.0 -1.3012096540930818
H 0.0 0.0 0.0
H 0.0 0.0 0.7866008015435114
3

H 0.0 0.0 -1.302194461846094
H 0.0 0.0 0.0
H 0.0 0.0 0.7864271533658445
3

H 0.0 0.0 -1.303182150186689
H 0.0 0.0 0.0
H 0.0 0.0 0.7862707189008042
3

H 0.0 0.0 -1.304169838527284
H 0.0 0.0 0.0
H 0.0 0.0 0.786114284435764
3

H 0.0 0.0 -1.305157526867879
H 0.0 0.0 0.0
H 0.0 0.0 0.7859578499707238
3

H 0.0 0.0 -1.306145215208474
H 0.0 0.0 0.0
H 0.0 0.0 0.7858014155056836
3

H 0.0 0.0 -1.307132903549069
H 0.0 0.0 0.0
H 0.0 0.0 0.7856449810406434
3

H 0.0 0.0 -1.308120591889664
H 0.0 0.0 0.0
H 0.0 0.0 0.7854885465756032
3

H 0.0 0.0 -1.3091082802302592
H 0.0 0.0 0.0
H 0.0 0.0 0.785332112110563
3

H 0.0 0.0 -1.3100959685708542
H 0.0 0.0 0.0
H 0.0 0.0 0.7851756776455228
3

H 0.0 0.0 -1.3110836569114492
H 0.0 0.0 0.0
H 0.0 0.0 0.7850192431804826
3

H 0.0 0.0 -1.3120713452520445
H 0.0 0.0 0.0
H 0.0 0.0 0.7848628087154423
3

H 0.0 0.0 -1.313059033592639
H 0.0 0.0 0.0
H 0.0 0.0 0.7847063742504021
3

H 0.0 0.0 -1.3140467219332344
H 0.0 0.0 0.0
H 0.0 0.0 0.7845499397853619
3

H 0.0 0.0 -1.3150344102738294
H 0.0 0.0 0.0
H 0.0 0.0 0.7843935053203217
3

H 0.0 0.0 -1.3160220986144244
H 0.0 0.0 0.0
H 0.0 0.0 0.7842370708552815
3

H 0.0 0.0 -1.3170097869550197
H 0.0 0.0 0.0
H 0.0 0.0 0.7840806363902413
3

H 0.0 0.0 -1.3179974752956145
H 0.0 0.0 0.0
H 0.0 0.0 0.7839242019252011
3

H 0.0 0.0 -1.3189851636362095
H 0.0 0.0 0.0
H 0.0 0.0 0.7837677674601609
3

H 0.0 0.0 -1.3199728519768046
H 0.0 0.0 0.0
H 0.0 0.0 0.7836113329951206
3

H 0.0 0.0 -1.3209605403173996
H 0.0 0.0 0.0
H 0.0 0.0 0.7834548985300804
3

H 0.0 0.0 -1.3219482286579949
H 0.0 0.0 0.0
H 0.0 0.0 0.7832984640650402
3

H 0.0 0.0 -1.322938496726736
H 0.0 0.0 0.0
H 0.0 0.0 0.7831592909640802
3

H 0.0 0.0 -1.3239287647954776
H 0.0 0.0 0.0
H 0.0 0.0 0.7830201178631202
3

H 0.0 0.0 -1.324919032864219
H 0.0 0.0 0.0
H 0.0 0.0 0.7828809447621602
3

H 0.0 0.0 -1.3259093009329606
H 0.0 0.0 0.0
H 0.0 0.0 0.7827417716612002
3

H 0.0 0.0 -1.326899569001702
H 0.0 0.0 0.0
H 0.0 0.0 0.7826025985602402
3

H 0.0 0.0 -1.3278898370704435
H 0.0 0.0 0.0
H 0.0 0.0 0.7824634254592802
3

H 0.0 0.0 -1.328880105139185
H 0.0 0.0 0.0
H 0.0 0.0 0.7823242523583201
3

H 0.0 0.0 -1.3298703732079264
H 0.0 0.0 0.0
H 0.0 0.0 0.7821850792573601
3

H 0.0 0.0 -1.330860641276668
H 0.0 0.0 0.0
H 0.0 0.0 0.7820459061564001
3

H 0.0 0.0 -1.3318509093454094
H 0.0 0.0 0.0
H 0.0 0.0 0.7819067330554401
3

H 0.0 0.0 -1.3328411774141509
H 0.0 0.0 0.0
H 0.0 0.0 0.7817675599544801
3

H 0.0 0.0 -1.3338314454828923
H 0.0 0.0 0.0
H 0.0 0.0 0.7816283868535201
3

H 0.0 0.0 -1.3348217135516338
H 0.0 0.0 0.0
H 0.0 0.0 0.7814892137525601
3

H 0.0 0.0 -1.3358119816203753
H 0.0 0.0 0.0
H 0.0 0.0 0.7813500406516001
3

H 0.0 0.0 -1.3368022496891168
H 0.0 0.0 0.0
H 0.0 0.0 0.7812108675506401
3

H 0.0 0.0 -1.3377925177578582
H 0.0 0.0 0.0
H 0.0 0.0 0.78107169444968
3

H 0.0 0.0 -1.3387827858265997
H 0.0 0.0 0.0
H 0.0 0.0 0.78093252134872
3

H 0.0 0.0 -1.3397730538953412
H 0.0 0.0 0.0
H 0.0 0.0 0.78079334824776
3

H 0.0 0.0 -1.3407633219640829
H 0.0 0.0 0.0
H 0.0 0.0 0.7806541751468
3

H 0.0 0.0 -1.341753590032824
H 0.0 0.0 0.0
H 0.0 0.0 0.78051500204584
3

H 0.0 0.0 -1.3427438581015656
H 0.0 0.0 0.0
H 0.0 0.0 0.78037582894488
3

H 0.0 0.0 -1.343736404253207
H 0.0 0.0 0.0
H 0.0 0.0 0.7802539596014748
3

H 0.0 0.0 -1.3447289504048483
H 0.0 0.0 0.0
H 0.0 0.0 0.7801320902580696
3

H 0.0 0.0 -1.3457214965564896
H 0.0 0.0 0.0
H 0.0 0.0 0.7800102209146644
3

H 0.0 0.0 -1.346714042708131
H 0.0 0.0 0.0
H 0.0 0.0 0.7798883515712592
3

H 0.0 0.0 -1.3477065888597723
H 0.0 0.0 0.0
H 0.0 0.0 0.779766482227854
3

H 0.0 0.0 -1.3486991350114137
H 0.0 0.0 0.0
H 0.0 0.0 0.7796446128844489
3

H 0.0 0.0 -1.349691681163055
H 0.0 0.0 0.0
H 0.0 0.0 0.7795227435410437
3

H 0.0 0.0 -1.3506842273146964
H 0.0 0.0 0.0
H 0.0 0.0 0.7794008741976385
3

H 0.0 0.0 -1.3516767734663375
H 0.0 0.0 0.0
H 0.0 0.0 0.7792790048542333
3

H 0.0 0.0 -1.352669319617979
H 0.0 0.0 0.0
H 0.0 0.0 0.7791571355108281
3

H 0.0 0.0 -1.3536618657696204
H 0.0 0.0 0.0
H 0.0 0.0 0.7790352661674229
3

H 0.0 0.0 -1.3546544119212618
H 0.0 0.0 0.0
H 0.0 0.0 0.7789133968240177
3

H 0.0 0.0 -1.3556469580729031
H 0.0 0.0 0.0
H 0.0 0.0 0.7787915274806125
3

H 0.0 0.0 -1.3566395042245445
H 0.0 0.0 0.0
H 0.0 0.0 0.7786696581372073
3

H 0.0 0.0 -1.3576320503761858
H 0.0 0.0 0.0
H 0.0 0.0 0.7785477887938022
3

H 0.0 0.0 -1.3586245965278272
H 0.0 0.0 0.0
H 0.0 0.0 0.778425919450397
3

H 0.0 0.0 -1.3596171426794683
H 0.0 0.0 0.0
H 0.0 0.0 0.7783040501069918
3

H 0.0 0.0 -1.36060968883111
H 0.0 0.0 0.0
H 0.0 0.0 0.7781821807635866
3

H 0.0 0.0 -1.3616022349827512
H 0.0 0.0 0.0
H 0.0 0.0 0.7780603114201814
3

H 0.0 0.0 -1.3625947811343926
H 0.0 0.0 0.0
H 0.0 0.0 0.7779384420767762
3

H 0.0 0.0 -1.363587327286034
H 0.0 0.0 0.0
H 0.0 0.0 0.777816572733371
3

H 0.0 0.0 -1.3645798734376753
H 0.0 0.0 0.0
H 0.0 0.0 0.7776947033899658
3

H 0.0 0.0 -1.3655724195893166
H 0.0 0.0 0.0
H 0.0 0.0 0.7775728340465606
3

H 0.0 0.0 -1.366564965740958
H 0.0 0.0 0.0
H 0.0 0.0 0.7774509647031554
3

H 0.0 0.0 -1.367557511892599
H 0.0 0.0 0.0
H 0.0 0.0 0.7773290953597503
3

H 0.0 0.0 -1.368550058044241
H 0.0 0.0 0.0
H 0.0 0.0 0.7772072260163451
3

H 0.0 0.0 -1.3695445799396089
H 0.0 0.0 0.0
H 0.0 0.0 0.7771026975530774
3

H 0.0 0.0 -1.370539101834977
H 0.0 0.0 0.0
H 0.0 0.0 0.7769981690898097
3

H 0.0 0.0 -1.3715336237303453
H 0.0 0.0 0.0
H 0.0 0.0 0.776893640626542
3

H 0.0 0.0 -1.3725281456257137
H 0.0 0.0 0.0
H 0.0 0.0 0.7767891121632743
3

H 0.0 0.0 -1.3735226675210817
H 0.0 0.0 0.0
H 0.0 0.0 0.7766845837000066
3

H 0.0 0.0 -1.3745171894164498
H 0.0 0.0 0.0
H 0.0 0.0 0.7765800552367389
3

H 0.0 0.0 -1.375511711311818
H 0.0 0.0 0.0
H 0.0 0.0 0.7764755267734712
3

H 0.0 0.0 -1.3765062332071862
H 0.0 0.0 0.0
H 0.0 0.0 0.7763709983102035
3

H 0.0 0.0 -1.3775007551025544
H 0.0 0.0 0.0
H 0.0 0.0 0.7762664698469358
3

H 0.0 0.0 -1.3784952769979226
H 0.0 0.0 0.0
H 0.0 0.0 0.7761619413836681
3

H 0.0 0.0 -1.3794897988932908
H 0.0 0.0 0.0
H 0.0 0.0 0.7760574129204004
3

H 0.0 0.0 -1.380484320788659
H 0.0 0.0 0.0
H 0.0 0.0 0.7759528844571327
3

H 0.0 0.0 -1.3814788426840272
H 0.0 0.0 0.0
H 0.0 0.0 0.775848355993865
3

H 0.0 0.0 -1.3824733645793954
H 0.0 0.0 0.0
H 0.0 0.0 0.7757438275305973
3

H 0.0 0.0 -1.3834678864747636
H 0.0 0.0 0.0
H 0.0 0.0 0.7756392990673296
3

H 0.0 0.0 -1.3844624083701318
H 0.0 0.0 0.0
H 0.0 0.0 0.775534770604062
3

H 0.0 0.0 -1.3854569302655
H 0.0 0.0 0.0
H 0.0 0.0 0.7754302421407943
3

H 0.0 0.0 -1.3864514521608682
H 0.0 0.0 0.0
H 0.0 0.0 0.7753257136775266
3

H 0.0 0.0 -1.3874459740562364
H 0.0 0.0 0.0
H 0.0 0.0 0.7752211852142589
3

H 0.0 0.0 -1.3884404959516046
H 0.0 0.0 0.0
H 0.0 0.0 0.7751166567509912
3

H 0.0 0.0 -1.3894350178469728
H 0.0 0.0 0.0
H 0.0 0.0 0.7750121282877235
3

H 0.0 0.0 -1.390429539742341
H 0.0 0.0 0.0
H 0.0 0.0 0.7749075998244558
3

H 0.0 0.0 -1.3914240616377092
H 0.0 0.0 0.0
H 0.0 0.0 0.7748030713611881
3

H 0.0 0.0 -1.3924185835330771
H 0.0 0.0 0.0
H 0.0 0.0 0.7746985428979204
3

H 0.0 0.0 -1.3934131054284455
H 0.0 0.0 0.0
H 0.0 0.0 0.7745940144346527
3

H 0.0 0.0 -1.3944076273238135
H 0.0 0.0 0.0
H 0.0 0.0 0.774489485971385
3

H 0.0 0.0 -1.395402149219182
H 0.0 0.0 0.0
H 0.0 0.0 0.7743849575081173
3

H 0.0 0.0 -1.39639667111455
H 0.0 0.0 0.0
H 0.0 0.0 0.7742804290448496
3

H 0.0 0.0 -1.3973911930099183
H 0.0 0.0 0.0
H 0.0 0.0 0.7741759005815819
3

H 0.0 0.0 -1.39838738770801
H 0.0 0.0 0.0
H 0.0 0.0 0.7740887448388343
3

H 0.0 0.0 -1.3993835824061016
H 0.0 0.0 0.0
H 0.0 0.0 0.7740015890960866
3

H 0.0 0.0 -1.4003797771041933
H 0.0 0.0 0.0
H 0.0 0.0 0.773914433353339
3

H 0.0 0.0 -1.401375971802285
H 0.0 0.0 0.0
H 0.0 0.0 0.7738272776105913
3

H 0.0 0.0 -1.4023721665003763
H 0.0 0.0 0.0
H 0.0 0.0 0.7737401218678437
3

H 0.0 0.0 -1.4033683611984682
H 0.0 0.0 0.0
H 0.0 0.0 0.773652966125096
3

H 0.0 0.0 -1.4043645558965598
H 0.0 0.0 0.0
H 0.0 0.0 0.7735658103823484
3

H 0.0 0.0 -1.4053607505946517
H 0.0 0.0 0.0
H 0.0 0.0 0.7734786546396007
3

H 0.0 0.0 -1.4063569452927431
H 0.0 0.0 0.0
H 0.0 0.0 0.7733914988968531
3

H 0.0 0.0 -1.4073531399908348
H 0.0 0.0 0.0
H 0.0 0.0 0.7733043431541055
3

H 0.0 0.0 -1.4083493346889264
H 0.0 0.0 0.0
H 0.0 0.0 0.7732171874113578
3

H 0.0 0.0 -1.409345529387018
H 0.0 0.0 0.0
H 0.0 0.0 0.7731300316686102
3

H 0.0 0.0 -1.4103417240851095
H 0.0 0.0 0.0
H 0.0 0.0 0.7730428759258625
3

H 0.0 0.0 -1.4113379187832014
H 0.0 0.0 0.0
H 0.0 0.0 0.7729557201831149
3

H 0.0 0.0 -1.412334113481293
H 0.0 0.0 0.0
H 0.0 0.0 0.7728685644403672
3

H 0.0 0.0 -1.4133303081793849
H 0.0 0.0 0.0
H 0.0 0.0 0.7727814086976196
3

H 0.0 0.0 -1.4143265028774763
H 0.0 0.0 0.0
H 0.0 0.0 0.7726942529548719
3

H 0.0 0.0 -1.415322697575568
H 0.0 0.0 0.0
H 0.0 0.0 0.7726070972121243
3

H 0.0 0.0 -1.4163188922736596
H 0.0 0.0 0.0
H 0.0 0.0 0.7725199414693766
3

H 0.0 0.0 -1.4173150869717512
H 0.0 0.0 0.0
H 0.0 0.0 0.772432785726629
3

H 0.0 0.0 -1.4183112816698429
H 0.0 0.0 0.0
H 0.0 0.0 0.7723456299838813
3

H 0.0 0.0 -1.4193074763679343
H 0.0 0.0 0.0
H 0.0 0.0 0.7722584742411337
3

H 0.0 0.0 -1.4203036710660262
H 0.0 0.0 0.0
H 0.0 0.0 0.772171318498386
3

H 0.0 0.0 -1.4212998657641178
H 0.0 0.0 0.0
H 0.0 0.0 0.7720841627556384
3

H 0.0 0.0 -1.4222960604622097
H 0.0 0.0 0.0
H 0.0 0.0 0.7719970070128908
3

H 0.0 0.0 -1.4232922551603011
H 0.0 0.0 0.0
H 0.0 0.0 0.7719098512701431
3

H 0.0 0.0 -1.4242884498583928
H 0.0 0.0 0.0
H 0.0 0.0 0.7718226955273955
3

H 0.0 0.0 -1.4252846445564844
H 0.0 0.0 0.0
H 0.0 0.0 0.7717355397846478
3

H 0.0 0.0 -1.426280839254576
H 0.0 0.0 0.0
H 0.0 0.0 0.7716483840419002
3

H 0.0 0.0 -1.4272770339526677
H 0.0 0.0 0.0
H 0.0 0.0 0.7715612282991525
3

H 0.0 0.0 -1.4282732286507591
H 0.0 0.0 0.0
H 0.0 0.0 0.7714740725564049
3

H 0.0 0.0 -1.429269423348851
H 0.0 0.0 0.0
H 0.0 0.0 0.7713869168136572
3

H 0.0 0.0 -1.4302656180469426
H 0.0 0.0 0.0
H 0.0 0.0 0.7712997610709096
3

H 0.0 0.0 -1.4312618127450345
H 0.0 0.0 0.0
H 0.0 0.0 0.7712126053281619
3

H 0.0 0.0 -1.432258007443126
H 0.0 0.0 0.0
H 0.0 0.0 0.7711254495854143
3

H 0.0 0.0 -1.4332542021412176
H 0.0 0.0 0.0
H 0.0 0.0 0.7710382938426666
3

H 0.0 0.0 -1.4342503968393092
H 0.0 0.0 0.0
H 0.0 0.0 0.770951138099919
3

H 0.0 0.0 -1.435247960889569
H 0.0 0.0 0.0
H 0.0 0.0 0.7708813816261749
3

H 0.0 0.0 -1.4362455249398287
H 0.0 0.0 0.0
H 0.0 0.0 0.7708116251524308
3

H 0.0 0.0 -1.4372430889900885
H 0.0 0.0 0.0
H 0.0 0.0 0.7707418686786868
3

H 0.0 0.0 -1.4382406530403482
H 0.0 0.0 0.0
H 0.0 0.0 0.7706721122049427
3

H 0.0 0.0 -1.439238217090608
H 0.0 0.0 0.0
H 0.0 0.0 0.7706023557311986
3

H 0.0 0.0 -1.4402357811408677
H 0.0 0.0 0.0
H 0.0 0.0 0.7705325992574545
3

H 0.0 0.0 -1.4412333451911274
H 0.0 0.0 0.0
H 0.0 0.0 0.7704628427837105
3

H 0.0 0.0 -1.4422309092413872
H 0.0 0.0 0.0
H 0.0 0.0 0.7703930863099664
3

H 0.0 0.0 -1.443228473291647
H 0.0 0.0 0.0
H 0.0 0.0 0.7703233298362223
3

H 0.0 0.0 -1.444226037341907
H 0.0 0.0 0.0
H 0.0 0.0 0.7702535733624782
3

H 0.0 0.0 -1.4452236013921664
H 0.0 0.0 0.0
H 0.0 0.0 0.7701838168887342
3

H 0.0 0.0 -1.4462211654424262
H 0.0 0.0 0.0
H 0.0 0.0 0.7701140604149901
3

H 0.0 0.0 -1.447218729492686
H 0.0 0.0 0.0
H 0.0 0.0 0.770044303941246
3

H 0.0 0.0 -1.4482162935429457
H 0.0 0.0 0.0
H 0.0 0.0 0.7699745474675019
3

H 0.0 0.0 -1.4492138575932054
H 0.0 0.0 0.0
H 0.0 0.0 0.7699047909937579
3

H 0.0 0.0 -1.4502114216434652
H 0.0 0.0 0.0
H 0.0 0.0 0.7698350345200138
3

H 0.0 0.0 -1.451208985693725
H 0.0 0.0 0.0
H 0.0 0.0 0.7697652780462697
3

H 0.0 0.0 -1.4522065497439849
H 0.0 0.0 0.0
H 0.0 0.0 0.7696955215725256
3

H 0.0 0.0 -1.4532041137942444
H 0.0 0.0 0.0
H 0.0 0.0 0.7696257650987816
3

H 0.0 0.0 -1.4542016778445042
H 0.0 0.0 0.0
H 0.0 0.0 0.7695560086250375
3

H 0.0 0.0 -1.455199241894764
H 0.0 0.0 0.0
H 0.0 0.0 0.7694862521512934
3

H 0.0 0.0 -1.4561968059450237
H 0.0 0.0 0.0
H 0.0 0.0 0.7694164956775493
3

H 0.0 0.0 -1.4571943699952834
H 0.0 0.0 0.0
H 0.0 0.0 0.7693467392038053
3

H 0.0 0.0 -1.4581919340455431
H 0.0 0.0 0.0
H 0.0 0.0 0.7692769827300612
3

H 0.0 0.0 -1.459189498095803
H 0.0 0.0 0.0
H 0.0 0.0 0.7692072262563171
3

H 0.0 0.0 -1.4601870621460626
H 0.0 0.0 0.0
H 0.0 0.0 0.769137469782573
3

H 0.0 0.0 -1.4611846261963224
H 0.0 0.0 0.0
H 0.0 0.0 0.769067713308829
3

H 0.0 0.0 -1.462182190246582
H 0.0 0.0 0.0
H 0.0 0.0 0.7689979568350849
3

H 0.0 0.0 -1.463179754296842
H 0.0 0.0 0.0
H 0.0 0.0 0.7689282003613408
3

H 0.0 0.0 -1.4641773183471016
H 0.0 0.0 0.0
H 0.0 0.0 0.7688584438875967
3

H 0.0 0.0 -1.4651748823973614
H 0.0 0.0 0.0
H 0.0 0.0 0.7687886874138526
3

H 0.0 0.0 -1.4661724464476211
H 0.0 0.0 0.0
H 0.0 0.0 0.7687189309401086
3

H 0.0 0.0 -1.4671700104978809
H 0.0 0.0 0.0
H 0.0 0.0 0.7686491744663645
3

H 0.0 0.0 -1.4681675745481406
H 0.0 0.0 0.0
H 0.0 0.0 0.7685794179926204
3

H 0.0 0.0 -1.4691651385984004
H 0.0 0.0 0.0
H 0.0 0.0 0.7685096615188763
3

H 0.0 0.0 -1.47016270264866
H 0.0 0.0 0.0
H 0.0 0.0 0.7684399050451323
3

H 0.0 0.0 -1.47116026669892
H 0.0 0.0 0.0
H 0.0 0.0 0.7683701485713882
3

H 0.0 0.0 -1.4721578307491796
H 0.0 0.0 0.0
H 0.0 0.0 0.7683003920976441
3

H 0.0 0.0 -1.4731553947994394
H 0.0 0.0 0.0
H 0.0 0.0 0.7682306356239
3

H 0.0 0.0 -1.474152958849699
H 0.0 0.0 0.0
H 0.0 0.0 0.768160879150156
3

H 0.0 0.0 -1.4751505228999588
H 0.0 0.0 0.0
H 0.0 0.0 0.7680911226764119
3

H 0.0 0.0 -1.4761480869502186
H 0.0 0.0 0.0
H 0.0 0.0 0.7680213662026678
3

H 0.0 0.0 -1.4771456510004783
H 0.0 0.0 0.0
H 0.0 0.0 0.7679516097289237
3

H 0.0 0.0 -1.478143215050738
H 0.0 0.0 0.0
H 0.0 0.0 0.7678818532551797
3

H 0.0 0.0 -1.4791407791009978
H 0.0 0.0 0.0
H 0.0 0.0 0.7678120967814356
3

H 0.0 0.0 -1.4801383431512576
H 0.0 0.0 0.0
H 0.0 0.0 0.7677423403076915
3

H 0.0 0.0 -1.481135907201517
H 0.0 0.0 0.0
H 0.0 0.0 0.7676725838339474
3

H 0.0 0.0 -1.482134536736272
H 0.0 0.0 0.0
H 0.0 0.0 0.7676202478777044
3

H 0.0 0.0 -1.4831331662710263
H 0.0 0.0 0.0
H 0.0 0.0 0.7675679119214615
3

H 0.0 0.0 -1.4841317958057811
H 0.0 0.0 0.0
H 0.0 0.0 0.7675155759652185
3

H 0.0 0.0 -1.4851304253405355
H 0.0 0.0 0.0
H 0.0 0.0 0.7674632400089755
3

H 0.0 0.0 -1.4861290548752903
H 0.0 0.0 0.0
H 0.0 0.0 0.7674109040527325
3

H 0.0 0.0 -1.487127684410045
H 0.0 0.0 0.0
H 0.0 0.0 0.7673585680964895
3

H 0.0 0.0 -1.4881263139447996
H 0.0 0.0 0.0
H 0.0 0.0 0.7673062321402465
3

H 0.0 0.0 -1.4891249434795542
H 0.0 0.0 0.0
H 0.0 0.0 0.7672538961840035
3

H 0.0 0.0 -1.4901235730143088
H 0.0 0.0 0.0
H 0.0 0.0 0.7672015602277605
3

H 0.0 0.0 -1.4911222025490634
H 0.0 0.0 0.0
H 0.0 0.0 0.7671492242715175
3

H 0.0 0.0 -1.492120832083818
H 0.0 0.0 0.0
H 0.0 0.0 0.7670968883152746
3

H 0.0 0.0 -1.4931194616185726
H 0.0 0.0 0.0
H 0.0 0.0 0.7670445523590316
3

H 0.0 0.0 -1.4941180911533272
H 0.0 0.0 0.0
H 0.0 0.0 0.7669922164027886
3

H 0.0 0.0 -1.4951167206880818
H 0.0 0.0 0.0
H 0.0 0.0 0.7669398804465456
3

H 0.0 0.0 -1.4961153502228364
H 0.0 0.0 0.0
H 0.0 0.0 0.7668875444903026
3

H 0.0 0.0 -1.497113979757591
H 0.0 0.0 0.0
H 0.0 0.0 0.7668352085340596
3

H 0.0 0.0 -1.4981126092923456
H 0.0 0.0 0.0
H 0.0 0.0 0.7667828725778166
3

H 0.0 0.0 -1.4991112388271002
H 0.0 0.0 0.0
H 0.0 0.0 0.7667305366215736
3

H 0.0 0.0 -1.5001098683618548
H 0.0 0.0 0.0
H 0.0 0.0 0.7666782006653307
3

H 0.0 0.0 -1.5011084978966094
H 0.0 0.0 0.0
H 0.0 0.0 0.7666258647090877
3

H 0.0 0.0 -1.502107127431364
H 0.0 0.0 0.0
H 0.0 0.0 0.7665735287528447
3

H 0.0 0.0 -1.5031057569661186
H 0.0 0.0 0.0
H 0.0 0.0 0.7665211927966017
3

H 0.0 0.0 -1.5041043865008732
H 0.0 0.0 0.0
H 0.0 0.0 0.7664688568403587
3

H 0.0 0.0 -1.5051030160356278
H 0.0 0.0 0.0
H 0.0 0.0 0.7664165208841157
3

H 0.0 0.0 -1.5061016455703824
H 0.0 0.0 0.0
H 0.0 0.0 0.7663641849278727
3

H 0.0 0.0 -1.507100275105137
H 0.0 0.0 0.0
H 0.0 0.0 0.7663118489716297
3

H 0.0 0.0 -1.5080989046398916
H 0.0 0.0 0.0
H 0.0 0.0 0.7662595130153868
3

H 0.0 0.0 -1.5090975341746462
H 0.0 0.0 0.0
H 0.0 0.0 0.7662071770591438
3

H 0.0 0.0 -1.5100961637094008
H 0.0 0.0 0.0
H 0.0 0.0 0.7661548411029008
3

H 0.0 0.0 -1.5110947932441554
H 0.0 0.0 0.0
H 0.0 0.0 0.7661025051466578
3

H 0.0 0.0 -1.51209342277891
H 0.0 0.0 0.0
H 0.0 0.0 0.7660501691904148
3

H 0.0 0.0 -1.5130920523136646
H 0.0 0.0 0.0
H 0.0 0.0 0.7659978332341718
3

H 0.0 0.0 -1.5140906818484192
H 0.0 0.0 0.0
H 0.0 0.0 0.7659454972779288
3

H 0.0 0.0 -1.5150893113831738
H 0.0 0.0 0.0
H 0.0 0.0 0.7658931613216858
3

H 0.0 0.0 -1.5160879409179284
H 0.0 0.0 0.0
H 0.0 0.0 0.7658408253654428
3

H 0.0 0.0 -1.517086570452683
H 0.0 0.0 0.0
H 0.0 0.0 0.7657884894091999
3

H 0.0 0.0 -1.5180851999874376
H 0.0 0.0 0.0
H 0.0 0.0 0.7657361534529569
3

H 0.0 0.0 -1.5190838295221922
H 0.0 0.0 0.0
H 0.0 0.0 0.7656838174967139
3

H 0.0 0.0 -1.5200824590569468
H 0.0 0.0 0.0
H 0.0 0.0 0.7656314815404709
3

H 0.0 0.0 -1.5210810885917014
H 0.0 0.0 0.0
H 0.0 0.0 0.7655791455842279
3

H 0.0 0.0 -1.522079718126456
H 0.0 0.0 0.0
H 0.0 0.0 0.7655268096279849
3

H 0.0 0.0 -1.5230783476612106
H 0.0 0.0 0.0
H 0.0 0.0 0.7654744736717419
3

H 0.0 0.0 -1.5240769771959652
H 0.0 0.0 0.0
H 0.0 0.0 0.7654221377154989
3

H 0.0 0.0 -1.5250756067307198
H 0.0 0.0 0.0
H 0.0 0.0 0.765369801759256
3

H 0.0 0.0 -1.5260742362654744
H 0.0 0.0 0.0
H 0.0 0.0 0.765317465803013
3

H 0.0 0.0 -1.527072865800229
H 0.0 0.0 0.0
H 0.0 0.0 0.76526512984677
3

H 0.0 0.0 -1.5280714953349837
H 0.0 0.0 0.0
H 0.0 0.0 0.765212793890527
3

H 0.0 0.0 -1.5290701248697385
H 0.0 0.0 0.0
H 0.0 0.0 0.765160457934284
3

H 0.0 0.0 -1.5300687544044929
H 0.0 0.0 0.0
H 0.0 0.0 0.765108121978041
3

H 0.0 0.0 -1.5310673839392477
H 0.0 0.0 0.0
H 0.0 0.0 0.765055786021798
3

H 0.0 0.0 -1.532066013474002
H 0.0 0.0 0.0
H 0.0 0.0 0.765003450065555
3

H 0.0 0.0 -1.5330646430087569
H 0.0 0.0 0.0
H 0.0 0.0 0.764951114109312
3

H 0.0 0.0 -1.5340632725435113
H 0.0 0.0 0.0
H 0.0 0.0 0.7648987781530691
3

H 0.0 0.0 -1.535061902078266
H 0.0 0.0 0.0
H 0.0 0.0 0.7648464421968261
3

H 0.0 0.0 -1.5360605316130205
H 0.0 0.0 0.0
H 0.0 0.0 0.7647941062405831
3

H 0.0 0.0 -1.537059161147775
H 0.0 0.0 0.0
H 0.0 0.0 0.7647417702843401
3

H 0.0 0.0 -1.5380577906825297
H 0.0 0.0 0.0
H 0.0 0.0 0.7646894343280971
3

H 0.0 0.0 -1.5390564202172845
H 0.0 0.0 0.0
H 0.0 0.0 0.7646370983718541
3

H 0.0 0.0 -1.5400550497520389
H 0.0 0.0 0.0
H 0.0 0.0 0.7645847624156111
3

H 0.0 0.0 -1.5410536792867937
H 0.0 0.0 0.0
H 0.0 0.0 0.7645324264593681
3

H 0.0 0.0 -1.542052308821548
H 0.0 0.0 0.0
H 0.0 0.0 0.7644800905031252
3

H 0.0 0.0 -1.5430509383563027
H 0.0 0.0 0.0
H 0.0 0.0 0.7644277545468822
3

H 0.0 0.0 -1.5440495678910573
H 0.0 0.0 0.0
H 0.0 0.0 0.7643754185906392
3

H 0.0 0.0 -1.545048197425812
H 0.0 0.0 0.0
H 0.0 0.0 0.7643230826343962
3

H 0.0 0.0 -1.546047588252831
H 0.0 0.0 0.0
H 0.0 0.0 0.7642881831376936
3

H 0.0 0.0 -1.5470469790798502
H 0.0 0.0 0.0
H 0.0 0.0 0.7642532836409911
3

H 0.0 0.0 -1.5480463699068694
H 0.0 0.0 0.0
H 0.0 0.0 0.7642183841442886
3

H 0.0 0.0 -1.549044999441624
H 0.0 0.0 0.0
H 0.0 0.0 0.7641660481880456
3

H 0.0 0.0 -1.5500443902686432
H 0.0 0.0 0.0
H 0.0 0.0 0.764131148691343
3

H 0.0 0.0 -1.5510437810956623
H 0.0 0.0 0.0
H 0.0 0.0 0.7640962491946405
3

H 0.0 0.0 -1.5520431719226817
H 0.0 0.0 0.0
H 0.0 0.0 0.7640613496979379
3

H 0.0 0.0 -1.5530425627497009
H 0.0 0.0 0.0
H 0.0 0.0 0.7640264502012354
3

H 0.0 0.0 -1.5540411922844553
H 0.0 0.0 0.0
H 0.0 0.0 0.7639741142449924
3

H 0.0 0.0 -1.5550405831114744
H 0.0 0.0 0.0
H 0.0 0.0 0.7639392147482899
3

H 0.0 0.0 -1.5560399739384936
H 0.0 0.0 0.0
H 0.0 0.0 0.7639043152515873
3

H 0.0 0.0 -1.5570393647655127
H 0.0 0.0 0.0
H 0.0 0.0 0.7638694157548848
3

H 0.0 0.0 -1.558038755592532
H 0.0 0.0 0.0
H 0.0 0.0 0.7638345162581822
3

H 0.0 0.0 -1.559038146419551
H 0.0 0.0 0.0
H 0.0 0.0 0.7637996167614797
3

H 0.0 0.0 -1.5600367759543057
H 0.0 0.0 0.0
H 0.0 0.0 0.7637472808052367
3

H 0.0 0.0 -1.5610361667813248
H 0.0 0.0 0.0
H 0.0 0.0 0.7637123813085341
3

H 0.0 0.0 -1.562035557608344
H 0.0 0.0 0.0
H 0.0 0.0 0.7636774818118316
3

H 0.0 0.0 -1.5630349484353632
H 0.0 0.0 0.0
H 0.0 0.0 0.763642582315129
3

H 0.0 0.0 -1.5640343392623823
H 0.0 0.0 0.0
H 0.0 0.0 0.7636076828184265
3

H 0.0 0.0 -1.5650337300894015
H 0.0 0.0 0.0
H 0.0 0.0 0.763572783321724
3

H 0.0 0.0 -1.5660331209164209
H 0.0 0.0 0.0
H 0.0 0.0 0.7635378838250214
3

H 0.0 0.0 -1.5670325117434398
H 0.0 0.0 0.0
H 0.0 0.0 0.7635029843283189
3

H 0.0 0.0 -1.568031902570459
H 0.0 0.0 0.0
H 0.0 0.0 0.7634680848316163
3

H 0.0 0.0 -1.5690312933974782
H 0.0 0.0 0.0
H 0.0 0.0 0.7634331853349138
3

H 0.0 0.0 -1.570030684224497
H 0.0 0.0 0.0
H 0.0 0.0 0.7633982858382112
3

H 0.0 0.0 -1.5710300750515165
H 0.0 0.0 0.0
H 0.0 0.0 0.7633633863415087
3

H 0.0 0.0 -1.5720294658785356
H 0.0 0.0 0.0
H 0.0 0.0 0.7633284868448061
3

H 0.0 0.0 -1.5730288567055548
H 0.0 0.0 0.0
H 0.0 0.0 0.7632935873481036
3

H 0.0 0.0 -1.574028247532574
H 0.0 0.0 0.0
H 0.0 0.0 0.763258687851401
3

H 0.0 0.0 -1.5750276383595931
H 0.0 0.0 0.0
H 0.0 0.0 0.7632237883546985
3

H 0.0 0.0 -1.5760270291866123
H 0.0 0.0 0.0
H 0.0 0.0 0.763188888857996
3

H 0.0 0.0 -1.5770264200136317
H 0.0 0.0 0.0
H 0.0 0.0 0.7631539893612934
3

H 0.0 0.0 -1.5780258108406506
H 0.0 0.0 0.0
H 0.0 0.0 0.7631190898645909
3

H 0.0 0.0 -1.5790252016676698
H 0.0 0.0 0.0
H 0.0 0.0 0.7630841903678883
3

H 0.0 0.0 -1.580024592494689
H 0.0 0.0 0.0
H 0.0 0.0 0.7630492908711858
3

H 0.0 0.0 -1.581023983321708
H 0.0 0.0 0.0
H 0.0 0.0 0.7630143913744832
3

H 0.0 0.0 -1.5820233741487273
H 0.0 0.0 0.0
H 0.0 0.0 0.7629794918777807
3

H 0.0 0.0 -1.5830227649757465
H 0.0 0.0 0.0
H 0.0 0.0 0.7629445923810781
3

H 0.0 0.0 -1.5840221558027656
H 0.0 0.0 0.0
H 0.0 0.0 0.7629096928843756
3

H 0.0 0.0 -1.5850215466297848
H 0.0 0.0 0.0
H 0.0 0.0 0.7628747933876731
3

H 0.0 0.0 -1.586020937456804
H 0.0 0.0 0.0
H 0.0 0.0 0.7628398938909705
3

H 0.0 0.0 -1.5870203282838231
H 0.0 0.0 0.0
H 0.0 0.0 0.762804994394268
3

H 0.0 0.0 -1.5880197191108425
H 0.0 0.0 0.0
H 0.0 0.0 0.7627700948975654
3

H 0.0 0.0 -1.5890191099378614
H 0.0 0.0 0.0
H 0.0 0.0 0.7627351954008629
3

H 0.0 0.0 -1.5900185007648806
H 0.0 0.0 0.0
H 0.0 0.0 0.7627002959041603
3

H 0.0 0.0 -1.5910178915918998
H 0.0 0.0 0.0
H 0.0 0.0 0.7626653964074578
3

H 0.0 0.0 -1.592017282418919
H 0.0 0.0 0.0
H 0.0 0.0 0.7626304969107552
3

H 0.0 0.0 -1.593016673245938
H 0.0 0.0 0.0
H 0.0 0.0 0.7625955974140527
3

H 0.0 0.0 -1.5940160640729573
H 0.0 0.0 0.0
H 0.0 0.0 0.7625606979173501
3

H 0.0 0.0 -1.5950154548999764
H 0.0 0.0 0.0
H 0.0 0.0 0.7625257984206476
3

H 0.0 0.0 -1.5960148457269956
H 0.0 0.0 0.0
H 0.0 0.0 0.7624908989239451
3

H 0.0 0.0 -1.5970142365540148
H 0.0 0.0 0.0
H 0.0 0.0 0.7624559994272425
3

H 0.0 0.0 -1.598013627381034
H 0.0 0.0 0.0
H 0.0 0.0 0.76242109993054
3

H 0.0 0.0 -1.599013018208053
H 0.0 0.0 0.0
H 0.0 0.0 0.7623862004338374
3

H 0.0 0.0 -1.6000124090350722
H 0.0 0.0 0.0
H 0.0 0.0 0.7623513009371349
3

H 0.0 0.0 -1.6010117998620914
H 0.0 0.0 0.0
H 0.0 0.0 0.7623164014404323
3

H 0.0 0.0 -1.6020111906891106
H 0.0 0.0 0.0
H 0.0 0.0 0.7622815019437298
3

H 0.0 0.0 -1.6030105815161295
H 0.0 0.0 0.0
H 0.0 0.0 0.7622466024470272
3

H 0.0 0.0 -1.604009972343149
H 0.0 0.0 0.0
H 0.0 0.0 0.7622117029503247
3

H 0.0 0.0 -1.605009363170168
H 0.0 0.0 0.0
H 0.0 0.0 0.7621768034536222
3

H 0.0 0.0 -1.6060087539971872
H 0.0 0.0 0.0
H 0.0 0.0 0.7621419039569196
3

H 0.0 0.0 -1.6070081448242064
H 0.0 0.0 0.0
H 0.0 0.0 0.7621070044602171
3

H 0.0 0.0 -1.6080075356512256
H 0.0 0.0 0.0
H 0.0 0.0 0.7620721049635145
3

H 0.0 0.0 -1.6090069264782447
H 0.0 0.0 0.0
H 0.0 0.0 0.762037205466812
3

H 0.0 0.0 -1.610006317305264
H 0.0 0.0 0.0
H 0.0 0.0 0.7620023059701094
3

H 0.0 0.0 -1.611005708132283
H 0.0 0.0 0.0
H 0.0 0.0 0.7619674064734069
3

H 0.0 0.0 -1.6120050989593022
H 0.0 0.0 0.0
H 0.0 0.0 0.7619325069767043
3

H 0.0 0.0 -1.6130044897863214
H 0.0 0.0 0.0
H 0.0 0.0 0.7618976074800018
3

H 0.0 0.0 -1.6140038806133403
H 0.0 0.0 0.0
H 0.0 0.0 0.7618627079832992
3

H 0.0 0.0 -1.6150032714403595
H 0.0 0.0 0.0
H 0.0 0.0 0.7618278084865967
3

H 0.0 0.0 -1.6160026622673789
H 0.0 0.0 0.0
H 0.0 0.0 0.7617929089898942
3

H 0.0 0.0 -1.617002053094398
H 0.0 0.0 0.0
H 0.0 0.0 0.7617580094931916
3

H 0.0 0.0 -1.6180014439214172
H 0.0 0.0 0.0
H 0.0 0.0 0.7617231099964891
3

H 0.0 0.0 -1.6190008347484364
H 0.0 0.0 0.0
H 0.0 0.0 0.7616882104997865
3

H 0.0 0.0 -1.6200002255754555
H 0.0 0.0 0.0
H 0.0 0.0 0.761653311003084
3

H 0.0 0.0 -1.6209996164024747
H 0.0 0.0 0.0
H 0.0 0.0 0.7616184115063814
3

H 0.0 0.0 -1.621999007229494
H 0.0 0.0 0.0
H 0.0 0.0 0.7615835120096789
3

H 0.0 0.0 -1.622998398056513
H 0.0 0.0 0.0
H 0.0 0.0 0.7615486125129763
3

H 0.0 0.0 -1.6239977888835322
H 0.0 0.0 0.0
H 0.0 0.0 0.7615137130162738
3

H 0.0 0.0 -1.6249971797105514
H 0.0 0.0 0.0
H 0.0 0.0 0.7614788135195713
3

H 0.0 0.0 -1.6259965705375703
H 0.0 0.0 0.0
H 0.0 0.0 0.7614439140228687
3

H 0.0 0.0 -1.6269959613645897
H 0.0 0.0 0.0
H 0.0 0.0 0.7614090145261662
3

H 0.0 0.0 -1.6279953521916088
H 0.0 0.0 0.0
H 0.0 0.0 0.7613741150294636
3

H 0.0 0.0 -1.628994743018628
H 0.0 0.0 0.0
H 0.0 0.0 0.7613392155327611
3

H 0.0 0.0 -1.6299941338456472
H 0.0 0.0 0.0
H 0.0 0.0 0.7613043160360585
3

H 0.0 0.0 -1.6309935246726663
H 0.0 0.0 0.0
H 0.0 0.0 0.761269416539356
3

H 0.0 0.0 -1.6319929154996855
H 0.0 0.0 0.0
H 0.0 0.0 0.7612345170426534
3

H 0.0 0.0 -1.632992306326705
H 0.0 0.0 0.0
H 0.0 0.0 0.7611996175459509
3

H 0.0 0.0 -1.6339916971537238
H 0.0 0.0 0.0
H 0.0 0.0 0.7611647180492483
3

H 0.0 0.0 -1.634991087980743
H 0.0 0.0 0.0
H 0.0 0.0 0.7611298185525458
3

H 0.0 0.0 -1.6359904788077622
H 0.0 0.0 0.0
H 0.0 0.0 0.7610949190558433
3

H 0.0 0.0 -1.636989869634781
H 0.0 0.0 0.0
H 0.0 0.0 0.7610600195591407
3

H 0.0 0.0 -1.6379892604618005
H 0.0 0.0 0.0
H 0.0 0.0 0.7610251200624382
3

H 0.0 0.0 -1.6389886512888197
H 0.0 0.0 0.0
H 0.0 0.0 0.7609902205657356
3

H 0.0 0.0 -1.639988498983976
H 0.0 0.0 0.0
H 0.0 0.0 0.7609727681592984
3

H 0.0 0.0 -1.6409878898109953
H 0.0 0.0 0.0
H 0.0 0.0 0.7609378686625958
3

H 0.0 0.0 -1.6419877375061518
H 0.0 0.0 0.0
H 0.0 0.0 0.7609204162561586
3

H 0.0 0.0 -1.6429875852013085
H 0.0 0.0 0.0
H 0.0 0.0 0.7609029638497213
3

H 0.0 0.0 -1.6439869760283274
H 0.0 0.0 0.0
H 0.0 0.0 0.7608680643530188
3

H 0.0 0.0 -1.644986823723484
H 0.0 0.0 0.0
H 0.0 0.0 0.7608506119465815
3

H 0.0 0.0 -1.645986214550503
H 0.0 0.0 0.0
H 0.0 0.0 0.760815712449879
3

H 0.0 0.0 -1.6469860622456596
H 0.0 0.0 0.0
H 0.0 0.0 0.7607982600434418
3

H 0.0 0.0 -1.647985909940816
H 0.0 0.0 0.0
H 0.0 0.0 0.7607808076370045
3

H 0.0 0.0 -1.6489853007678352
H 0.0 0.0 0.0
H 0.0 0.0 0.760745908140302
3

H 0.0 0.0 -1.6499851484629915
H 0.0 0.0 0.0
H 0.0 0.0 0.7607284557338647
3

H 0.0 0.0 -1.6509845392900109
H 0.0 0.0 0.0
H 0.0 0.0 0.7606935562371622
3

H 0.0 0.0 -1.6519843869851674
H 0.0 0.0 0.0
H 0.0 0.0 0.7606761038307249
3

H 0.0 0.0 -1.6529842346803238
H 0.0 0.0 0.0
H 0.0 0.0 0.7606586514242877
3

H 0.0 0.0 -1.653983625507343
H 0.0 0.0 0.0
H 0.0 0.0 0.7606237519275851
3

H 0.0 0.0 -1.6549834732024995
H 0.0 0.0 0.0
H 0.0 0.0 0.7606062995211479
3

H 0.0 0.0 -1.655983320897656
H 0.0 0.0 0.0
H 0.0 0.0 0.7605888471147106
3

H 0.0 0.0 -1.6569827117246752
H 0.0 0.0 0.0
H 0.0 0.0 0.7605539476180081
3

H 0.0 0.0 -1.6579825594198316
H 0.0 0.0 0.0
H 0.0 0.0 0.7605364952115709
3

H 0.0 0.0 -1.658982407114988
H 0.0 0.0 0.0
H 0.0 0.0 0.7605190428051336
3

H 0.0 0.0 -1.6599817979420073
H 0.0 0.0 0.0
H 0.0 0.0 0.7604841433084311
3

H 0.0 0.0 -1.6609816456371638
H 0.0 0.0 0.0
H 0.0 0.0 0.7604666909019938
3

H 0.0 0.0 -1.6619814933323205
H 0.0 0.0 0.0
H 0.0 0.0 0.7604492384955566
3

H 0.0 0.0 -1.6629808841593394
H 0.0 0.0 0.0
H 0.0 0.0 0.760414338998854
3

H 0.0 0.0 -1.663980731854496
H 0.0 0.0 0.0
H 0.0 0.0 0.7603968865924168
3

H 0.0 0.0 -1.6649805795496524
H 0.0 0.0 0.0
H 0.0 0.0 0.7603794341859795
3

H 0.0 0.0 -1.6659799703766716
H 0.0 0.0 0.0
H 0.0 0.0 0.760344534689277
3

H 0.0 0.0 -1.666979818071828
H 0.0 0.0 0.0
H 0.0 0.0 0.7603270822828397
3

H 0.0 0.0 -1.6679796657669843
H 0.0 0.0 0.0
H 0.0 0.0 0.7603096298764025
3

H 0.0 0.0 -1.6689790565940037
H 0.0 0.0 0.0
H 0.0 0.0 0.7602747303797
3

H 0.0 0.0 -1.6699789042891602
H 0.0 0.0 0.0
H 0.0 0.0 0.7602572779732627
3

H 0.0 0.0 -1.670978751984317
H 0.0 0.0 0.0
H 0.0 0.0 0.7602398255668255
3

H 0.0 0.0 -1.6719785996794732
H 0.0 0.0 0.0
H 0.0 0.0 0.7602223731603882
3

H 0.0 0.0 -1.6729779905064923
H 0.0 0.0 0.0
H 0.0 0.0 0.7601874736636857
3

H 0.0 0.0 -1.6739778382016488
H 0.0 0.0 0.0
H 0.0 0.0 0.7601700212572484
3

H 0.0 0.0 -1.6749776858968053
H 0.0 0.0 0.0
H 0.0 0.0 0.7601525688508112
3

H 0.0 0.0 -1.6759775335919618
H 0.0 0.0 0.0
H 0.0 0.0 0.7601351164443739
3

H 0.0 0.0 -1.676976924418981
H 0.0 0.0 0.0
H 0.0 0.0 0.7601002169476714
3

H 0.0 0.0 -1.6779767721141374
H 0.0 0.0 0.0
H 0.0 0.0 0.7600827645412341
3

H 0.0 0.0 -1.678976619809294
H 0.0 0.0 0.0
H 0.0 0.0 0.7600653121347969
3

H 0.0 0.0 -1.6799764675044504
H 0.0 0.0 0.0
H 0.0 0.0 0.7600478597283596
3

H 0.0 0.0 -1.6809763151996069
H 0.0 0.0 0.0
H 0.0 0.0 0.7600304073219224
3

H 0.0 0.0 -1.681975706026626
H 0.0 0.0 0.0
H 0.0 0.0 0.7599955078252199
3

H 0.0 0.0 -1.6829755537217823
H 0.0 0.0 0.0
H 0.0 0.0 0.7599780554187826
3

H 0.0 0.0 -1.683975401416939
H 0.0 0.0 0.0
H 0.0 0.0 0.7599606030123454
3

H 0.0 0.0 -1.6849752491120955
H 0.0 0.0 0.0
H 0.0 0.0 0.7599431506059081
3

H 0.0 0.0 -1.685975096807252
H 0.0 0.0 0.0
H 0.0 0.0 0.7599256981994709
3

H 0.0 0.0 -1.6869744876342712
H 0.0 0.0 0.0
H 0.0 0.0 0.7598907987027683
3

H 0.0 0.0 -1.6879743353294276
H 0.0 0.0 0.0
H 0.0 0.0 0.7598733462963311
3

H 0.0 0.0 -1.688974183024584
H 0.0 0.0 0.0
H 0.0 0.0 0.7598558938898938
3

H 0.0 0.0 -1.6899740307197406
H 0.0 0.0 0.0
H 0.0 0.0 0.7598384414834566
3

H 0.0 0.0 -1.690973878414897
H 0.0 0.0 0.0
H 0.0 0.0 0.7598209890770193
3

H 0.0 0.0 -1.6919737261100536
H 0.0 0.0 0.0
H 0.0 0.0 0.7598035366705821
3

H 0.0 0.0 -1.6929731169370728
H 0.0 0.0 0.0
H 0.0 0.0 0.7597686371738795
3

H 0.0 0.0 -1.6939729646322292
H 0.0 0.0 0.0
H 0.0 0.0 0.7597511847674423
3

H 0.0 0.0 -1.6949728123273855
H 0.0 0.0 0.0
H 0.0 0.0 0.759733732361005
3

H 0.0 0.0 -1.6959726600225422
H 0.0 0.0 0.0
H 0.0 0.0 0.7597162799545678
3

H 0.0 0.0 -1.6969725077176987
H 0.0 0.0 0.0
H 0.0 0.0 0.7596988275481306
3

H 0.0 0.0 -1.6979723554128552
H 0.0 0.0 0.0
H 0.0 0.0 0.7596813751416933
3

H 0.0 0.0 -1.6989722031080117
H 0.0 0.0 0.0
H 0.0 0.0 0.7596639227352561
3

H 0.0 0.0 -1.6999715939350308
H 0.0 0.0 0.0
H 0.0 0.0 0.7596290232385535
3

H 0.0 0.0 -1.700971441630187
H 0.0 0.0 0.0
H 0.0 0.0 0.7596115708321163
3

H 0.0 0.0 -1.7019712893253438
H 0.0 0.0 0.0
H 0.0 0.0 0.759594118425679
3

H 0.0 0.0 -1.7029711370205003
H 0.0 0.0 0.0
H 0.0 0.0 0.7595766660192418
3

H 0.0 0.0 -1.7039709847156568
H 0.0 0.0 0.0
H 0.0 0.0 0.7595592136128045
3

H 0.0 0.0 -1.7049708324108133
H 0.0 0.0 0.0
H 0.0 0.0 0.7595417612063673
3

H 0.0 0.0 -1.7059706801059698
H 0.0 0.0 0.0
H 0.0 0.0 0.75952430879993
3

H 0.0 0.0 -1.7069705278011262
H 0.0 0.0 0.0
H 0.0 0.0 0.7595068563934928
3

H 0.0 0.0 -1.7079703754962827
H 0.0 0.0 0.0
H 0.0 0.0 0.7594894039870556
3

H 0.0 0.0 -1.7089702231914392
H 0.0 0.0 0.0
H 0.0 0.0 0.7594719515806183
3

H 0.0 0.0 -1.7099700708865957
H 0.0 0.0 0.0
H 0.0 0.0 0.7594544991741811
3

H 0.0 0.0 -1.7109694617136149
H 0.0 0.0 0.0
H 0.0 0.0 0.7594195996774785
3

H 0.0 0.0 -1.7119693094087711
H 0.0 0.0 0.0
H 0.0 0.0 0.7594021472710413
3

H 0.0 0.0 -1.7129691571039278
H 0.0 0.0 0.0
H 0.0 0.0 0.759384694864604
3

H 0.0 0.0 -1.7139690047990843
H 0.0 0.0 0.0
H 0.0 0.0 0.7593672424581668
3

H 0.0 0.0 -1.7149688524942408
H 0.0 0.0 0.0
H 0.0 0.0 0.7593497900517295
3

H 0.0 0.0 -1.7159687001893973
H 0.0 0.0 0.0
H 0.0 0.0 0.7593323376452923
3

H 0.0 0.0 -1.7169685478845538
H 0.0 0.0 0.0
H 0.0 0.0 0.759314885238855
3

H 0.0 0.0 -1.7179683955797105
H 0.0 0.0 0.0
H 0.0 0.0 0.7592974328324178
3

H 0.0 0.0 -1.7189682432748667
H 0.0 0.0 0.0
H 0.0 0.0 0.7592799804259805
3

H 0.0 0.0 -1.7199680909700232
H 0.0 0.0 0.0
H 0.0 0.0 0.7592625280195433
3

H 0.0 0.0 -1.7209679386651795
H 0.0 0.0 0.0
H 0.0 0.0 0.7592450756131061
3

H 0.0 0.0 -1.7219677863603362
H 0.0 0.0 0.0
H 0.0 0.0 0.7592276232066688
3

H 0.0 0.0 -1.7229676340554927
H 0.0 0.0 0.0
H 0.0 0.0 0.7592101708002316
3

H 0.0 0.0 -1.7239674817506492
H 0.0 0.0 0.0
H 0.0 0.0 0.7591927183937943
3

H 0.0 0.0 -1.7249673294458057
H 0.0 0.0 0.0
H 0.0 0.0 0.7591752659873571
3

H 0.0 0.0 -1.725967177140962
H 0.0 0.0 0.0
H 0.0 0.0 0.7591578135809198
3

H 0.0 0.0 -1.7269670248361186
H 0.0 0.0 0.0
H 0.0 0.0 0.7591403611744826
3

H 0.0 0.0 -1.7279668725312751
H 0.0 0.0 0.0
H 0.0 0.0 0.7591229087680453
3

H 0.0 0.0 -1.7289667202264316
H 0.0 0.0 0.0
H 0.0 0.0 0.7591054563616081
3

H 0.0 0.0 -1.729966567921588
H 0.0 0.0 0.0
H 0.0 0.0 0.7590880039551708
3

H 0.0 0.0 -1.7309664156167446
H 0.0 0.0 0.0
H 0.0 0.0 0.7590705515487336
3

H 0.0 0.0 -1.731966263311901
H 0.0 0.0 0.0
H 0.0 0.0 0.7590530991422964
3

H 0.0 0.0 -1.7329661110070576
H 0.0 0.0 0.0
H 0.0 0.0 0.7590356467358591
3

H 0.0 0.0 -1.7349658063973703
H 0.0 0.0 0.0
H 0.0 0.0 0.7590007419229846
3

H 0.0 0.0 -1.735965654092527
H 0.0 0.0 0.0
H 0.0 0.0 0.7589832895165474
3

H 0.0 0.0 -1.7369655017876835
H 0.0 0.0 0.0
H 0.0 0.0 0.7589658371101101
3

H 0.0 0.0 -1.73796534948284
H 0.0 0.0 0.0
H 0.0 0.0 0.7589483847036729
3

H 0.0 0.0 -1.7389651971779965
H 0.0 0.0 0.0
H 0.0 0.0 0.7589309322972356
3

H 0.0 0.0 -1.739965044873153
H 0.0 0.0 0.0
H 0.0 0.0 0.7589134798907984
3

H 0.0 0.0 -1.7409648925683094
H 0.0 0.0 0.0
H 0.0 0.0 0.7588960274843611
3

H 0.0 0.0 -1.741964740263466
H 0.0 0.0 0.0
H 0.0 0.0 0.7588785750779239
3

H 0.0 0.0 -1.7429645879586224
H 0.0 0.0 0.0
H 0.0 0.0 0.7588611226714866
3

H 0.0 0.0 -1.743964435653779
H 0.0 0.0 0.0
H 0.0 0.0 0.7588436702650494
3

H 0.0 0.0 -1.7449642833489354
H 0.0 0.0 0.0
H 0.0 0.0 0.7588262178586122
3

H 0.0 0.0 -1.745964131044092
H 0.0 0.0 0.0
H 0.0 0.0 0.7588087654521749
3

H 0.0 0.0 -1.7469639787392484
H 0.0 0.0 0.0
H 0.0 0.0 0.7587913130457377
3

H 0.0 0.0 -1.7479638264344048
H 0.0 0.0 0.0
H 0.0 0.0 0.7587738606393004
3

H 0.0 0.0 -1.748963674129561
H 0.0 0.0 0.0
H 0.0 0.0 0.7587564082328632
3

H 0.0 0.0 -1.7499635218247178
H 0.0 0.0 0.0
H 0.0 0.0 0.7587389558264259
3

H 0.0 0.0 -1.7509633695198743
H 0.0 0.0 0.0
H 0.0 0.0 0.7587215034199887
3

H 0.0 0.0 -1.7519632172150308
H 0.0 0.0 0.0
H 0.0 0.0 0.7587040510135514
3

H 0.0 0.0 -1.7529630649101873
H 0.0 0.0 0.0
H 0.0 0.0 0.7586865986071142
3

H 0.0 0.0 -1.7539629126053438
H 0.0 0.0 0.0
H 0.0 0.0 0.7586691462006769
3

H 0.0 0.0 -1.7549627603005002
H 0.0 0.0 0.0
H 0.0 0.0 0.7586516937942397
3

H 0.0 0.0 -1.7559626079956567
H 0.0 0.0 0.0
H 0.0 0.0 0.7586342413878024
3

H 0.0 0.0 -1.7569624556908132
H 0.0 0.0 0.0
H 0.0 0.0 0.7586167889813652
3

H 0.0 0.0 -1.7579623033859697
H 0.0 0.0 0.0
H 0.0 0.0 0.758599336574928
3

H 0.0 0.0 -1.7589621510811262
H 0.0 0.0 0.0
H 0.0 0.0 0.7585818841684907
3

H 0.0 0.0 -1.759961998776283
H 0.0 0.0 0.0
H 0.0 0.0 0.7585644317620535
3

H 0.0 0.0 -1.7609618464714392
H 0.0 0.0 0.0
H 0.0 0.0 0.7585469793556162
3

H 0.0 0.0 -1.7619616941665956
H 0.0 0.0 0.0
H 0.0 0.0 0.758529526949179
3

H 0.0 0.0 -1.762961541861752
H 0.0 0.0 0.0
H 0.0 0.0 0.7585120745427417
3

H 0.0 0.0 -1.7639613895569086
H 0.0 0.0 0.0
H 0.0 0.0 0.7584946221363045
3

H 0.0 0.0 -1.764961237252065
H 0.0 0.0 0.0
H 0.0 0.0 0.7584771697298672
3

H 0.0 0.0 -1.7659610849472216
H 0.0 0.0 0.0
H 0.0 0.0 0.75845971732343
3

H 0.0 0.0 -1.766960932642378
H 0.0 0.0 0.0
H 0.0 0.0 0.7584422649169927
3

H 0.0 0.0 -1.7679607803375346
H 0.0 0.0 0.0
H 0.0 0.0 0.7584248125105555
3

H 0.0 0.0 -1.768960628032691
H 0.0 0.0 0.0
H 0.0 0.0 0.7584073601041182
3

H 0.0 0.0 -1.7699604757278475
H 0.0 0.0 0.0
H 0.0 0.0 0.758389907697681
3

H 0.0 0.0 -1.770960323423004
H 0.0 0.0 0.0
H 0.0 0.0 0.7583724552912438
3

H 0.0 0.0 -1.7719601711181605
H 0.0 0.0 0.0
H 0.0 0.0 0.7583550028848065
3

H 0.0 0.0 -1.772960018813317
H 0.0 0.0 0.0
H 0.0 0.0 0.7583375504783693
3

H 0.0 0.0 -1.7739598665084737
H 0.0 0.0 0.0
H 0.0 0.0 0.758320098071932
3

H 0.0 0.0 -1.77495971420363
H 0.0 0.0 0.0
H 0.0 0.0 0.7583026456654948
3

H 0.0 0.0 -1.7759595618987865
H 0.0 0.0 0.0
H 0.0 0.0 0.7582851932590575
3

H 0.0 0.0 -1.776959409593943
H 0.0 0.0 0.0
H 0.0 0.0 0.7582677408526203
3

H 0.0 0.0 -1.7779592572890994
H 0.0 0.0 0.0
H 0.0 0.0 0.758250288446183
3

H 0.0 0.0 -1.778959104984256
H 0.0 0.0 0.0
H 0.0 0.0 0.7582328360397458
3

H 0.0 0.0 -1.7799589526794124
H 0.0 0.0 0.0
H 0.0 0.0 0.7582153836333085
3

H 0.0 0.0 -1.7809588003745689
H 0.0 0.0 0.0
H 0.0 0.0 0.7581979312268713
3

H 0.0 0.0 -1.7819586480697254
H 0.0 0.0 0.0
H 0.0 0.0 0.758180478820434
3

H 0.0 0.0 -1.782958495764882
H 0.0 0.0 0.0
H 0.0 0.0 0.7581630264139968
3

H 0.0 0.0 -1.7839583434600383
H 0.0 0.0 0.0
H 0.0 0.0 0.7581455740075596
3

H 0.0 0.0 -1.7849581911551948
H 0.0 0.0 0.0
H 0.0 0.0 0.7581281216011223
3

H 0.0 0.0 -1.785958038850351
H 0.0 0.0 0.0
H 0.0 0.0 0.7581106691946851
3

H 0.0 0.0 -1.7869578865455078
H 0.0 0.0 0.0
H 0.0 0.0 0.7580932167882478
3

H 0.0 0.0 -1.7879577342406645
H 0.0 0.0 0.0
H 0.0 0.0 0.7580757643818106
3

H 0.0 0.0 -1.7889575819358208
H 0.0 0.0 0.0
H 0.0 0.0 0.7580583119753733
3

H 0.0 0.0 -1.7899574296309773
H 0.0 0.0 0.0
H 0.0 0.0 0.7580408595689361
3

H 0.0 0.0 -1.7909572773261335
H 0.0 0.0 0.0
H 0.0 0.0 0.7580234071624988
3

H 0.0 0.0 -1.7919571250212902
H 0.0 0.0 0.0
H 0.0 0.0 0.7580059547560616
3

H 0.0 0.0 -1.7929569727164467
H 0.0 0.0 0.0
H 0.0 0.0 0.7579885023496243
3

H 0.0 0.0 -1.7939568204116032
H 0.0 0.0 0.0
H 0.0 0.0 0.7579710499431871
3

H 0.0 0.0 -1.7949566681067597
H 0.0 0.0 0.0
H 0.0 0.0 0.7579535975367498
3

H 0.0 0.0 -1.7959565158019162
H 0.0 0.0 0.0
H 0.0 0.0 0.7579361451303126
3

H 0.0 0.0 -1.7969563634970729
H 0.0 0.0 0.0
H 0.0 0.0 0.7579186927238754
3

H 0.0 0.0 -1.7979562111922291
H 0.0 0.0 0.0
H 0.0 0.0 0.7579012403174381
3

H 0.0 0.0 -1.7989560588873856
H 0.0 0.0 0.0
H 0.0 0.0 0.7578837879110009
3

H 0.0 0.0 -1.799955906582542
H 0.0 0.0 0.0
H 0.0 0.0 0.7578663355045636
3

H 0.0 0.0 -1.8009557542776986
H 0.0 0.0 0.0
H 0.0 0.0 0.7578488830981264
3

H 0.0 0.0 -1.801955601972855
H 0.0 0.0 0.0
H 0.0 0.0 0.7578314306916891
3

H 0.0 0.0 -1.802955449668012
H 0.0 0.0 0.0
H 0.0 0.0 0.7578139782852519
3

H 0.0 0.0 -1.803955297363168
H 0.0 0.0 0.0
H 0.0 0.0 0.7577965258788146
3

H 0.0 0.0 -1.804955297363168
H 0.0 0.0 0.0
H 0.0 0.0 0.7577965258788146
3

H 0.0 0.0 -1.8059551450583244
H 0.0 0.0 0.0
H 0.0 0.0 0.7577790734723774
3

H 0.0 0.0 -1.806954992753481
H 0.0 0.0 0.0
H 0.0 0.0 0.7577616210659401
3

H 0.0 0.0 -1.8079549927534808
H 0.0 0.0 0.0
H 0.0 0.0 0.7577616210659401
3

H 0.0 0.0 -1.8089548404486373
H 0.0 0.0 0.0
H 0.0 0.0 0.7577441686595029
3

H 0.0 0.0 -1.8099546881437936
H 0.0 0.0 0.0
H 0.0 0.0 0.7577267162530656
3

H 0.0 0.0 -1.8109546881437937
H 0.0 0.0 0.0
H 0.0 0.0 0.7577267162530656
3

H 0.0 0.0 -1.8119545358389504
H 0.0 0.0 0.0
H 0.0 0.0 0.7577092638466284
3

H 0.0 0.0 -1.8129543835341069
H 0.0 0.0 0.0
H 0.0 0.0 0.7576918114401912
3

H 0.0 0.0 -1.8139543835341063
H 0.0 0.0 0.0
H 0.0 0.0 0.7576918114401912
3

H 0.0 0.0 -1.814954231229263
H 0.0 0.0 0.0
H 0.0 0.0 0.7576743590337539
3

H 0.0 0.0 -1.8159540789244195
H 0.0 0.0 0.0
H 0.0 0.0 0.7576569066273167
3

H 0.0 0.0 -1.8169540789244196
H 0.0 0.0 0.0
H 0.0 0.0 0.7576569066273167
3

H 0.0 0.0 -1.817953926619576
H 0.0 0.0 0.0
H 0.0 0.0 0.7576394542208794
3

H 0.0 0.0 -1.8189537743147324
H 0.0 0.0 0.0
H 0.0 0.0 0.7576220018144422
3

H 0.0 0.0 -1.8199537743147325
H 0.0 0.0 0.0
H 0.0 0.0 0.7576220018144422
3

H 0.0 0.0 -1.8209536220098888
H 0.0 0.0 0.0
H 0.0 0.0 0.7576045494080049
3

H 0.0 0.0 -1.8219536220098889
H 0.0 0.0 0.0
H 0.0 0.0 0.7576045494080049
3

H 0.0 0.0 -1.822953469705045
H 0.0 0.0 0.0
H 0.0 0.0 0.7575870970015677
3

H 0.0 0.0 -1.8239533174002016
H 0.0 0.0 0.0
H 0.0 0.0 0.7575696445951304
3

H 0.0 0.0 -1.8249533174002013
H 0.0 0.0 0.0
H 0.0 0.0 0.7575696445951304
3

H 0.0 0.0 -1.825953165095358
H 0.0 0.0 0.0
H 0.0 0.0 0.7575521921886932
3

H 0.0 0.0 -1.8269530127905145
H 0.0 0.0 0.0
H 0.0 0.0 0.7575347397822559
3

H 0.0 0.0 -1.8279530127905144
H 0.0 0.0 0.0
H 0.0 0.0 0.7575347397822559
3

H 0.0 0.0 -1.8289528604856709
H 0.0 0.0 0.0
H 0.0 0.0 0.7575172873758187
3

H 0.0 0.0 -1.8299528604856707
H 0.0 0.0 0.0
H 0.0 0.0 0.7575172873758187
3

H 0.0 0.0 -1.8309527081808272
H 0.0 0.0 0.0
H 0.0 0.0 0.7574998349693814
3

H 0.0 0.0 -1.831952555875984
H 0.0 0.0 0.0
H 0.0 0.0 0.7574823825629442
3

H 0.0 0.0 -1.832952555875984
H 0.0 0.0 0.0
H 0.0 0.0 0.7574823825629442
3

H 0.0 0.0 -1.83395240357114
H 0.0 0.0 0.0
H 0.0 0.0 0.757464930156507
3

H 0.0 0.0 -1.8349522512662968
H 0.0 0.0 0.0
H 0.0 0.0 0.7574474777500697
3

H 0.0 0.0 -1.8359522512662965
H 0.0 0.0 0.0
H 0.0 0.0 0.7574474777500697
3

H 0.0 0.0 -1.836952098961453
H 0.0 0.0 0.0
H 0.0 0.0 0.7574300253436325
3

H 0.0 0.0 -1.8379520989614528
H 0.0 0.0 0.0
H 0.0 0.0 0.7574300253436325
3

H 0.0 0.0 -1.838951946656609
H 0.0 0.0 0.0
H 0.0 0.0 0.7574125729371952
3

H 0.0 0.0 -1.8399519466566088
H 0.0 0.0 0.0
H 0.0 0.0 0.7574125729371952
3

H 0.0 0.0 -1.8409517943517657
H 0.0 0.0 0.0
H 0.0 0.0 0.757395120530758
3

H 0.0 0.0 -1.8419516420469224
H 0.0 0.0 0.0
H 0.0 0.0 0.7573776681243207
3

H 0.0 0.0 -1.842951642046922
H 0.0 0.0 0.0
H 0.0 0.0 0.7573776681243207
3

H 0.0 0.0 -1.8439514897420783
H 0.0 0.0 0.0
H 0.0 0.0 0.7573602157178835
3

H 0.0 0.0 -1.8449514897420785
H 0.0 0.0 0.0
H 0.0 0.0 0.7573602157178835
3

H 0.0 0.0 -1.845951337437235
H 0.0 0.0 0.0
H 0.0 0.0 0.7573427633114462
3

H 0.0 0.0 -1.8469513374372348
H 0.0 0.0 0.0
H 0.0 0.0 0.7573427633114462
3

H 0.0 0.0 -1.8479511851323915
H 0.0 0.0 0.0
H 0.0 0.0 0.757325310905009
3

H 0.0 0.0 -1.848951032827548
H 0.0 0.0 0.0
H 0.0 0.0 0.7573078584985717
3

H 0.0 0.0 -1.849951032827548
H 0.0 0.0 0.0
H 0.0 0.0 0.7573078584985717
3

H 0.0 0.0 -1.850950880522704
H 0.0 0.0 0.0
H 0.0 0.0 0.7572904060921345
3

H 0.0 0.0 -1.851950880522704
H 0.0 0.0 0.0
H 0.0 0.0 0.7572904060921345
3

H 0.0 0.0 -1.8529507282178608
H 0.0 0.0 0.0
H 0.0 0.0 0.7572729536856972
3

H 0.0 0.0 -1.8539507282178604
H 0.0 0.0 0.0
H 0.0 0.0 0.7572729536856972
3

H 0.0 0.0 -1.854950575913017
H 0.0 0.0 0.0
H 0.0 0.0 0.75725550127926
3

H 0.0 0.0 -1.8559504236081732
H 0.0 0.0 0.0
H 0.0 0.0 0.7572380488728228
3

H 0.0 0.0 -1.8569504236081733
H 0.0 0.0 0.0
H 0.0 0.0 0.7572380488728228
3

H 0.0 0.0 -1.8579502713033296
H 0.0 0.0 0.0
H 0.0 0.0 0.7572205964663855
3

H 0.0 0.0 -1.8589502713033297
H 0.0 0.0 0.0
H 0.0 0.0 0.7572205964663855
3

H 0.0 0.0 -1.8599501189984864
H 0.0 0.0 0.0
H 0.0 0.0 0.7572031440599483
3

H 0.0 0.0 -1.860950118998486
H 0.0 0.0 0.0
H 0.0 0.0 0.7572031440599483
3

H 0.0 0.0 -1.8619499666936423
H 0.0 0.0 0.0
H 0.0 0.0 0.757185691653511
3

H 0.0 0.0 -1.8629499666936424
H 0.0 0.0 0.0
H 0.0 0.0 0.757185691653511
3

H 0.0 0.0 -1.863949814388799
H 0.0 0.0 0.0
H 0.0 0.0 0.7571682392470738
3

H 0.0 0.0 -1.8649498143887988
H 0.0 0.0 0.0
H 0.0 0.0 0.7571682392470738
3

H 0.0 0.0 -1.8659496620839555
H 0.0 0.0 0.0
H 0.0 0.0 0.7571507868406365
3

H 0.0 0.0 -1.8669496620839552
H 0.0 0.0 0.0
H 0.0 0.0 0.7571507868406365
3

H 0.0 0.0 -1.867949509779112
H 0.0 0.0 0.0
H 0.0 0.0 0.7571333344341993
3

H 0.0 0.0 -1.868949509779112
H 0.0 0.0 0.0
H 0.0 0.0 0.7571333344341993
3

H 0.0 0.0 -1.869949357474268
H 0.0 0.0 0.0
H 0.0 0.0 0.757115882027762
3

H 0.0 0.0 -1.870949357474268
H 0.0 0.0 0.0
H 0.0 0.0 0.757115882027762
3

H 0.0 0.0 -1.8719492051694244
H 0.0 0.0 0.0
H 0.0 0.0 0.7570984296213248
3

H 0.0 0.0 -1.8729492051694243
H 0.0 0.0 0.0
H 0.0 0.0 0.7570984296213248
3

H 0.0 0.0 -1.8739490528645808
H 0.0 0.0 0.0
H 0.0 0.0 0.7570809772148875
3

H 0.0 0.0 -1.8749490528645807
H 0.0 0.0 0.0
H 0.0 0.0 0.7570809772148875
3

H 0.0 0.0 -1.8759489005597367
H 0.0 0.0 0.0
H 0.0 0.0 0.7570635248084503
3

H 0.0 0.0 -1.8769487482548937
H 0.0 0.0 0.0
H 0.0 0.0 0.757046072402013
3

H 0.0 0.0 -1.8779487482548936
H 0.0 0.0 0.0
H 0.0 0.0 0.757046072402013
3

H 0.0 0.0 -1.87894859595005
H 0.0 0.0 0.0
H 0.0 0.0 0.7570286199955758
3

H 0.0 0.0 -1.87994859595005
H 0.0 0.0 0.0
H 0.0 0.0 0.7570286199955758
3

H 0.0 0.0 -1.8809485959500496
H 0.0 0.0 0.0
H 0.0 0.0 0.7570286199955758
3

H 0.0 0.0 -1.8819484436452063
H 0.0 0.0 0.0
H 0.0 0.0 0.7570111675891386
3

H 0.0 0.0 -1.8829484436452064
H 0.0 0.0 0.0
H 0.0 0.0 0.7570111675891386
3

H 0.0 0.0 -1.883948291340363
H 0.0 0.0 0.0
H 0.0 0.0 0.7569937151827013
3

H 0.0 0.0 -1.8849482913403623
H 0.0 0.0 0.0
H 0.0 0.0 0.7569937151827013
3

H 0.0 0.0 -1.885948139035519
H 0.0 0.0 0.0
H 0.0 0.0 0.7569762627762641
3

H 0.0 0.0 -1.886948139035519
H 0.0 0.0 0.0
H 0.0 0.0 0.7569762627762641
3

H 0.0 0.0 -1.8879479867306757
H 0.0 0.0 0.0
H 0.0 0.0 0.7569588103698268
3

H 0.0 0.0 -1.8889479867306755
H 0.0 0.0 0.0
H 0.0 0.0 0.7569588103698268
3

H 0.0 0.0 -1.889947834425832
H 0.0 0.0 0.0
H 0.0 0.0 0.7569413579633896
3

H 0.0 0.0 -1.890947834425832
H 0.0 0.0 0.0
H 0.0 0.0 0.7569413579633896
3

H 0.0 0.0 -1.891947682120988
H 0.0 0.0 0.0
H 0.0 0.0 0.7569239055569523
3

H 0.0 0.0 -1.892947682120988
H 0.0 0.0 0.0
H 0.0 0.0 0.7569239055569523
3

H 0.0 0.0 -1.8939475298161448
H 0.0 0.0 0.0
H 0.0 0.0 0.7569064531505151
3

H 0.0 0.0 -1.8949475298161444
H 0.0 0.0 0.0
H 0.0 0.0 0.7569064531505151
3

H 0.0 0.0 -1.895947377511301
H 0.0 0.0 0.0
H 0.0 0.0 0.7568890007440778
3

H 0.0 0.0 -1.8969473775113008
H 0.0 0.0 0.0
H 0.0 0.0 0.7568890007440778
3

H 0.0 0.0 -1.897947225206457
H 0.0 0.0 0.0
H 0.0 0.0 0.7568715483376406
3

H 0.0 0.0 -1.8989472252064568
H 0.0 0.0 0.0
H 0.0 0.0 0.7568715483376406
3

H 0.0 0.0 -1.899947225206457
H 0.0 0.0 0.0
H 0.0 0.0 0.7568715483376406
3

H 0.0 0.0 -1.9009470729016136
H 0.0 0.0 0.0
H 0.0 0.0 0.7568540959312033
3

H 0.0 0.0 -1.9019470729016132
H 0.0 0.0 0.0
H 0.0 0.0 0.7568540959312033
3

H 0.0 0.0 -1.90294692059677
H 0.0 0.0 0.0
H 0.0 0.0 0.7568366435247661
3

H 0.0 0.0 -1.9039469205967696
H 0.0 0.0 0.0
H 0.0 0.0 0.7568366435247661
3

H 0.0 0.0 -1.9049467682919263
H 0.0 0.0 0.0
H 0.0 0.0 0.7568191911183288
3

H 0.0 0.0 -1.9059467682919264
H 0.0 0.0 0.0
H 0.0 0.0 0.7568191911183288
3

H 0.0 0.0 -1.9069466159870827
H 0.0 0.0 0.0
H 0.0 0.0 0.7568017387118916
3

H 0.0 0.0 -1.9079466159870824
H 0.0 0.0 0.0
H 0.0 0.0 0.7568017387118916
3

H 0.0 0.0 -1.9089466159870825
H 0.0 0.0 0.0
H 0.0 0.0 0.7568017387118916
3

H 0.0 0.0 -1.909946463682239
H 0.0 0.0 0.0
H 0.0 0.0 0.7567842863054544
3

H 0.0 0.0 -1.9109464636822389
H 0.0 0.0 0.0
H 0.0 0.0 0.7567842863054544
3

H 0.0 0.0 -1.9119463113773956
H 0.0 0.0 0.0
H 0.0 0.0 0.7567668338990171
3

H 0.0 0.0 -1.9129463113773952
H 0.0 0.0 0.0
H 0.0 0.0 0.7567668338990171
3

H 0.0 0.0 -1.913946159072552
H 0.0 0.0 0.0
H 0.0 0.0 0.7567493814925799
3

H 0.0 0.0 -1.914946159072552
H 0.0 0.0 0.0
H 0.0 0.0 0.7567493814925799
3

H 0.0 0.0 -1.9159461590725515
H 0.0 0.0 0.0
H 0.0 0.0 0.7567493814925799
3

H 0.0 0.0 -1.916946006767708
H 0.0 0.0 0.0
H 0.0 0.0 0.7567319290861426
3

H 0.0 0.0 -1.917946006767708
H 0.0 0.0 0.0
H 0.0 0.0 0.7567319290861426
3

H 0.0 0.0 -1.9189458544628644
H 0.0 0.0 0.0
H 0.0 0.0 0.7567144766797054
3

H 0.0 0.0 -1.9199458544628645
H 0.0 0.0 0.0
H 0.0 0.0 0.7567144766797054
3

H 0.0 0.0 -1.9209457021580207
H 0.0 0.0 0.0
H 0.0 0.0 0.7566970242732681
3

H 0.0 0.0 -1.9219457021580209
H 0.0 0.0 0.0
H 0.0 0.0 0.7566970242732681
3

H 0.0 0.0 -1.9229457021580203
H 0.0 0.0 0.0
H 0.0 0.0 0.7566970242732681
3

H 0.0 0.0 -1.923945549853177
H 0.0 0.0 0.0
H 0.0 0.0 0.7566795718668309
3

H 0.0 0.0 -1.924945549853177
H 0.0 0.0 0.0
H 0.0 0.0 0.7566795718668309
3

H 0.0 0.0 -1.9259453975483332
H 0.0 0.0 0.0
H 0.0 0.0 0.7566621194603936
3

H 0.0 0.0 -1.9269453975483333
H 0.0 0.0 0.0
H 0.0 0.0 0.7566621194603936
3

H 0.0 0.0 -1.9279453975483327
H 0.0 0.0 0.0
H 0.0 0.0 0.7566621194603936
3

H 0.0 0.0 -1.9289452452434896
H 0.0 0.0 0.0
H 0.0 0.0 0.7566446670539564
3

H 0.0 0.0 -1.929945245243489
H 0.0 0.0 0.0
H 0.0 0.0 0.7566446670539564
3

H 0.0 0.0 -1.930945092938646
H 0.0 0.0 0.0
H 0.0 0.0 0.7566272146475191
3

H 0.0 0.0 -1.931945092938646
H 0.0 0.0 0.0
H 0.0 0.0 0.7566272146475191
3

H 0.0 0.0 -1.9329450929386456
H 0.0 0.0 0.0
H 0.0 0.0 0.7566272146475191
3

H 0.0 0.0 -1.9339449406338023
H 0.0 0.0 0.0
H 0.0 0.0 0.7566097622410819
3

H 0.0 0.0 -1.9349449406338024
H 0.0 0.0 0.0
H 0.0 0.0 0.7566097622410819
3

H 0.0 0.0 -1.9359447883289589
H 0.0 0.0 0.0
H 0.0 0.0 0.7565923098346446
3

H 0.0 0.0 -1.9369447883289583
H 0.0 0.0 0.0
H 0.0 0.0 0.7565923098346446
3

H 0.0 0.0 -1.9379447883289584
H 0.0 0.0 0.0
H 0.0 0.0 0.7565923098346446
3

H 0.0 0.0 -1.938944636024115
H 0.0 0.0 0.0
H 0.0 0.0 0.7565748574282074
3

H 0.0 0.0 -1.9399446360241148
H 0.0 0.0 0.0
H 0.0 0.0 0.7565748574282074
3

H 0.0 0.0 -1.9409446360241147
H 0.0 0.0 0.0
H 0.0 0.0 0.7565748574282074
3

H 0.0 0.0 -1.9419444837192712
H 0.0 0.0 0.0
H 0.0 0.0 0.7565574050217702
3

H 0.0 0.0 -1.942944483719271
H 0.0 0.0 0.0
H 0.0 0.0 0.7565574050217702
3

H 0.0 0.0 -1.943944331414428
H 0.0 0.0 0.0
H 0.0 0.0 0.7565399526153329
3

H 0.0 0.0 -1.9449443314144277
H 0.0 0.0 0.0
H 0.0 0.0 0.7565399526153329
3

H 0.0 0.0 -1.9459443314144276
H 0.0 0.0 0.0
H 0.0 0.0 0.7565399526153329
3

H 0.0 0.0 -1.946944179109584
H 0.0 0.0 0.0
H 0.0 0.0 0.7565225002088957
3

H 0.0 0.0 -1.947944179109584
H 0.0 0.0 0.0
H 0.0 0.0 0.7565225002088957
3

H 0.0 0.0 -1.948944179109584
H 0.0 0.0 0.0
H 0.0 0.0 0.7565225002088957
3

H 0.0 0.0 -1.94994402680474
H 0.0 0.0 0.0
H 0.0 0.0 0.7565050478024584
3

H 0.0 0.0 -1.95094402680474
H 0.0 0.0 0.0
H 0.0 0.0 0.7565050478024584
3

H 0.0 0.0 -1.9519438744998965
H 0.0 0.0 0.0
H 0.0 0.0 0.7564875953960212
3

H 0.0 0.0 -1.9529438744998964
H 0.0 0.0 0.0
H 0.0 0.0 0.7564875953960212
3

H 0.0 0.0 -1.9539438744998965
H 0.0 0.0 0.0
H 0.0 0.0 0.7564875953960212
3

H 0.0 0.0 -1.9549437221950527
H 0.0 0.0 0.0
H 0.0 0.0 0.7564701429895839
3

H 0.0 0.0 -1.9559437221950529
H 0.0 0.0 0.0
H 0.0 0.0 0.7564701429895839
3

H 0.0 0.0 -1.9569437221950523
H 0.0 0.0 0.0
H 0.0 0.0 0.7564701429895839
3

H 0.0 0.0 -1.957943569890209
H 0.0 0.0 0.0
H 0.0 0.0 0.7564526905831467
3

H 0.0 0.0 -1.958943569890209
H 0.0 0.0 0.0
H 0.0 0.0 0.7564526905831467
3

H 0.0 0.0 -1.9599435698902088
H 0.0 0.0 0.0
H 0.0 0.0 0.7564526905831467
3

H 0.0 0.0 -1.9609434175853653
H 0.0 0.0 0.0
H 0.0 0.0 0.7564352381767094
3

H 0.0 0.0 -1.9619434175853647
H 0.0 0.0 0.0
H 0.0 0.0 0.7564352381767094
3

H 0.0 0.0 -1.962943417585365
H 0.0 0.0 0.0
H 0.0 0.0 0.7564352381767094
3

H 0.0 0.0 -1.963943265280521
H 0.0 0.0 0.0
H 0.0 0.0 0.7564177857702722
3

H 0.0 0.0 -1.9649432652805212
H 0.0 0.0 0.0
H 0.0 0.0 0.7564177857702722
3

H 0.0 0.0 -1.965943265280521
H 0.0 0.0 0.0
H 0.0 0.0 0.7564177857702722
3

H 0.0 0.0 -1.9669431129756776
H 0.0 0.0 0.0
H 0.0 0.0 0.7564003333638349
3

H 0.0 0.0 -1.9679431129756777
H 0.0 0.0 0.0
H 0.0 0.0 0.7564003333638349
3

H 0.0 0.0 -1.9689431129756776
H 0.0 0.0 0.0
H 0.0 0.0 0.7564003333638349
3

H 0.0 0.0 -1.969942960670834
H 0.0 0.0 0.0
H 0.0 0.0 0.7563828809573977
3

H 0.0 0.0 -1.970942960670834
H 0.0 0.0 0.0
H 0.0 0.0 0.7563828809573977
3

H 0.0 0.0 -1.9719429606708336
H 0.0 0.0 0.0
H 0.0 0.0 0.7563828809573977
3

H 0.0 0.0 -1.9729428083659903
H 0.0 0.0 0.0
H 0.0 0.0 0.7563654285509605
3

H 0.0 0.0 -1.9739428083659905
H 0.0 0.0 0.0
H 0.0 0.0 0.7563654285509605
3

H 0.0 0.0 -1.97494280836599
H 0.0 0.0 0.0
H 0.0 0.0 0.7563654285509605
3

H 0.0 0.0 -1.9759426560611464
H 0.0 0.0 0.0
H 0.0 0.0 0.7563479761445232
3

H 0.0 0.0 -1.9769426560611465
H 0.0 0.0 0.0
H 0.0 0.0 0.7563479761445232
3

H 0.0 0.0 -1.9779426560611464
H 0.0 0.0 0.0
H 0.0 0.0 0.7563479761445232
3

H 0.0 0.0 -1.9789425037563029
H 0.0 0.0 0.0
H 0.0 0.0 0.756330523738086
3

H 0.0 0.0 -1.9799425037563028
H 0.0 0.0 0.0
H 0.0 0.0 0.756330523738086
3

H 0.0 0.0 -1.9809425037563029
H 0.0 0.0 0.0
H 0.0 0.0 0.756330523738086
3

H 0.0 0.0 -1.9819423514514591
H 0.0 0.0 0.0
H 0.0 0.0 0.7563130713316487
3

H 0.0 0.0 -1.982942351451459
H 0.0 0.0 0.0
H 0.0 0.0 0.7563130713316487
3

H 0.0 0.0 -1.983942351451459
H 0.0 0.0 0.0
H 0.0 0.0 0.7563130713316487
3

H 0.0 0.0 -1.9849421991466156
H 0.0 0.0 0.0
H 0.0 0.0 0.7562956189252115
3

H 0.0 0.0 -1.9859421991466155
H 0.0 0.0 0.0
H 0.0 0.0 0.7562956189252115
3

H 0.0 0.0 -1.9869421991466152
H 0.0 0.0 0.0
H 0.0 0.0 0.7562956189252115
3

H 0.0 0.0 -1.987942046841772
H 0.0 0.0 0.0
H 0.0 0.0 0.7562781665187742
3

H 0.0 0.0 -1.988942046841772
H 0.0 0.0 0.0
H 0.0 0.0 0.7562781665187742
3

H 0.0 0.0 -1.9899420468417717
H 0.0 0.0 0.0
H 0.0 0.0 0.7562781665187742
3

H 0.0 0.0 -1.9909420468417716
H 0.0 0.0 0.0
H 0.0 0.0 0.7562781665187742
3

H 0.0 0.0 -1.991941894536928
H 0.0 0.0 0.0
H 0.0 0.0 0.756260714112337
3

H 0.0 0.0 -1.992941894536928
H 0.0 0.0 0.0
H 0.0 0.0 0.756260714112337
3

H 0.0 0.0 -1.993941894536928
H 0.0 0.0 0.0
H 0.0 0.0 0.756260714112337
3

H 0.0 0.0 -1.994941742232084
H 0.0 0.0 0.0
H 0.0 0.0 0.7562432617058997
3

H 0.0 0.0 -1.995941742232084
H 0.0 0.0 0.0
H 0.0 0.0 0.7562432617058997
3

H 0.0 0.0 -1.996941742232084
H 0.0 0.0 0.0
H 0.0 0.0 0.7562432617058997
3

H 0.0 0.0 -1.9979415899272404
H 0.0 0.0 0.0
H 0.0 0.0 0.7562258092994625
3

H 0.0 0.0 -1.99894158992724
H 0.0 0.0 0.0
H 0.0 0.0 0.7562258092994625
3

H 0.0 0.0 -1.99994158992724
H 0.0 0.0 0.0
H 0.0 0.0 0.7562258092994625
3

H 0.0 0.0 -2.00094158992724
H 0.0 0.0 0.0
H 0.0 0.0 0.7562258092994625
3

H 0.0 0.0 -2.0019414376223965
H 0.0 0.0 0.0
H 0.0 0.0 0.7562083568930252
3

H 0.0 0.0 -2.0029414376223964
H 0.0 0.0 0.0
H 0.0 0.0 0.7562083568930252
3

H 0.0 0.0 -2.0039414376223963
H 0.0 0.0 0.0
H 0.0 0.0 0.7562083568930252
3

H 0.0 0.0 -2.004941285317553
H 0.0 0.0 0.0
H 0.0 0.0 0.756190904486588
3

H 0.0 0.0 -2.0059412853175527
H 0.0 0.0 0.0
H 0.0 0.0 0.756190904486588
3

H 0.0 0.0 -2.006941285317553
H 0.0 0.0 0.0
H 0.0 0.0 0.756190904486588
3

H 0.0 0.0 -2.0079412853175524
H 0.0 0.0 0.0
H 0.0 0.0 0.756190904486588
3

H 0.0 0.0 -2.008941133012709
H 0.0 0.0 0.0
H 0.0 0.0 0.7561734520801507
3

H 0.0 0.0 -2.009941133012709
H 0.0 0.0 0.0
H 0.0 0.0 0.7561734520801507
3

H 0.0 0.0 -2.0109411330127087
H 0.0 0.0 0.0
H 0.0 0.0 0.7561734520801507
3

H 0.0 0.0 -2.011940980707865
H 0.0 0.0 0.0
H 0.0 0.0 0.7561559996737135
3

H 0.0 0.0 -2.012940980707865
H 0.0 0.0 0.0
H 0.0 0.0 0.7561559996737135
3

H 0.0 0.0 -2.013940980707865
H 0.0 0.0 0.0
H 0.0 0.0 0.7561559996737135
3

H 0.0 0.0 -2.014940980707865
H 0.0 0.0 0.0
H 0.0 0.0 0.7561559996737135
3

H 0.0 0.0 -2.0159408284030214
H 0.0 0.0 0.0
H 0.0 0.0 0.7561385472672763
3

H 0.0 0.0 -2.016940828403021
H 0.0 0.0 0.0
H 0.0 0.0 0.7561385472672763
3

H 0.0 0.0 -2.017940828403021
H 0.0 0.0 0.0
H 0.0 0.0 0.7561385472672763
3

H 0.0 0.0 -2.018940828403021
H 0.0 0.0 0.0
H 0.0 0.0 0.7561385472672763
3

H 0.0 0.0 -2.019940676098177
H 0.0 0.0 0.0
H 0.0 0.0 0.756121094860839
3

H 0.0 0.0 -2.0209406760981774
H 0.0 0.0 0.0
H 0.0 0.0 0.756121094860839
3

H 0.0 0.0 -2.0219406760981773
H 0.0 0.0 0.0
H 0.0 0.0 0.756121094860839
3

H 0.0 0.0 -2.022940523793334
H 0.0 0.0 0.0
H 0.0 0.0 0.7561036424544018
3

H 0.0 0.0 -2.0239405237933337
H 0.0 0.0 0.0
H 0.0 0.0 0.7561036424544018
3

H 0.0 0.0 -2.0249405237933336
H 0.0 0.0 0.0
H 0.0 0.0 0.7561036424544018
3

H 0.0 0.0 -2.025940523793333
H 0.0 0.0 0.0
H 0.0 0.0 0.7561036424544018
3

H 0.0 0.0 -2.02694037148849
H 0.0 0.0 0.0
H 0.0 0.0 0.7560861900479645
3

H 0.0 0.0 -2.02794037148849
H 0.0 0.0 0.0
H 0.0 0.0 0.7560861900479645
3

H 0.0 0.0 -2.0289403714884897
H 0.0 0.0 0.0
H 0.0 0.0 0.7560861900479645
3

H 0.0 0.0 -2.0299403714884896
H 0.0 0.0 0.0
H 0.0 0.0 0.7560861900479645
3

H 0.0 0.0 -2.030940219183646
H 0.0 0.0 0.0
H 0.0 0.0 0.7560687376415273
3

H 0.0 0.0 -2.031940219183646
H 0.0 0.0 0.0
H 0.0 0.0 0.7560687376415273
3

H 0.0 0.0 -2.032940219183646
H 0.0 0.0 0.0
H 0.0 0.0 0.7560687376415273
3

H 0.0 0.0 -2.0339402191836458
H 0.0 0.0 0.0
H 0.0 0.0 0.7560687376415273
3

H 0.0 0.0 -2.0349400668788022
H 0.0 0.0 0.0
H 0.0 0.0 0.75605128523509
3

H 0.0 0.0 -2.035940066878802
H 0.0 0.0 0.0
H 0.0 0.0 0.75605128523509
3

H 0.0 0.0 -2.036940066878802
H 0.0 0.0 0.0
H 0.0 0.0 0.75605128523509
3

H 0.0 0.0 -2.037940066878802
H 0.0 0.0 0.0
H 0.0 0.0 0.75605128523509
3

H 0.0 0.0 -2.0389399145739584
H 0.0 0.0 0.0
H 0.0 0.0 0.7560338328286528
3

H 0.0 0.0 -2.0399399145739583
H 0.0 0.0 0.0
H 0.0 0.0 0.7560338328286528
3

H 0.0 0.0 -2.040939914573958
H 0.0 0.0 0.0
H 0.0 0.0 0.7560338328286528
3

H 0.0 0.0 -2.041939914573958
H 0.0 0.0 0.0
H 0.0 0.0 0.7560338328286528
3

H 0.0 0.0 -2.0429397622691146
H 0.0 0.0 0.0
H 0.0 0.0 0.7560163804222155
3

H 0.0 0.0 -2.0439397622691144
H 0.0 0.0 0.0
H 0.0 0.0 0.7560163804222155
3

H 0.0 0.0 -2.0449397622691143
H 0.0 0.0 0.0
H 0.0 0.0 0.7560163804222155
3

H 0.0 0.0 -2.0459397622691142
H 0.0 0.0 0.0
H 0.0 0.0 0.7560163804222155
3

H 0.0 0.0 -2.0469396099642707
H 0.0 0.0 0.0
H 0.0 0.0 0.7559989280157783
3

H 0.0 0.0 -2.0479396099642706
H 0.0 0.0 0.0
H 0.0 0.0 0.7559989280157783
3

H 0.0 0.0 -2.0489396099642705
H 0.0 0.0 0.0
H 0.0 0.0 0.7559989280157783
3

H 0.0 0.0 -2.0499396099642704
H 0.0 0.0 0.0
H 0.0 0.0 0.7559989280157783
3

H 0.0 0.0 -2.050939457659427
H 0.0 0.0 0.0
H 0.0 0.0 0.755981475609341
3

H 0.0 0.0 -2.0519394576594268
H 0.0 0.0 0.0
H 0.0 0.0 0.755981475609341
3

H 0.0 0.0 -2.052939457659426
H 0.0 0.0 0.0
H 0.0 0.0 0.755981475609341
3

H 0.0 0.0 -2.0539394576594265
H 0.0 0.0 0.0
H 0.0 0.0 0.755981475609341
3

H 0.0 0.0 -2.0549394576594264
H 0.0 0.0 0.0
H 0.0 0.0 0.755981475609341
3

H 0.0 0.0 -2.055939305354583
H 0.0 0.0 0.0
H 0.0 0.0 0.7559640232029038
3

H 0.0 0.0 -2.056939305354583
H 0.0 0.0 0.0
H 0.0 0.0 0.7559640232029038
3

H 0.0 0.0 -2.0579393053545827
H 0.0 0.0 0.0
H 0.0 0.0 0.7559640232029038
3

H 0.0 0.0 -2.0589393053545826
H 0.0 0.0 0.0
H 0.0 0.0 0.7559640232029038
3

H 0.0 0.0 -2.059939153049739
H 0.0 0.0 0.0
H 0.0 0.0 0.7559465707964665
3

H 0.0 0.0 -2.060939153049739
H 0.0 0.0 0.0
H 0.0 0.0 0.7559465707964665
3

H 0.0 0.0 -2.061939153049739
H 0.0 0.0 0.0
H 0.0 0.0 0.7559465707964665
3

H 0.0 0.0 -2.0629391530497387
H 0.0 0.0 0.0
H 0.0 0.0 0.7559465707964665
3

H 0.0 0.0 -2.063939153049738
H 0.0 0.0 0.0
H 0.0 0.0 0.7559465707964665
3

H 0.0 0.0 -2.064939000744895
H 0.0 0.0 0.0
H 0.0 0.0 0.7559291183900293
3

H 0.0 0.0 -2.065939000744895
H 0.0 0.0 0.0
H 0.0 0.0 0.7559291183900293
3

H 0.0 0.0 -2.066939000744895
H 0.0 0.0 0.0
H 0.0 0.0 0.7559291183900293
3

H 0.0 0.0 -2.067939000744895
H 0.0 0.0 0.0
H 0.0 0.0 0.7559291183900293
3

H 0.0 0.0 -2.0689388484400517
H 0.0 0.0 0.0
H 0.0 0.0 0.755911665983592
3

H 0.0 0.0 -2.069938848440051
H 0.0 0.0 0.0
H 0.0 0.0 0.755911665983592
3

H 0.0 0.0 -2.070938848440051
H 0.0 0.0 0.0
H 0.0 0.0 0.755911665983592
3

H 0.0 0.0 -2.071938848440051
H 0.0 0.0 0.0
H 0.0 0.0 0.755911665983592
3

H 0.0 0.0 -2.072938848440051
H 0.0 0.0 0.0
H 0.0 0.0 0.755911665983592
3

H 0.0 0.0 -2.0739386961352078
H 0.0 0.0 0.0
H 0.0 0.0 0.7558942135771548
3

H 0.0 0.0 -2.074938696135207
H 0.0 0.0 0.0
H 0.0 0.0 0.7558942135771548
3

H 0.0 0.0 -2.075938696135207
H 0.0 0.0 0.0
H 0.0 0.0 0.7558942135771548
3

H 0.0 0.0 -2.076938696135207
H 0.0 0.0 0.0
H 0.0 0.0 0.7558942135771548
3

H 0.0 0.0 -2.077938696135207
H 0.0 0.0 0.0
H 0.0 0.0 0.7558942135771548
3

H 0.0 0.0 -2.078938543830364
H 0.0 0.0 0.0
H 0.0 0.0 0.7558767611707176
3

H 0.0 0.0 -2.0799385438303637
H 0.0 0.0 0.0
H 0.0 0.0 0.7558767611707176
3

H 0.0 0.0 -2.080938543830363
H 0.0 0.0 0.0
H 0.0 0.0 0.7558767611707176
3

H 0.0 0.0 -2.081938543830363
H 0.0 0.0 0.0
H 0.0 0.0 0.7558767611707176
3

H 0.0 0.0 -2.0829383915255195
H 0.0 0.0 0.0
H 0.0 0.0 0.7558593087642803
3

H 0.0 0.0 -2.0839383915255194
H 0.0 0.0 0.0
H 0.0 0.0 0.7558593087642803
3

H 0.0 0.0 -2.0849383915255197
H 0.0 0.0 0.0
H 0.0 0.0 0.7558593087642803
3

H 0.0 0.0 -2.085938391525519
H 0.0 0.0 0.0
H 0.0 0.0 0.7558593087642803
3

H 0.0 0.0 -2.086938391525519
H 0.0 0.0 0.0
H 0.0 0.0 0.7558593087642803
3

H 0.0 0.0 -2.087938239220676
H 0.0 0.0 0.0
H 0.0 0.0 0.7558418563578431
3

H 0.0 0.0 -2.0889382392206755
H 0.0 0.0 0.0
H 0.0 0.0 0.7558418563578431
3

H 0.0 0.0 -2.089938239220676
H 0.0 0.0 0.0
H 0.0 0.0 0.7558418563578431
3

H 0.0 0.0 -2.0909382392206752
H 0.0 0.0 0.0
H 0.0 0.0 0.7558418563578431
3

H 0.0 0.0 -2.091938239220675
H 0.0 0.0 0.0
H 0.0 0.0 0.7558418563578431
3

H 0.0 0.0 -2.092938086915832
H 0.0 0.0 0.0
H 0.0 0.0 0.7558244039514058
3

H 0.0 0.0 -2.0939380869158315
H 0.0 0.0 0.0
H 0.0 0.0 0.7558244039514058
3

H 0.0 0.0 -2.0949380869158314
H 0.0 0.0 0.0
H 0.0 0.0 0.7558244039514058
3

H 0.0 0.0 -2.0959380869158317
H 0.0 0.0 0.0
H 0.0 0.0 0.7558244039514058
3

H 0.0 0.0 -2.096938086915831
H 0.0 0.0 0.0
H 0.0 0.0 0.7558244039514058
3

H 0.0 0.0 -2.097938086915831
H 0.0 0.0 0.0
H 0.0 0.0 0.7558244039514058
3

H 0.0 0.0 -2.0989379346109875
H 0.0 0.0 0.0
H 0.0 0.0 0.7558069515449686
3

H 0.0 0.0 -2.0999379346109874
H 0.0 0.0 0.0
H 0.0 0.0 0.7558069515449686
3

H 0.0 0.0 -2.1009379346109878
H 0.0 0.0 0.0
H 0.0 0.0 0.7558069515449686
3

H 0.0 0.0 -2.101937934610987
H 0.0 0.0 0.0
H 0.0 0.0 0.7558069515449686
3

H 0.0 0.0 -2.102937934610987
H 0.0 0.0 0.0
H 0.0 0.0 0.7558069515449686
3

H 0.0 0.0 -2.103937782306144
H 0.0 0.0 0.0
H 0.0 0.0 0.7557894991385313
3

H 0.0 0.0 -2.1049377823061435
H 0.0 0.0 0.0
H 0.0 0.0 0.7557894991385313
3

H 0.0 0.0 -2.105937782306144
H 0.0 0.0 0.0
H 0.0 0.0 0.7557894991385313
3

H 0.0 0.0 -2.1069377823061437
H 0.0 0.0 0.0
H 0.0 0.0 0.7557894991385313
3

H 0.0 0.0 -2.107937782306143
H 0.0 0.0 0.0
H 0.0 0.0 0.7557894991385313
3

H 0.0 0.0 -2.1089376300013
H 0.0 0.0 0.0
H 0.0 0.0 0.7557720467320941
3

H 0.0 0.0 -2.1099376300012995
H 0.0 0.0 0.0
H 0.0 0.0 0.7557720467320941
3

H 0.0 0.0 -2.1109376300012994
H 0.0 0.0 0.0
H 0.0 0.0 0.7557720467320941
3

H 0.0 0.0 -2.1119376300012997
H 0.0 0.0 0.0
H 0.0 0.0 0.7557720467320941
3

H 0.0 0.0 -2.112937630001299
H 0.0 0.0 0.0
H 0.0 0.0 0.7557720467320941
3

H 0.0 0.0 -2.113937630001299
H 0.0 0.0 0.0
H 0.0 0.0 0.7557720467320941
3

H 0.0 0.0 -2.114937477696456
H 0.0 0.0 0.0
H 0.0 0.0 0.7557545943256568
3

H 0.0 0.0 -2.1159374776964555
H 0.0 0.0 0.0
H 0.0 0.0 0.7557545943256568
3

H 0.0 0.0 -2.116937477696456
H 0.0 0.0 0.0
H 0.0 0.0 0.7557545943256568
3

H 0.0 0.0 -2.1179374776964552
H 0.0 0.0 0.0
H 0.0 0.0 0.7557545943256568
3

H 0.0 0.0 -2.118937477696455
H 0.0 0.0 0.0
H 0.0 0.0 0.7557545943256568
3

H 0.0 0.0 -2.119937477696455
H 0.0 0.0 0.0
H 0.0 0.0 0.7557545943256568
3

H 0.0 0.0 -2.1209373253916115
H 0.0 0.0 0.0
H 0.0 0.0 0.7557371419192196
3

H 0.0 0.0 -2.1219373253916114
H 0.0 0.0 0.0
H 0.0 0.0 0.7557371419192196
3

H 0.0 0.0 -2.1229373253916117
H 0.0 0.0 0.0
H 0.0 0.0 0.7557371419192196
3

H 0.0 0.0 -2.123937325391611
H 0.0 0.0 0.0
H 0.0 0.0 0.7557371419192196
3

H 0.0 0.0 -2.124937325391611
H 0.0 0.0 0.0
H 0.0 0.0 0.7557371419192196
3

H 0.0 0.0 -2.125937325391611
H 0.0 0.0 0.0
H 0.0 0.0 0.7557371419192196
3

H 0.0 0.0 -2.1269371730867674
H 0.0 0.0 0.0
H 0.0 0.0 0.7557196895127823
3

H 0.0 0.0 -2.1279371730867678
H 0.0 0.0 0.0
H 0.0 0.0 0.7557196895127823
3

H 0.0 0.0 -2.128937173086767
H 0.0 0.0 0.0
H 0.0 0.0 0.7557196895127823
3

H 0.0 0.0 -2.129937173086767
H 0.0 0.0 0.0
H 0.0 0.0 0.7557196895127823
3

H 0.0 0.0 -2.130937173086767
H 0.0 0.0 0.0
H 0.0 0.0 0.7557196895127823
3

H 0.0 0.0 -2.131937173086767
H 0.0 0.0 0.0
H 0.0 0.0 0.7557196895127823
3

H 0.0 0.0 -2.132937020781924
H 0.0 0.0 0.0
H 0.0 0.0 0.7557022371063451
3

H 0.0 0.0 -2.1339370207819237
H 0.0 0.0 0.0
H 0.0 0.0 0.7557022371063451
3

H 0.0 0.0 -2.134937020781923
H 0.0 0.0 0.0
H 0.0 0.0 0.7557022371063451
3

H 0.0 0.0 -2.135937020781923
H 0.0 0.0 0.0
H 0.0 0.0 0.7557022371063451
3

H 0.0 0.0 -2.136937020781923
H 0.0 0.0 0.0
H 0.0 0.0 0.7557022371063451
3

H 0.0 0.0 -2.137937020781923
H 0.0 0.0 0.0
H 0.0 0.0 0.7557022371063451
3

H 0.0 0.0 -2.1389368684770798
H 0.0 0.0 0.0
H 0.0 0.0 0.7556847846999079
3

H 0.0 0.0 -2.139936868477079
H 0.0 0.0 0.0
H 0.0 0.0 0.7556847846999079
3

H 0.0 0.0 -2.140936868477079
H 0.0 0.0 0.0
H 0.0 0.0 0.7556847846999079
3

H 0.0 0.0 -2.141936868477079
H 0.0 0.0 0.0
H 0.0 0.0 0.7556847846999079
3

H 0.0 0.0 -2.142936868477079
H 0.0 0.0 0.0
H 0.0 0.0 0.7556847846999079
3

H 0.0 0.0 -2.1439368684770788
H 0.0 0.0 0.0
H 0.0 0.0 0.7556847846999079
3

H 0.0 0.0 -2.1449368684770787
H 0.0 0.0 0.0
H 0.0 0.0 0.7556847846999079
3

H 0.0 0.0 -2.145936716172235
H 0.0 0.0 0.0
H 0.0 0.0 0.7556673322934706
3

H 0.0 0.0 -2.146936716172235
H 0.0 0.0 0.0
H 0.0 0.0 0.7556673322934706
3

H 0.0 0.0 -2.147936716172235
H 0.0 0.0 0.0
H 0.0 0.0 0.7556673322934706
3

H 0.0 0.0 -2.148936716172235
H 0.0 0.0 0.0
H 0.0 0.0 0.7556673322934706
3

H 0.0 0.0 -2.1499367161722347
H 0.0 0.0 0.0
H 0.0 0.0 0.7556673322934706
3

H 0.0 0.0 -2.1509367161722346
H 0.0 0.0 0.0
H 0.0 0.0 0.7556673322934706
3

H 0.0 0.0 -2.151936563867391
H 0.0 0.0 0.0
H 0.0 0.0 0.7556498798870334
3

H 0.0 0.0 -2.152936563867391
H 0.0 0.0 0.0
H 0.0 0.0 0.7556498798870334
3

H 0.0 0.0 -2.153936563867391
H 0.0 0.0 0.0
H 0.0 0.0 0.7556498798870334
3

H 0.0 0.0 -2.1549365638673907
H 0.0 0.0 0.0
H 0.0 0.0 0.7556498798870334
3

H 0.0 0.0 -2.15593656386739
H 0.0 0.0 0.0
H 0.0 0.0 0.7556498798870334
3

H 0.0 0.0 -2.1569365638673905
H 0.0 0.0 0.0
H 0.0 0.0 0.7556498798870334
3

H 0.0 0.0 -2.1579365638673904
H 0.0 0.0 0.0
H 0.0 0.0 0.7556498798870334
3

H 0.0 0.0 -2.158936411562547
H 0.0 0.0 0.0
H 0.0 0.0 0.7556324274805961
3

H 0.0 0.0 -2.159936411562547
H 0.0 0.0 0.0
H 0.0 0.0 0.7556324274805961
3

H 0.0 0.0 -2.1609364115625467
H 0.0 0.0 0.0
H 0.0 0.0 0.7556324274805961
3

H 0.0 0.0 -2.1619364115625466
H 0.0 0.0 0.0
H 0.0 0.0 0.7556324274805961
3

H 0.0 0.0 -2.1629364115625465
H 0.0 0.0 0.0
H 0.0 0.0 0.7556324274805961
3

H 0.0 0.0 -2.1639364115625463
H 0.0 0.0 0.0
H 0.0 0.0 0.7556324274805961
3

H 0.0 0.0 -2.1649364115625462
H 0.0 0.0 0.0
H 0.0 0.0 0.7556324274805961
3

H 0.0 0.0 -2.1659362592577027
H 0.0 0.0 0.0
H 0.0 0.0 0.7556149750741589
3

H 0.0 0.0 -2.1669362592577026
H 0.0 0.0 0.0
H 0.0 0.0 0.7556149750741589
3

H 0.0 0.0 -2.1679362592577025
H 0.0 0.0 0.0
H 0.0 0.0 0.7556149750741589
3

H 0.0 0.0 -2.1689362592577024
H 0.0 0.0 0.0
H 0.0 0.0 0.7556149750741589
3

H 0.0 0.0 -2.1699362592577023
H 0.0 0.0 0.0
H 0.0 0.0 0.7556149750741589
3

H 0.0 0.0 -2.170936259257702
H 0.0 0.0 0.0
H 0.0 0.0 0.7556149750741589
3

H 0.0 0.0 -2.171936259257702
H 0.0 0.0 0.0
H 0.0 0.0 0.7556149750741589
3

H 0.0 0.0 -2.1729361069528585
H 0.0 0.0 0.0
H 0.0 0.0 0.7555975226677216
3

H 0.0 0.0 -2.1739361069528584
H 0.0 0.0 0.0
H 0.0 0.0 0.7555975226677216
3

H 0.0 0.0 -2.1749361069528583
H 0.0 0.0 0.0
H 0.0 0.0 0.7555975226677216
3

H 0.0 0.0 -2.175936106952858
H 0.0 0.0 0.0
H 0.0 0.0 0.7555975226677216
3

H 0.0 0.0 -2.176936106952858
H 0.0 0.0 0.0
H 0.0 0.0 0.7555975226677216
3

H 0.0 0.0 -2.177936106952858
H 0.0 0.0 0.0
H 0.0 0.0 0.7555975226677216
3

H 0.0 0.0 -2.178936106952858
H 0.0 0.0 0.0
H 0.0 0.0 0.7555975226677216
3

H 0.0 0.0 -2.1799361069528578
H 0.0 0.0 0.0
H 0.0 0.0 0.7555975226677216
3

H 0.0 0.0 -2.1809359546480143
H 0.0 0.0 0.0
H 0.0 0.0 0.7555800702612844
3

H 0.0 0.0 -2.181935954648014
H 0.0 0.0 0.0
H 0.0 0.0 0.7555800702612844
3

H 0.0 0.0 -2.182935954648014
H 0.0 0.0 0.0
H 0.0 0.0 0.7555800702612844
3

H 0.0 0.0 -2.183935954648014
H 0.0 0.0 0.0
H 0.0 0.0 0.7555800702612844
3

H 0.0 0.0 -2.184935954648014
H 0.0 0.0 0.0
H 0.0 0.0 0.7555800702612844
3

H 0.0 0.0 -2.1859359546480137
H 0.0 0.0 0.0
H 0.0 0.0 0.7555800702612844
3

H 0.0 0.0 -2.1869359546480136
H 0.0 0.0 0.0
H 0.0 0.0 0.7555800702612844
3

H 0.0 0.0 -2.18793580234317
H 0.0 0.0 0.0
H 0.0 0.0 0.7555626178548471
3

H 0.0 0.0 -2.18893580234317
H 0.0 0.0 0.0
H 0.0 0.0 0.7555626178548471
3

H 0.0 0.0 -2.18993580234317
H 0.0 0.0 0.0
H 0.0 0.0 0.7555626178548471
3

H 0.0 0.0 -2.1909358023431698
H 0.0 0.0 0.0
H 0.0 0.0 0.7555626178548471
3

H 0.0 0.0 -2.1919358023431696
H 0.0 0.0 0.0
H 0.0 0.0 0.7555626178548471
3

H 0.0 0.0 -2.192935802343169
H 0.0 0.0 0.0
H 0.0 0.0 0.7555626178548471
3

H 0.0 0.0 -2.193935802343169
H 0.0 0.0 0.0
H 0.0 0.0 0.7555626178548471
3

H 0.0 0.0 -2.1949358023431693
H 0.0 0.0 0.0
H 0.0 0.0 0.7555626178548471
3

H 0.0 0.0 -2.195935802343169
H 0.0 0.0 0.0
H 0.0 0.0 0.7555626178548471
3

H 0.0 0.0 -2.1969356500383257
H 0.0 0.0 0.0
H 0.0 0.0 0.7555451654484099
3

H 0.0 0.0 -2.1979356500383256
H 0.0 0.0 0.0
H 0.0 0.0 0.7555451654484099
3

H 0.0 0.0 -2.198935650038325
H 0.0 0.0 0.0
H 0.0 0.0 0.7555451654484099
3

H 0.0 0.0 -2.1999356500383254
H 0.0 0.0 0.0
H 0.0 0.0 0.7555451654484099
3

H 0.0 0.0 -2.2009356500383253
H 0.0 0.0 0.0
H 0.0 0.0 0.7555451654484099
3

H 0.0 0.0 -2.201935650038325
H 0.0 0.0 0.0
H 0.0 0.0 0.7555451654484099
3

H 0.0 0.0 -2.202935650038325
H 0.0 0.0 0.0
H 0.0 0.0 0.7555451654484099
3

H 0.0 0.0 -2.203935650038325
H 0.0 0.0 0.0
H 0.0 0.0 0.7555451654484099
3

H 0.0 0.0 -2.2049354977334814
H 0.0 0.0 0.0
H 0.0 0.0 0.7555277130419726
3

H 0.0 0.0 -2.2059354977334813
H 0.0 0.0 0.0
H 0.0 0.0 0.7555277130419726
3

H 0.0 0.0 -2.206935497733481
H 0.0 0.0 0.0
H 0.0 0.0 0.7555277130419726
3

H 0.0 0.0 -2.207935497733481
H 0.0 0.0 0.0
H 0.0 0.0 0.7555277130419726
3

H 0.0 0.0 -2.208935497733481
H 0.0 0.0 0.0
H 0.0 0.0 0.7555277130419726
3

H 0.0 0.0 -2.209935497733481
H 0.0 0.0 0.0
H 0.0 0.0 0.7555277130419726
3

H 0.0 0.0 -2.2109354977334807
H 0.0 0.0 0.0
H 0.0 0.0 0.7555277130419726
3

H 0.0 0.0 -2.2119354977334806
H 0.0 0.0 0.0
H 0.0 0.0 0.7555277130419726
3

H 0.0 0.0 -2.2129354977334805
H 0.0 0.0 0.0
H 0.0 0.0 0.7555277130419726
3

H 0.0 0.0 -2.213935345428637
H 0.0 0.0 0.0
H 0.0 0.0 0.7555102606355354
3

H 0.0 0.0 -2.214935345428637
H 0.0 0.0 0.0
H 0.0 0.0 0.7555102606355354
3

H 0.0 0.0 -2.215935345428637
H 0.0 0.0 0.0
H 0.0 0.0 0.7555102606355354
3

H 0.0 0.0 -2.2169353454286367
H 0.0 0.0 0.0
H 0.0 0.0 0.7555102606355354
3

H 0.0 0.0 -2.217935345428637
H 0.0 0.0 0.0
H 0.0 0.0 0.7555102606355354
3

H 0.0 0.0 -2.2189353454286365
H 0.0 0.0 0.0
H 0.0 0.0 0.7555102606355354
3

H 0.0 0.0 -2.2199353454286364
H 0.0 0.0 0.0
H 0.0 0.0 0.7555102606355354
3

H 0.0 0.0 -2.220935345428636
H 0.0 0.0 0.0
H 0.0 0.0 0.7555102606355354
3

H 0.0 0.0 -2.221935345428636
H 0.0 0.0 0.0
H 0.0 0.0 0.7555102606355354
3

H 0.0 0.0 -2.2229351931237926
H 0.0 0.0 0.0
H 0.0 0.0 0.7554928082290981
3

H 0.0 0.0 -2.2239351931237925
H 0.0 0.0 0.0
H 0.0 0.0 0.7554928082290981
3

H 0.0 0.0 -2.2249351931237924
H 0.0 0.0 0.0
H 0.0 0.0 0.7554928082290981
3

H 0.0 0.0 -2.2259351931237923
H 0.0 0.0 0.0
H 0.0 0.0 0.7554928082290981
3

H 0.0 0.0 -2.226935193123792
H 0.0 0.0 0.0
H 0.0 0.0 0.7554928082290981
3

H 0.0 0.0 -2.227935193123792
H 0.0 0.0 0.0
H 0.0 0.0 0.7554928082290981
3

H 0.0 0.0 -2.228935193123792
H 0.0 0.0 0.0
H 0.0 0.0 0.7554928082290981
3

H 0.0 0.0 -2.229935193123792
H 0.0 0.0 0.0
H 0.0 0.0 0.7554928082290981
3

H 0.0 0.0 -2.230935193123792
H 0.0 0.0 0.0
H 0.0 0.0 0.7554928082290981
3

H 0.0 0.0 -2.231935040818948
H 0.0 0.0 0.0
H 0.0 0.0 0.7554753558226609
3

H 0.0 0.0 -2.232935040818948
H 0.0 0.0 0.0
H 0.0 0.0 0.7554753558226609
3

H 0.0 0.0 -2.233935040818948
H 0.0 0.0 0.0
H 0.0 0.0 0.7554753558226609
3

H 0.0 0.0 -2.234935040818948
H 0.0 0.0 0.0
H 0.0 0.0 0.7554753558226609
3

H 0.0 0.0 -2.235935040818948
H 0.0 0.0 0.0
H 0.0 0.0 0.7554753558226609
3

H 0.0 0.0 -2.236935040818948
H 0.0 0.0 0.0
H 0.0 0.0 0.7554753558226609
3

H 0.0 0.0 -2.237935040818948
H 0.0 0.0 0.0
H 0.0 0.0 0.7554753558226609
3

H 0.0 0.0 -2.2389350408189475
H 0.0 0.0 0.0
H 0.0 0.0 0.7554753558226609
3

H 0.0 0.0 -2.239935040818948
H 0.0 0.0 0.0
H 0.0 0.0 0.7554753558226609
3

H 0.0 0.0 -2.2409350408189472
H 0.0 0.0 0.0
H 0.0 0.0 0.7554753558226609
3

H 0.0 0.0 -2.241934888514104
H 0.0 0.0 0.0
H 0.0 0.0 0.7554579034162237
3

H 0.0 0.0 -2.242934888514104
H 0.0 0.0 0.0
H 0.0 0.0 0.7554579034162237
3

H 0.0 0.0 -2.2439348885141035
H 0.0 0.0 0.0
H 0.0 0.0 0.7554579034162237
3

H 0.0 0.0 -2.2449348885141034
H 0.0 0.0 0.0
H 0.0 0.0 0.7554579034162237
3

H 0.0 0.0 -2.2459348885141037
H 0.0 0.0 0.0
H 0.0 0.0 0.7554579034162237
3

H 0.0 0.0 -2.246934888514103
H 0.0 0.0 0.0
H 0.0 0.0 0.7554579034162237
3

H 0.0 0.0 -2.247934888514103
H 0.0 0.0 0.0
H 0.0 0.0 0.7554579034162237
3

H 0.0 0.0 -2.248934888514103
H 0.0 0.0 0.0
H 0.0 0.0 0.7554579034162237
3

H 0.0 0.0 -2.249934888514103
H 0.0 0.0 0.0
H 0.0 0.0 0.7554579034162237
3

H 0.0 0.0 -2.2509348885141027
H 0.0 0.0 0.0
H 0.0 0.0 0.7554579034162237
3

H 0.0 0.0 -2.2519348885141026
H 0.0 0.0 0.0
H 0.0 0.0 0.7554579034162237
3

H 0.0 0.0 -2.252934736209259
H 0.0 0.0 0.0
H 0.0 0.0 0.7554404510097864
3

H 0.0 0.0 -2.253934736209259
H 0.0 0.0 0.0
H 0.0 0.0 0.7554404510097864
3

H 0.0 0.0 -2.254934736209259
H 0.0 0.0 0.0
H 0.0 0.0 0.7554404510097864
3

H 0.0 0.0 -2.2559347362092588
H 0.0 0.0 0.0
H 0.0 0.0 0.7554404510097864
3

H 0.0 0.0 -2.2569347362092587
H 0.0 0.0 0.0
H 0.0 0.0 0.7554404510097864
3

H 0.0 0.0 -2.2579347362092586
H 0.0 0.0 0.0
H 0.0 0.0 0.7554404510097864
3

H 0.0 0.0 -2.2589347362092584
H 0.0 0.0 0.0
H 0.0 0.0 0.7554404510097864
3

H 0.0 0.0 -2.2599347362092583
H 0.0 0.0 0.0
H 0.0 0.0 0.7554404510097864
3

H 0.0 0.0 -2.2609347362092582
H 0.0 0.0 0.0
H 0.0 0.0 0.7554404510097864
3

H 0.0 0.0 -2.261934736209258
H 0.0 0.0 0.0
H 0.0 0.0 0.7554404510097864
3

H 0.0 0.0 -2.262934736209258
H 0.0 0.0 0.0
H 0.0 0.0 0.7554404510097864
3

H 0.0 0.0 -2.2639345839044145
H 0.0 0.0 0.0
H 0.0 0.0 0.7554229986033492
3

H 0.0 0.0 -2.2649345839044144
H 0.0 0.0 0.0
H 0.0 0.0 0.7554229986033492
3

H 0.0 0.0 -2.2659345839044143
H 0.0 0.0 0.0
H 0.0 0.0 0.7554229986033492
3

H 0.0 0.0 -2.266934583904414
H 0.0 0.0 0.0
H 0.0 0.0 0.7554229986033492
3

H 0.0 0.0 -2.267934583904414
H 0.0 0.0 0.0
H 0.0 0.0 0.7554229986033492
3

H 0.0 0.0 -2.268934583904414
H 0.0 0.0 0.0
H 0.0 0.0 0.7554229986033492
3

H 0.0 0.0 -2.269934583904414
H 0.0 0.0 0.0
H 0.0 0.0 0.7554229986033492
3

H 0.0 0.0 -2.2709345839044137
H 0.0 0.0 0.0
H 0.0 0.0 0.7554229986033492
3

H 0.0 0.0 -2.2719345839044136
H 0.0 0.0 0.0
H 0.0 0.0 0.7554229986033492
3

H 0.0 0.0 -2.272934583904413
H 0.0 0.0 0.0
H 0.0 0.0 0.7554229986033492
3

H 0.0 0.0 -2.2739345839044134
H 0.0 0.0 0.0
H 0.0 0.0 0.7554229986033492
3

H 0.0 0.0 -2.2749345839044133
H 0.0 0.0 0.0
H 0.0 0.0 0.7554229986033492
3

H 0.0 0.0 -2.2759344315995698
H 0.0 0.0 0.0
H 0.0 0.0 0.7554055461969119
3

H 0.0 0.0 -2.2769344315995697
H 0.0 0.0 0.0
H 0.0 0.0 0.7554055461969119
3

H 0.0 0.0 -2.277934431599569
H 0.0 0.0 0.0
H 0.0 0.0 0.7554055461969119
3

H 0.0 0.0 -2.278934431599569
H 0.0 0.0 0.0
H 0.0 0.0 0.7554055461969119
3

H 0.0 0.0 -2.2799344315995693
H 0.0 0.0 0.0
H 0.0 0.0 0.7554055461969119
3

H 0.0 0.0 -2.280934431599569
H 0.0 0.0 0.0
H 0.0 0.0 0.7554055461969119
3

H 0.0 0.0 -2.281934431599569
H 0.0 0.0 0.0
H 0.0 0.0 0.7554055461969119
3

H 0.0 0.0 -2.282934431599569
H 0.0 0.0 0.0
H 0.0 0.0 0.7554055461969119
3

H 0.0 0.0 -2.283934431599569
H 0.0 0.0 0.0
H 0.0 0.0 0.7554055461969119
3

H 0.0 0.0 -2.2849344315995688
H 0.0 0.0 0.0
H 0.0 0.0 0.7554055461969119
3

H 0.0 0.0 -2.2859344315995687
H 0.0 0.0 0.0
H 0.0 0.0 0.7554055461969119
3

H 0.0 0.0 -2.286934431599569
H 0.0 0.0 0.0
H 0.0 0.0 0.7554055461969119
3

H 0.0 0.0 -2.287934279294725
H 0.0 0.0 0.0
H 0.0 0.0 0.7553880937904747
3

H 0.0 0.0 -2.288934279294725
H 0.0 0.0 0.0
H 0.0 0.0 0.7553880937904747
3

H 0.0 0.0 -2.289934279294725
H 0.0 0.0 0.0
H 0.0 0.0 0.7553880937904747
3

H 0.0 0.0 -2.2909342792947247
H 0.0 0.0 0.0
H 0.0 0.0 0.7553880937904747
3

H 0.0 0.0 -2.2919342792947246
H 0.0 0.0 0.0
H 0.0 0.0 0.7553880937904747
3

H 0.0 0.0 -2.2929342792947245
H 0.0 0.0 0.0
H 0.0 0.0 0.7553880937904747
3

H 0.0 0.0 -2.2939342792947244
H 0.0 0.0 0.0
H 0.0 0.0 0.7553880937904747
3

H 0.0 0.0 -2.2949342792947243
H 0.0 0.0 0.0
H 0.0 0.0 0.7553880937904747
3

H 0.0 0.0 -2.295934279294724
H 0.0 0.0 0.0
H 0.0 0.0 0.7553880937904747
3

H 0.0 0.0 -2.296934279294724
H 0.0 0.0 0.0
H 0.0 0.0 0.7553880937904747
3

H 0.0 0.0 -2.297934279294724
H 0.0 0.0 0.0
H 0.0 0.0 0.7553880937904747
3

H 0.0 0.0 -2.298934279294724
H 0.0 0.0 0.0
H 0.0 0.0 0.7553880937904747
3

H 0.0 0.0 -2.299934279294724
H 0.0 0.0 0.0
H 0.0 0.0 0.7553880937904747
3

H 0.0 0.0 -2.30093412698988
H 0.0 0.0 0.0
H 0.0 0.0 0.7553706413840374
3

H 0.0 0.0 -2.30193412698988
H 0.0 0.0 0.0
H 0.0 0.0 0.7553706413840374
3

H 0.0 0.0 -2.30293412698988
H 0.0 0.0 0.0
H 0.0 0.0 0.7553706413840374
3

H 0.0 0.0 -2.30393412698988
H 0.0 0.0 0.0
H 0.0 0.0 0.7553706413840374
3

H 0.0 0.0 -2.30493412698988
H 0.0 0.0 0.0
H 0.0 0.0 0.7553706413840374
3

H 0.0 0.0 -2.30593412698988
H 0.0 0.0 0.0
H 0.0 0.0 0.7553706413840374
3

H 0.0 0.0 -2.3069341269898795
H 0.0 0.0 0.0
H 0.0 0.0 0.7553706413840374
3

H 0.0 0.0 -2.3079341269898794
H 0.0 0.0 0.0
H 0.0 0.0 0.7553706413840374
3

H 0.0 0.0 -2.3089341269898798
H 0.0 0.0 0.0
H 0.0 0.0 0.7553706413840374
3

H 0.0 0.0 -2.309934126989879
H 0.0 0.0 0.0
H 0.0 0.0 0.7553706413840374
3

H 0.0 0.0 -2.310934126989879
H 0.0 0.0 0.0
H 0.0 0.0 0.7553706413840374
3

H 0.0 0.0 -2.311934126989879
H 0.0 0.0 0.0
H 0.0 0.0 0.7553706413840374
3

H 0.0 0.0 -2.312934126989879
H 0.0 0.0 0.0
H 0.0 0.0 0.7553706413840374
3

H 0.0 0.0 -2.3139341269898788
H 0.0 0.0 0.0
H 0.0 0.0 0.7553706413840374
3

H 0.0 0.0 -2.3149339746850357
H 0.0 0.0 0.0
H 0.0 0.0 0.7553531889776002
3

H 0.0 0.0 -2.315933974685035
H 0.0 0.0 0.0
H 0.0 0.0 0.7553531889776002
3

H 0.0 0.0 -2.316933974685035
H 0.0 0.0 0.0
H 0.0 0.0 0.7553531889776002
3

H 0.0 0.0 -2.317933974685035
H 0.0 0.0 0.0
H 0.0 0.0 0.7553531889776002
3

H 0.0 0.0 -2.318933974685035
H 0.0 0.0 0.0
H 0.0 0.0 0.7553531889776002
3

H 0.0 0.0 -2.3199339746850347
H 0.0 0.0 0.0
H 0.0 0.0 0.7553531889776002
3

H 0.0 0.0 -2.3209339746850346
H 0.0 0.0 0.0
H 0.0 0.0 0.7553531889776002
3

H 0.0 0.0 -2.3219339746850345
H 0.0 0.0 0.0
H 0.0 0.0 0.7553531889776002
3

H 0.0 0.0 -2.3229339746850344
H 0.0 0.0 0.0
H 0.0 0.0 0.7553531889776002
3

H 0.0 0.0 -2.3239339746850343
H 0.0 0.0 0.0
H 0.0 0.0 0.7553531889776002
3

H 0.0 0.0 -2.324933974685034
H 0.0 0.0 0.0
H 0.0 0.0 0.7553531889776002
3

H 0.0 0.0 -2.325933974685034
H 0.0 0.0 0.0
H 0.0 0.0 0.7553531889776002
3

H 0.0 0.0 -2.326933974685034
H 0.0 0.0 0.0
H 0.0 0.0 0.7553531889776002
3

H 0.0 0.0 -2.327933974685034
H 0.0 0.0 0.0
H 0.0 0.0 0.7553531889776002
3

H 0.0 0.0 -2.3289339746850337
H 0.0 0.0 0.0
H 0.0 0.0 0.7553531889776002
3

H 0.0 0.0 -2.32993382238019
H 0.0 0.0 0.0
H 0.0 0.0 0.7553357365711629
3

H 0.0 0.0 -2.33093382238019
H 0.0 0.0 0.0
H 0.0 0.0 0.7553357365711629
3

H 0.0 0.0 -2.33193382238019
H 0.0 0.0 0.0
H 0.0 0.0 0.7553357365711629
3

H 0.0 0.0 -2.33293382238019
H 0.0 0.0 0.0
H 0.0 0.0 0.7553357365711629
3

H 0.0 0.0 -2.3339338223801898
H 0.0 0.0 0.0
H 0.0 0.0 0.7553357365711629
3

H 0.0 0.0 -2.3349338223801896
H 0.0 0.0 0.0
H 0.0 0.0 0.7553357365711629
3

H 0.0 0.0 -2.335933822380189
H 0.0 0.0 0.0
H 0.0 0.0 0.7553357365711629
3

H 0.0 0.0 -2.336933822380189
H 0.0 0.0 0.0
H 0.0 0.0 0.7553357365711629
3

H 0.0 0.0 -2.3379338223801893
H 0.0 0.0 0.0
H 0.0 0.0 0.7553357365711629
3

H 0.0 0.0 -2.338933822380189
H 0.0 0.0 0.0
H 0.0 0.0 0.7553357365711629
3

H 0.0 0.0 -2.339933822380189
H 0.0 0.0 0.0
H 0.0 0.0 0.7553357365711629
3

H 0.0 0.0 -2.340933822380189
H 0.0 0.0 0.0
H 0.0 0.0 0.7553357365711629
3

H 0.0 0.0 -2.341933822380189
H 0.0 0.0 0.0
H 0.0 0.0 0.7553357365711629
3

H 0.0 0.0 -2.3429338223801888
H 0.0 0.0 0.0
H 0.0 0.0 0.7553357365711629
3

H 0.0 0.0 -2.3439338223801887
H 0.0 0.0 0.0
H 0.0 0.0 0.7553357365711629
3

H 0.0 0.0 -2.3449338223801885
H 0.0 0.0 0.0
H 0.0 0.0 0.7553357365711629
3

H 0.0 0.0 -2.3459338223801884
H 0.0 0.0 0.0
H 0.0 0.0 0.7553357365711629
3

H 0.0 0.0 -2.346933670075345
H 0.0 0.0 0.0
H 0.0 0.0 0.7553182841647257
3

H 0.0 0.0 -2.347933670075345
H 0.0 0.0 0.0
H 0.0 0.0 0.7553182841647257
3

H 0.0 0.0 -2.3489336700753447
H 0.0 0.0 0.0
H 0.0 0.0 0.7553182841647257
3

H 0.0 0.0 -2.3499336700753446
H 0.0 0.0 0.0
H 0.0 0.0 0.7553182841647257
3

H 0.0 0.0 -2.3509336700753445
H 0.0 0.0 0.0
H 0.0 0.0 0.7553182841647257
3

H 0.0 0.0 -2.3519336700753444
H 0.0 0.0 0.0
H 0.0 0.0 0.7553182841647257
3

H 0.0 0.0 -2.3529336700753443
H 0.0 0.0 0.0
H 0.0 0.0 0.7553182841647257
3

H 0.0 0.0 -2.353933670075344
H 0.0 0.0 0.0
H 0.0 0.0 0.7553182841647257
3

H 0.0 0.0 -2.354933670075344
H 0.0 0.0 0.0
H 0.0 0.0 0.7553182841647257
3

H 0.0 0.0 -2.355933670075344
H 0.0 0.0 0.0
H 0.0 0.0 0.7553182841647257
3

H 0.0 0.0 -2.356933670075344
H 0.0 0.0 0.0
H 0.0 0.0 0.7553182841647257
3

H 0.0 0.0 -2.357933670075344
H 0.0 0.0 0.0
H 0.0 0.0 0.7553182841647257
3

H 0.0 0.0 -2.358933670075344
H 0.0 0.0 0.0
H 0.0 0.0 0.7553182841647257
3

H 0.0 0.0 -2.3599336700753435
H 0.0 0.0 0.0
H 0.0 0.0 0.7553182841647257
3

H 0.0 0.0 -2.3609336700753434
H 0.0 0.0 0.0
H 0.0 0.0 0.7553182841647257
3

H 0.0 0.0 -2.3619336700753437
H 0.0 0.0 0.0
H 0.0 0.0 0.7553182841647257
3

H 0.0 0.0 -2.362933670075343
H 0.0 0.0 0.0
H 0.0 0.0 0.7553182841647257
3

H 0.0 0.0 -2.3639335177705
H 0.0 0.0 0.0
H 0.0 0.0 0.7553008317582884
3

H 0.0 0.0 -2.3649335177704995
H 0.0 0.0 0.0
H 0.0 0.0 0.7553008317582884
3

H 0.0 0.0 -2.3659335177704994
H 0.0 0.0 0.0
H 0.0 0.0 0.7553008317582884
3

H 0.0 0.0 -2.3669335177704998
H 0.0 0.0 0.0
H 0.0 0.0 0.7553008317582884
3

H 0.0 0.0 -2.367933517770499
H 0.0 0.0 0.0
H 0.0 0.0 0.7553008317582884
3

H 0.0 0.0 -2.368933517770499
H 0.0 0.0 0.0
H 0.0 0.0 0.7553008317582884
3

H 0.0 0.0 -2.369933517770499
H 0.0 0.0 0.0
H 0.0 0.0 0.7553008317582884
3

H 0.0 0.0 -2.370933517770499
H 0.0 0.0 0.0
H 0.0 0.0 0.7553008317582884
3

H 0.0 0.0 -2.3719335177704988
H 0.0 0.0 0.0
H 0.0 0.0 0.7553008317582884
3

H 0.0 0.0 -2.3729335177704987
H 0.0 0.0 0.0
H 0.0 0.0 0.7553008317582884
3

H 0.0 0.0 -2.3739335177704985
H 0.0 0.0 0.0
H 0.0 0.0 0.7553008317582884
3

H 0.0 0.0 -2.3749335177704984
H 0.0 0.0 0.0
H 0.0 0.0 0.7553008317582884
3

H 0.0 0.0 -2.3759335177704983
H 0.0 0.0 0.0
H 0.0 0.0 0.7553008317582884
3

H 0.0 0.0 -2.376933517770498
H 0.0 0.0 0.0
H 0.0 0.0 0.7553008317582884
3

H 0.0 0.0 -2.377933517770498
H 0.0 0.0 0.0
H 0.0 0.0 0.7553008317582884
3

H 0.0 0.0 -2.378933517770498
H 0.0 0.0 0.0
H 0.0 0.0 0.7553008317582884
3

H 0.0 0.0 -2.379933517770498
H 0.0 0.0 0.0
H 0.0 0.0 0.7553008317582884
3

H 0.0 0.0 -2.3809335177704978
H 0.0 0.0 0.0
H 0.0 0.0 0.7553008317582884
3

H 0.0 0.0 -2.3819335177704977
H 0.0 0.0 0.0
H 0.0 0.0 0.7553008317582884
3

H 0.0 0.0 -2.3829335177704976
H 0.0 0.0 0.0
H 0.0 0.0 0.7553008317582884
3

H 0.0 0.0 -2.383933365465654
H 0.0 0.0 0.0
H 0.0 0.0 0.7552833793518512
3

H 0.0 0.0 -2.384933365465654
H 0.0 0.0 0.0
H 0.0 0.0 0.7552833793518512
3

H 0.0 0.0 -2.385933365465654
H 0.0 0.0 0.0
H 0.0 0.0 0.7552833793518512
3

H 0.0 0.0 -2.3869333654656537
H 0.0 0.0 0.0
H 0.0 0.0 0.7552833793518512
3

H 0.0 0.0 -2.3879333654656536
H 0.0 0.0 0.0
H 0.0 0.0 0.7552833793518512
3

H 0.0 0.0 -2.388933365465653
H 0.0 0.0 0.0
H 0.0 0.0 0.7552833793518512
3

H 0.0 0.0 -2.3899333654656534
H 0.0 0.0 0.0
H 0.0 0.0 0.7552833793518512
3

H 0.0 0.0 -2.3909333654656533
H 0.0 0.0 0.0
H 0.0 0.0 0.7552833793518512
3

H 0.0 0.0 -2.391933365465653
H 0.0 0.0 0.0
H 0.0 0.0 0.7552833793518512
3

H 0.0 0.0 -2.392933365465653
H 0.0 0.0 0.0
H 0.0 0.0 0.7552833793518512
3

H 0.0 0.0 -2.393933365465653
H 0.0 0.0 0.0
H 0.0 0.0 0.7552833793518512
3

H 0.0 0.0 -2.394933365465653
H 0.0 0.0 0.0
H 0.0 0.0 0.7552833793518512
3

H 0.0 0.0 -2.3959333654656527
H 0.0 0.0 0.0
H 0.0 0.0 0.7552833793518512
3

H 0.0 0.0 -2.3969333654656526
H 0.0 0.0 0.0
H 0.0 0.0 0.7552833793518512
3

H 0.0 0.0 -2.3979333654656525
H 0.0 0.0 0.0
H 0.0 0.0 0.7552833793518512
3

H 0.0 0.0 -2.3989333654656524
H 0.0 0.0 0.0
H 0.0 0.0 0.7552833793518512
3

H 0.0 0.0 -2.3999333654656523
H 0.0 0.0 0.0
H 0.0 0.0 0.7552833793518512
3

H 0.0 0.0 -2.400933365465652
H 0.0 0.0 0.0
H 0.0 0.0 0.7552833793518512
3

H 0.0 0.0 -2.401933365465652
H 0.0 0.0 0.0
H 0.0 0.0 0.7552833793518512
3

H 0.0 0.0 -2.402933365465652
H 0.0 0.0 0.0
H 0.0 0.0 0.7552833793518512
3

H 0.0 0.0 -2.403933365465652
H 0.0 0.0 0.0
H 0.0 0.0 0.7552833793518512
3

H 0.0 0.0 -2.404933365465652
H 0.0 0.0 0.0
H 0.0 0.0 0.7552833793518512
3

H 0.0 0.0 -2.405933213160808
H 0.0 0.0 0.0
H 0.0 0.0 0.755265926945414
3

H 0.0 0.0 -2.406933213160808
H 0.0 0.0 0.0
H 0.0 0.0 0.755265926945414
3

H 0.0 0.0 -2.407933213160808
H 0.0 0.0 0.0
H 0.0 0.0 0.755265926945414
3

H 0.0 0.0 -2.408933213160808
H 0.0 0.0 0.0
H 0.0 0.0 0.755265926945414
3

H 0.0 0.0 -2.409933213160808
H 0.0 0.0 0.0
H 0.0 0.0 0.755265926945414
3

H 0.0 0.0 -2.410933213160808
H 0.0 0.0 0.0
H 0.0 0.0 0.755265926945414
3

H 0.0 0.0 -2.411933213160808
H 0.0 0.0 0.0
H 0.0 0.0 0.755265926945414
3

H 0.0 0.0 -2.4129332131608074
H 0.0 0.0 0.0
H 0.0 0.0 0.755265926945414
3

H 0.0 0.0 -2.413933213160808
H 0.0 0.0 0.0
H 0.0 0.0 0.755265926945414
3

H 0.0 0.0 -2.4149332131608072
H 0.0 0.0 0.0
H 0.0 0.0 0.755265926945414
3

H 0.0 0.0 -2.415933213160807
H 0.0 0.0 0.0
H 0.0 0.0 0.755265926945414
3

H 0.0 0.0 -2.416933213160807
H 0.0 0.0 0.0
H 0.0 0.0 0.755265926945414
3

H 0.0 0.0 -2.417933213160807
H 0.0 0.0 0.0
H 0.0 0.0 0.755265926945414
3

H 0.0 0.0 -2.418933213160807
H 0.0 0.0 0.0
H 0.0 0.0 0.755265926945414
3

H 0.0 0.0 -2.4199332131608067
H 0.0 0.0 0.0
H 0.0 0.0 0.755265926945414
3

H 0.0 0.0 -2.4209332131608066
H 0.0 0.0 0.0
H 0.0 0.0 0.755265926945414
3

H 0.0 0.0 -2.4219332131608065
H 0.0 0.0 0.0
H 0.0 0.0 0.755265926945414
3

H 0.0 0.0 -2.4229332131608063
H 0.0 0.0 0.0
H 0.0 0.0 0.755265926945414
3

H 0.0 0.0 -2.4239332131608062
H 0.0 0.0 0.0
H 0.0 0.0 0.755265926945414
3

H 0.0 0.0 -2.424933213160806
H 0.0 0.0 0.0
H 0.0 0.0 0.755265926945414
3

H 0.0 0.0 -2.425933213160806
H 0.0 0.0 0.0
H 0.0 0.0 0.755265926945414
3

H 0.0 0.0 -2.426933213160806
H 0.0 0.0 0.0
H 0.0 0.0 0.755265926945414
3

H 0.0 0.0 -2.427933213160806
H 0.0 0.0 0.0
H 0.0 0.0 0.755265926945414
3

H 0.0 0.0 -2.4289332131608057
H 0.0 0.0 0.0
H 0.0 0.0 0.755265926945414
3

H 0.0 0.0 -2.4299332131608056
H 0.0 0.0 0.0
H 0.0 0.0 0.755265926945414
3

H 0.0 0.0 -2.430933060855962
H 0.0 0.0 0.0
H 0.0 0.0 0.7552484745389767
3

H 0.0 0.0 -2.431933060855962
H 0.0 0.0 0.0
H 0.0 0.0 0.7552484745389767
3

H 0.0 0.0 -2.432933060855962
H 0.0 0.0 0.0
H 0.0 0.0 0.7552484745389767
3

H 0.0 0.0 -2.4339330608559617
H 0.0 0.0 0.0
H 0.0 0.0 0.7552484745389767
3

H 0.0 0.0 -2.4349330608559616
H 0.0 0.0 0.0
H 0.0 0.0 0.7552484745389767
3

H 0.0 0.0 -2.435933060855961
H 0.0 0.0 0.0
H 0.0 0.0 0.7552484745389767
3

H 0.0 0.0 -2.4369330608559614
H 0.0 0.0 0.0
H 0.0 0.0 0.7552484745389767
3

H 0.0 0.0 -2.4379330608559613
H 0.0 0.0 0.0
H 0.0 0.0 0.7552484745389767
3

H 0.0 0.0 -2.438933060855961
H 0.0 0.0 0.0
H 0.0 0.0 0.7552484745389767
3

H 0.0 0.0 -2.439933060855961
H 0.0 0.0 0.0
H 0.0 0.0 0.7552484745389767
3

H 0.0 0.0 -2.440933060855961
H 0.0 0.0 0.0
H 0.0 0.0 0.7552484745389767
3

H 0.0 0.0 -2.441933060855961
H 0.0 0.0 0.0
H 0.0 0.0 0.7552484745389767
3

H 0.0 0.0 -2.4429330608559607
H 0.0 0.0 0.0
H 0.0 0.0 0.7552484745389767
3

H 0.0 0.0 -2.4439330608559606
H 0.0 0.0 0.0
H 0.0 0.0 0.7552484745389767
3

H 0.0 0.0 -2.4449330608559605
H 0.0 0.0 0.0
H 0.0 0.0 0.7552484745389767
3

H 0.0 0.0 -2.4459330608559604
H 0.0 0.0 0.0
H 0.0 0.0 0.7552484745389767
3

H 0.0 0.0 -2.4469330608559603
H 0.0 0.0 0.0
H 0.0 0.0 0.7552484745389767
3

H 0.0 0.0 -2.44793306085596
H 0.0 0.0 0.0
H 0.0 0.0 0.7552484745389767
3

H 0.0 0.0 -2.44893306085596
H 0.0 0.0 0.0
H 0.0 0.0 0.7552484745389767
3

H 0.0 0.0 -2.44993306085596
H 0.0 0.0 0.0
H 0.0 0.0 0.7552484745389767
3

H 0.0 0.0 -2.45093306085596
H 0.0 0.0 0.0
H 0.0 0.0 0.7552484745389767
3

H 0.0 0.0 -2.45193306085596
H 0.0 0.0 0.0
H 0.0 0.0 0.7552484745389767
3

H 0.0 0.0 -2.45293306085596
H 0.0 0.0 0.0
H 0.0 0.0 0.7552484745389767
3

H 0.0 0.0 -2.4539330608559595
H 0.0 0.0 0.0
H 0.0 0.0 0.7552484745389767
3

H 0.0 0.0 -2.4549330608559594
H 0.0 0.0 0.0
H 0.0 0.0 0.7552484745389767
3

H 0.0 0.0 -2.4559330608559597
H 0.0 0.0 0.0
H 0.0 0.0 0.7552484745389767
3

H 0.0 0.0 -2.456933060855959
H 0.0 0.0 0.0
H 0.0 0.0 0.7552484745389767
3

H 0.0 0.0 -2.457933060855959
H 0.0 0.0 0.0
H 0.0 0.0 0.7552484745389767
3

H 0.0 0.0 -2.458933060855959
H 0.0 0.0 0.0
H 0.0 0.0 0.7552484745389767
3

H 0.0 0.0 -2.4599329085511155
H 0.0 0.0 0.0
H 0.0 0.0 0.7552310221325395
3

H 0.0 0.0 -2.460932908551116
H 0.0 0.0 0.0
H 0.0 0.0 0.7552310221325395
3

H 0.0 0.0 -2.4619329085511152
H 0.0 0.0 0.0
H 0.0 0.0 0.7552310221325395
3

H 0.0 0.0 -2.462932908551115
H 0.0 0.0 0.0
H 0.0 0.0 0.7552310221325395
3

H 0.0 0.0 -2.463932908551115
H 0.0 0.0 0.0
H 0.0 0.0 0.7552310221325395
3

H 0.0 0.0 -2.464932908551115
H 0.0 0.0 0.0
H 0.0 0.0 0.7552310221325395
3

H 0.0 0.0 -2.465932908551115
H 0.0 0.0 0.0
H 0.0 0.0 0.7552310221325395
3

H 0.0 0.0 -2.4669329085511147
H 0.0 0.0 0.0
H 0.0 0.0 0.7552310221325395
3

H 0.0 0.0 -2.4679329085511146
H 0.0 0.0 0.0
H 0.0 0.0 0.7552310221325395
3

H 0.0 0.0 -2.4689329085511145
H 0.0 0.0 0.0
H 0.0 0.0 0.7552310221325395
3

H 0.0 0.0 -2.4699329085511144
H 0.0 0.0 0.0
H 0.0 0.0 0.7552310221325395
3

H 0.0 0.0 -2.4709329085511142
H 0.0 0.0 0.0
H 0.0 0.0 0.7552310221325395
3

H 0.0 0.0 -2.471932908551114
H 0.0 0.0 0.0
H 0.0 0.0 0.7552310221325395
3

H 0.0 0.0 -2.472932908551114
H 0.0 0.0 0.0
H 0.0 0.0 0.7552310221325395
3

H 0.0 0.0 -2.473932908551114
H 0.0 0.0 0.0
H 0.0 0.0 0.7552310221325395
3

H 0.0 0.0 -2.474932908551114
H 0.0 0.0 0.0
H 0.0 0.0 0.7552310221325395
3

H 0.0 0.0 -2.4759329085511137
H 0.0 0.0 0.0
H 0.0 0.0 0.7552310221325395
3

H 0.0 0.0 -2.4769329085511136
H 0.0 0.0 0.0
H 0.0 0.0 0.7552310221325395
3

H 0.0 0.0 -2.477932908551113
H 0.0 0.0 0.0
H 0.0 0.0 0.7552310221325395
3

H 0.0 0.0 -2.4789329085511134
H 0.0 0.0 0.0
H 0.0 0.0 0.7552310221325395
3

H 0.0 0.0 -2.4799329085511133
H 0.0 0.0 0.0
H 0.0 0.0 0.7552310221325395
3

H 0.0 0.0 -2.480932908551113
H 0.0 0.0 0.0
H 0.0 0.0 0.7552310221325395
3

H 0.0 0.0 -2.481932908551113
H 0.0 0.0 0.0
H 0.0 0.0 0.7552310221325395
3

H 0.0 0.0 -2.482932908551113
H 0.0 0.0 0.0
H 0.0 0.0 0.7552310221325395
3

H 0.0 0.0 -2.483932908551113
H 0.0 0.0 0.0
H 0.0 0.0 0.7552310221325395
3

H 0.0 0.0 -2.4849329085511127
H 0.0 0.0 0.0
H 0.0 0.0 0.7552310221325395
3

H 0.0 0.0 -2.4859329085511126
H 0.0 0.0 0.0
H 0.0 0.0 0.7552310221325395
3

H 0.0 0.0 -2.4869329085511125
H 0.0 0.0 0.0
H 0.0 0.0 0.7552310221325395
3

H 0.0 0.0 -2.4879329085511124
H 0.0 0.0 0.0
H 0.0 0.0 0.7552310221325395
3

H 0.0 0.0 -2.488932756246269
H 0.0 0.0 0.0
H 0.0 0.0 0.7552135697261022
3

H 0.0 0.0 -2.4899327562462688
H 0.0 0.0 0.0
H 0.0 0.0 0.7552135697261022
3

H 0.0 0.0 -2.4909327562462686
H 0.0 0.0 0.0
H 0.0 0.0 0.7552135697261022
3

H 0.0 0.0 -2.4919327562462685
H 0.0 0.0 0.0
H 0.0 0.0 0.7552135697261022
3

H 0.0 0.0 -2.4929327562462684
H 0.0 0.0 0.0
H 0.0 0.0 0.7552135697261022
3

H 0.0 0.0 -2.4939327562462683
H 0.0 0.0 0.0
H 0.0 0.0 0.7552135697261022
3

H 0.0 0.0 -2.494932603941425
H 0.0 0.0 0.0
H 0.0 0.0 0.7552310221325395
3

H 0.0 0.0 -2.4959326039414247
H 0.0 0.0 0.0
H 0.0 0.0 0.7552310221325395
3

H 0.0 0.0 -2.496932603941425
H 0.0 0.0 0.0
H 0.0 0.0 0.7552310221325395
3

H 0.0 0.0 -2.497932451636581
H 0.0 0.0 0.0
H 0.0 0.0 0.7552135697261022
3

H 0.0 0.0 -2.498932299331737
H 0.0 0.0 0.0
H 0.0 0.0 0.755196117319665
3

H 0.0 0.0 -2.499932147026894
H 0.0 0.0 0.0
H 0.0 0.0 0.7551786649132277
3

H 0.0 0.0 -2.500931537853913
H 0.0 0.0 0.0
H 0.0 0.0 0.7552135644099303
