3

H 0.0 0.0 -2.9987407426090287
H 0.0 0.0 0.0
H 0.0 0.0 0.740748752283685
3

H 0.0 0.0 -2.9977413517820097
H 0.0 0.0 0.0
H 0.0 0.0 0.7407836517803875
3

H 0.0 0.0 -2.996741504086853
H 0.0 0.0 0.0
H 0.0 0.0 0.7408011041868248
3

H 0.0 0.0 -2.9957416563916968
H 0.0 0.0 0.0
H 0.0 0.0 0.740818556593262
3

H 0.0 0.0 -2.994741656391697
H 0.0 0.0 0.0
H 0.0 0.0 0.740818556593262
3

H 0.0 0.0 -2.9937418086965404
H 0.0 0.0 0.0
H 0.0 0.0 0.7408011041868248
3

H 0.0 0.0 -2.992741961001384
H 0.0 0.0 0.0
H 0.0 0.0 0.7407836517803875
3

H 0.0 0.0 -2.9917421133062274
H 0.0 0.0 0.0
H 0.0 0.0 0.7407661993739503
3

H 0.0 0.0 -2.990742265611071
H 0.0 0.0 0.0
H 0.0 0.0 0.740748746967513
3

H 0.0 0.0 -2.989742265611071
H 0.0 0.0 0.0
H 0.0 0.0 0.740748746967513
3

H 0.0 0.0 -2.9887424179159146
H 0.0 0.0 0.0
H 0.0 0.0 0.7407661993739503
3

H 0.0 0.0 -2.9877424179159147
H 0.0 0.0 0.0
H 0.0 0.0 0.7407661993739503
3

H 0.0 0.0 -2.9867424179159148
H 0.0 0.0 0.0
H 0.0 0.0 0.7407661993739503
3

H 0.0 0.0 -2.985742417915915
H 0.0 0.0 0.0
H 0.0 0.0 0.7407661993739503
3

H 0.0 0.0 -2.984742417915915
H 0.0 0.0 0.0
H 0.0 0.0 0.7407661993739503
3

H 0.0 0.0 -2.983742417915915
H 0.0 0.0 0.0
H 0.0 0.0 0.7407661993739503
3

H 0.0 0.0 -2.982742417915915
H 0.0 0.0 0.0
H 0.0 0.0 0.7407661993739503
3

H 0.0 0.0 -2.9817424179159158
H 0.0 0.0 0.0
H 0.0 0.0 0.7407661993739503
3

H 0.0 0.0 -2.9807424179159154
H 0.0 0.0 0.0
H 0.0 0.0 0.7407661993739503
3

H 0.0 0.0 -2.9797424179159155
H 0.0 0.0 0.0
H 0.0 0.0 0.7407661993739503
3

H 0.0 0.0 -2.978742417915916
H 0.0 0.0 0.0
H 0.0 0.0 0.7407661993739503
3

H 0.0 0.0 -2.977742417915916
H 0.0 0.0 0.0
H 0.0 0.0 0.7407661993739503
3

H 0.0 0.0 -2.976742417915916
H 0.0 0.0 0.0
H 0.0 0.0 0.7407661993739503
3

H 0.0 0.0 -2.975742417915916
H 0.0 0.0 0.0
H 0.0 0.0 0.7407661993739503
3

H 0.0 0.0 -2.974742417915916
H 0.0 0.0 0.0
H 0.0 0.0 0.7407661993739503
3

H 0.0 0.0 -2.973742417915916
H 0.0 0.0 0.0
H 0.0 0.0 0.7407661993739503
3

H 0.0 0.0 -2.9727424179159163
H 0.0 0.0 0.0
H 0.0 0.0 0.7407661993739503
3

H 0.0 0.0 -2.9717424179159164
H 0.0 0.0 0.0
H 0.0 0.0 0.7407661993739503
3

H 0.0 0.0 -2.9707424179159165
H 0.0 0.0 0.0
H 0.0 0.0 0.7407661993739503
3

H 0.0 0.0 -2.9697424179159166
H 0.0 0.0 0.0
H 0.0 0.0 0.7407661993739503
3

H 0.0 0.0 -2.9687424179159168
H 0.0 0.0 0.0
H 0.0 0.0 0.7407661993739503
3

H 0.0 0.0 -2.967742417915917
H 0.0 0.0 0.0
H 0.0 0.0 0.7407661993739503
3

H 0.0 0.0 -2.966742417915917
H 0.0 0.0 0.0
H 0.0 0.0 0.7407661993739503
3

H 0.0 0.0 -2.965742417915917
H 0.0 0.0 0.0
H 0.0 0.0 0.7407661993739503
3

H 0.0 0.0 -2.964742417915917
H 0.0 0.0 0.0
H 0.0 0.0 0.7407661993739503
3

H 0.0 0.0 -2.9637425702207607
H 0.0 0.0 0.0
H 0.0 0.0 0.7407836517803875
3

H 0.0 0.0 -2.962742570220761
H 0.0 0.0 0.0
H 0.0 0.0 0.7407836517803875
3

H 0.0 0.0 -2.961742570220761
H 0.0 0.0 0.0
H 0.0 0.0 0.7407836517803875
3

H 0.0 0.0 -2.960742570220761
H 0.0 0.0 0.0
H 0.0 0.0 0.7407836517803875
3

H 0.0 0.0 -2.959742570220761
H 0.0 0.0 0.0
H 0.0 0.0 0.7407836517803875
3

H 0.0 0.0 -2.9587425702207613
H 0.0 0.0 0.0
H 0.0 0.0 0.7407836517803875
3

H 0.0 0.0 -2.9577425702207614
H 0.0 0.0 0.0
H 0.0 0.0 0.7407836517803875
3

H 0.0 0.0 -2.956742570220761
H 0.0 0.0 0.0
H 0.0 0.0 0.7407836517803875
3

H 0.0 0.0 -2.9557425702207616
H 0.0 0.0 0.0
H 0.0 0.0 0.7407836517803875
3

H 0.0 0.0 -2.9547425702207617
H 0.0 0.0 0.0
H 0.0 0.0 0.7407836517803875
3

H 0.0 0.0 -2.953742570220762
H 0.0 0.0 0.0
H 0.0 0.0 0.7407836517803875
3

H 0.0 0.0 -2.952742570220762
H 0.0 0.0 0.0
H 0.0 0.0 0.7407836517803875
3

H 0.0 0.0 -2.951742570220762
H 0.0 0.0 0.0
H 0.0 0.0 0.7407836517803875
3

H 0.0 0.0 -2.950742570220762
H 0.0 0.0 0.0
H 0.0 0.0 0.7407836517803875
3

H 0.0 0.0 -2.9497425702207622
H 0.0 0.0 0.0
H 0.0 0.0 0.7407836517803875
3

H 0.0 0.0 -2.9487425702207624
H 0.0 0.0 0.0
H 0.0 0.0 0.7407836517803875
3

H 0.0 0.0 -2.9477425702207625
H 0.0 0.0 0.0
H 0.0 0.0 0.7407836517803875
3

H 0.0 0.0 -2.9467425702207626
H 0.0 0.0 0.0
H 0.0 0.0 0.7407836517803875
3

H 0.0 0.0 -2.9457425702207627
H 0.0 0.0 0.0
H 0.0 0.0 0.7407836517803875
3

H 0.0 0.0 -2.944742570220763
H 0.0 0.0 0.0
H 0.0 0.0 0.7407836517803875
3

H 0.0 0.0 -2.943742570220763
H 0.0 0.0 0.0
H 0.0 0.0 0.7407836517803875
3

H 0.0 0.0 -2.942742570220763
H 0.0 0.0 0.0
H 0.0 0.0 0.7407836517803875
3

H 0.0 0.0 -2.941742570220763
H 0.0 0.0 0.0
H 0.0 0.0 0.7407836517803875
3

H 0.0 0.0 -2.9407425702207632
H 0.0 0.0 0.0
H 0.0 0.0 0.7407836517803875
3

H 0.0 0.0 -2.939742570220764
H 0.0 0.0 0.0
H 0.0 0.0 0.7407836517803875
3

H 0.0 0.0 -2.9387425702207635
H 0.0 0.0 0.0
H 0.0 0.0 0.7407836517803875
3

H 0.0 0.0 -2.937742570220764
H 0.0 0.0 0.0
H 0.0 0.0 0.7407836517803875
3

H 0.0 0.0 -2.936742570220764
H 0.0 0.0 0.0
H 0.0 0.0 0.7407836517803875
3

H 0.0 0.0 -2.935742570220764
H 0.0 0.0 0.0
H 0.0 0.0 0.7407836517803875
3

H 0.0 0.0 -2.934742570220764
H 0.0 0.0 0.0
H 0.0 0.0 0.7407836517803875
3

H 0.0 0.0 -2.933742570220764
H 0.0 0.0 0.0
H 0.0 0.0 0.7407836517803875
3

H 0.0 0.0 -2.932742570220764
H 0.0 0.0 0.0
H 0.0 0.0 0.7407836517803875
3

H 0.0 0.0 -2.931742570220764
H 0.0 0.0 0.0
H 0.0 0.0 0.7407836517803875
3

H 0.0 0.0 -2.9307425702207643
H 0.0 0.0 0.0
H 0.0 0.0 0.7407836517803875
3

H 0.0 0.0 -2.9297425702207645
H 0.0 0.0 0.0
H 0.0 0.0 0.7407836517803875
3

H 0.0 0.0 -2.928742570220765
H 0.0 0.0 0.0
H 0.0 0.0 0.7407836517803875
3

H 0.0 0.0 -2.9277425702207647
H 0.0 0.0 0.0
H 0.0 0.0 0.7407836517803875
3

H 0.0 0.0 -2.926742570220765
H 0.0 0.0 0.0
H 0.0 0.0 0.7407836517803875
3

H 0.0 0.0 -2.925742570220765
H 0.0 0.0 0.0
H 0.0 0.0 0.7407836517803875
3

H 0.0 0.0 -2.924742570220765
H 0.0 0.0 0.0
H 0.0 0.0 0.7407836517803875
3

H 0.0 0.0 -2.923742570220765
H 0.0 0.0 0.0
H 0.0 0.0 0.7407836517803875
3

H 0.0 0.0 -2.922742570220765
H 0.0 0.0 0.0
H 0.0 0.0 0.7407836517803875
3

H 0.0 0.0 -2.9217425702207653
H 0.0 0.0 0.0
H 0.0 0.0 0.7407836517803875
3

H 0.0 0.0 -2.920742570220765
H 0.0 0.0 0.0
H 0.0 0.0 0.7407836517803875
3

H 0.0 0.0 -2.9197425702207656
H 0.0 0.0 0.0
H 0.0 0.0 0.7407836517803875
3

H 0.0 0.0 -2.9187425702207657
H 0.0 0.0 0.0
H 0.0 0.0 0.7407836517803875
3

H 0.0 0.0 -2.9177425702207658
H 0.0 0.0 0.0
H 0.0 0.0 0.7407836517803875
3

H 0.0 0.0 -2.916742570220766
H 0.0 0.0 0.0
H 0.0 0.0 0.7407836517803875
3

H 0.0 0.0 -2.915742570220766
H 0.0 0.0 0.0
H 0.0 0.0 0.7407836517803875
3

H 0.0 0.0 -2.914742570220766
H 0.0 0.0 0.0
H 0.0 0.0 0.7407836517803875
3

H 0.0 0.0 -2.913742570220766
H 0.0 0.0 0.0
H 0.0 0.0 0.7407836517803875
3

H 0.0 0.0 -2.9127425702207663
H 0.0 0.0 0.0
H 0.0 0.0 0.7407836517803875
3

H 0.0 0.0 -2.9117425702207664
H 0.0 0.0 0.0
H 0.0 0.0 0.7407836517803875
3

H 0.0 0.0 -2.9107425702207665
H 0.0 0.0 0.0
H 0.0 0.0 0.7407836517803875
3

H 0.0 0.0 -2.9097425702207667
H 0.0 0.0 0.0
H 0.0 0.0 0.7407836517803875
3

H 0.0 0.0 -2.9087425702207668
H 0.0 0.0 0.0
H 0.0 0.0 0.7407836517803875
3

H 0.0 0.0 -2.907742570220767
H 0.0 0.0 0.0
H 0.0 0.0 0.7407836517803875
3

H 0.0 0.0 -2.906742570220767
H 0.0 0.0 0.0
H 0.0 0.0 0.7407836517803875
3

H 0.0 0.0 -2.905742570220767
H 0.0 0.0 0.0
H 0.0 0.0 0.7407836517803875
3

H 0.0 0.0 -2.904742570220767
H 0.0 0.0 0.0
H 0.0 0.0 0.7407836517803875
3

H 0.0 0.0 -2.9037425702207678
H 0.0 0.0 0.0
H 0.0 0.0 0.7407836517803875
3

H 0.0 0.0 -2.9027425702207674
H 0.0 0.0 0.0
H 0.0 0.0 0.7407836517803875
3

H 0.0 0.0 -2.9017425702207675
H 0.0 0.0 0.0
H 0.0 0.0 0.7407836517803875
3

H 0.0 0.0 -2.900742570220768
H 0.0 0.0 0.0
H 0.0 0.0 0.7407836517803875
3

H 0.0 0.0 -2.899742570220768
H 0.0 0.0 0.0
H 0.0 0.0 0.7407836517803875
3

H 0.0 0.0 -2.898742570220768
H 0.0 0.0 0.0
H 0.0 0.0 0.7407836517803875
3

H 0.0 0.0 -2.897742570220768
H 0.0 0.0 0.0
H 0.0 0.0 0.7407836517803875
3

H 0.0 0.0 -2.896742570220768
H 0.0 0.0 0.0
H 0.0 0.0 0.7407836517803875
3

H 0.0 0.0 -2.895742570220768
H 0.0 0.0 0.0
H 0.0 0.0 0.7407836517803875
3

H 0.0 0.0 -2.8947425702207683
H 0.0 0.0 0.0
H 0.0 0.0 0.7407836517803875
3

H 0.0 0.0 -2.8937425702207684
H 0.0 0.0 0.0
H 0.0 0.0 0.7407836517803875
3

H 0.0 0.0 -2.8927425702207685
H 0.0 0.0 0.0
H 0.0 0.0 0.7407836517803875
3

H 0.0 0.0 -2.8917425702207686
H 0.0 0.0 0.0
H 0.0 0.0 0.7407836517803875
3

H 0.0 0.0 -2.8907425702207687
H 0.0 0.0 0.0
H 0.0 0.0 0.7407836517803875
3

H 0.0 0.0 -2.889742570220769
H 0.0 0.0 0.0
H 0.0 0.0 0.7407836517803875
3

H 0.0 0.0 -2.888742570220769
H 0.0 0.0 0.0
H 0.0 0.0 0.7407836517803875
3

H 0.0 0.0 -2.887742570220769
H 0.0 0.0 0.0
H 0.0 0.0 0.7407836517803875
3

H 0.0 0.0 -2.886742570220769
H 0.0 0.0 0.0
H 0.0 0.0 0.7407836517803875
3

H 0.0 0.0 -2.8857425702207693
H 0.0 0.0 0.0
H 0.0 0.0 0.7407836517803875
3

H 0.0 0.0 -2.8847425702207694
H 0.0 0.0 0.0
H 0.0 0.0 0.7407836517803875
3

H 0.0 0.0 -2.883742570220769
H 0.0 0.0 0.0
H 0.0 0.0 0.7407836517803875
3

H 0.0 0.0 -2.8827425702207696
H 0.0 0.0 0.0
H 0.0 0.0 0.7407836517803875
3

H 0.0 0.0 -2.8817425702207697
H 0.0 0.0 0.0
H 0.0 0.0 0.7407836517803875
3

H 0.0 0.0 -2.88074257022077
H 0.0 0.0 0.0
H 0.0 0.0 0.7407836517803875
3

H 0.0 0.0 -2.8797427225256134
H 0.0 0.0 0.0
H 0.0 0.0 0.7408011041868248
3

H 0.0 0.0 -2.878742722525613
H 0.0 0.0 0.0
H 0.0 0.0 0.7408011041868248
3

H 0.0 0.0 -2.8777427225256136
H 0.0 0.0 0.0
H 0.0 0.0 0.7408011041868248
3

H 0.0 0.0 -2.8767427225256137
H 0.0 0.0 0.0
H 0.0 0.0 0.7408011041868248
3

H 0.0 0.0 -2.875742722525614
H 0.0 0.0 0.0
H 0.0 0.0 0.7408011041868248
3

H 0.0 0.0 -2.874742722525614
H 0.0 0.0 0.0
H 0.0 0.0 0.7408011041868248
3

H 0.0 0.0 -2.873742722525614
H 0.0 0.0 0.0
H 0.0 0.0 0.7408011041868248
3

H 0.0 0.0 -2.872742722525614
H 0.0 0.0 0.0
H 0.0 0.0 0.7408011041868248
3

H 0.0 0.0 -2.8717427225256142
H 0.0 0.0 0.0
H 0.0 0.0 0.7408011041868248
3

H 0.0 0.0 -2.8707427225256144
H 0.0 0.0 0.0
H 0.0 0.0 0.7408011041868248
3

H 0.0 0.0 -2.8697427225256145
H 0.0 0.0 0.0
H 0.0 0.0 0.7408011041868248
3

H 0.0 0.0 -2.8687427225256146
H 0.0 0.0 0.0
H 0.0 0.0 0.7408011041868248
3

H 0.0 0.0 -2.8677427225256147
H 0.0 0.0 0.0
H 0.0 0.0 0.7408011041868248
3

H 0.0 0.0 -2.866742722525615
H 0.0 0.0 0.0
H 0.0 0.0 0.7408011041868248
3

H 0.0 0.0 -2.865742722525615
H 0.0 0.0 0.0
H 0.0 0.0 0.7408011041868248
3

H 0.0 0.0 -2.864742722525615
H 0.0 0.0 0.0
H 0.0 0.0 0.7408011041868248
3

H 0.0 0.0 -2.863742722525615
H 0.0 0.0 0.0
H 0.0 0.0 0.7408011041868248
3

H 0.0 0.0 -2.8627427225256152
H 0.0 0.0 0.0
H 0.0 0.0 0.7408011041868248
3

H 0.0 0.0 -2.861742722525616
H 0.0 0.0 0.0
H 0.0 0.0 0.7408011041868248
3

H 0.0 0.0 -2.8607427225256155
H 0.0 0.0 0.0
H 0.0 0.0 0.7408011041868248
3

H 0.0 0.0 -2.859742722525616
H 0.0 0.0 0.0
H 0.0 0.0 0.7408011041868248
3

H 0.0 0.0 -2.858742722525616
H 0.0 0.0 0.0
H 0.0 0.0 0.7408011041868248
3

H 0.0 0.0 -2.857742722525616
H 0.0 0.0 0.0
H 0.0 0.0 0.7408011041868248
3

H 0.0 0.0 -2.856742722525616
H 0.0 0.0 0.0
H 0.0 0.0 0.7408011041868248
3

H 0.0 0.0 -2.855742722525616
H 0.0 0.0 0.0
H 0.0 0.0 0.7408011041868248
3

H 0.0 0.0 -2.854742722525616
H 0.0 0.0 0.0
H 0.0 0.0 0.7408011041868248
3

H 0.0 0.0 -2.853742722525616
H 0.0 0.0 0.0
H 0.0 0.0 0.7408011041868248
3

H 0.0 0.0 -2.8527427225256163
H 0.0 0.0 0.0
H 0.0 0.0 0.7408011041868248
3

H 0.0 0.0 -2.8517427225256164
H 0.0 0.0 0.0
H 0.0 0.0 0.7408011041868248
3

H 0.0 0.0 -2.850742722525617
H 0.0 0.0 0.0
H 0.0 0.0 0.7408011041868248
3

H 0.0 0.0 -2.8497427225256167
H 0.0 0.0 0.0
H 0.0 0.0 0.7408011041868248
3

H 0.0 0.0 -2.8487427225256168
H 0.0 0.0 0.0
H 0.0 0.0 0.7408011041868248
3

H 0.0 0.0 -2.847742722525617
H 0.0 0.0 0.0
H 0.0 0.0 0.7408011041868248
3

H 0.0 0.0 -2.846742722525617
H 0.0 0.0 0.0
H 0.0 0.0 0.7408011041868248
3

H 0.0 0.0 -2.845742722525617
H 0.0 0.0 0.0
H 0.0 0.0 0.7408011041868248
3

H 0.0 0.0 -2.844742722525617
H 0.0 0.0 0.0
H 0.0 0.0 0.7408011041868248
3

H 0.0 0.0 -2.8437427225256173
H 0.0 0.0 0.0
H 0.0 0.0 0.7408011041868248
3

H 0.0 0.0 -2.842742722525617
H 0.0 0.0 0.0
H 0.0 0.0 0.7408011041868248
3

H 0.0 0.0 -2.841742722525617
H 0.0 0.0 0.0
H 0.0 0.0 0.7408011041868248
3

H 0.0 0.0 -2.8407427225256177
H 0.0 0.0 0.0
H 0.0 0.0 0.7408011041868248
3

H 0.0 0.0 -2.8397427225256178
H 0.0 0.0 0.0
H 0.0 0.0 0.7408011041868248
3

H 0.0 0.0 -2.838742722525618
H 0.0 0.0 0.0
H 0.0 0.0 0.7408011041868248
3

H 0.0 0.0 -2.837742722525618
H 0.0 0.0 0.0
H 0.0 0.0 0.7408011041868248
3

H 0.0 0.0 -2.836742722525618
H 0.0 0.0 0.0
H 0.0 0.0 0.7408011041868248
3

H 0.0 0.0 -2.835742722525618
H 0.0 0.0 0.0
H 0.0 0.0 0.7408011041868248
3

H 0.0 0.0 -2.8347427225256183
H 0.0 0.0 0.0
H 0.0 0.0 0.7408011041868248
3

H 0.0 0.0 -2.8337427225256184
H 0.0 0.0 0.0
H 0.0 0.0 0.7408011041868248
3

H 0.0 0.0 -2.8327427225256185
H 0.0 0.0 0.0
H 0.0 0.0 0.7408011041868248
3

H 0.0 0.0 -2.831742722525618
H 0.0 0.0 0.0
H 0.0 0.0 0.7408011041868248
3

H 0.0 0.0 -2.8307427225256188
H 0.0 0.0 0.0
H 0.0 0.0 0.7408011041868248
3

H 0.0 0.0 -2.829742722525619
H 0.0 0.0 0.0
H 0.0 0.0 0.7408011041868248
3

H 0.0 0.0 -2.828742722525619
H 0.0 0.0 0.0
H 0.0 0.0 0.7408011041868248
3

H 0.0 0.0 -2.827742722525619
H 0.0 0.0 0.0
H 0.0 0.0 0.7408011041868248
3

H 0.0 0.0 -2.826742722525619
H 0.0 0.0 0.0
H 0.0 0.0 0.7408011041868248
3

H 0.0 0.0 -2.8257428748304627
H 0.0 0.0 0.0
H 0.0 0.0 0.740818556593262
3

H 0.0 0.0 -2.824742874830463
H 0.0 0.0 0.0
H 0.0 0.0 0.740818556593262
3

H 0.0 0.0 -2.823742874830463
H 0.0 0.0 0.0
H 0.0 0.0 0.740818556593262
3

H 0.0 0.0 -2.822742874830463
H 0.0 0.0 0.0
H 0.0 0.0 0.740818556593262
3

H 0.0 0.0 -2.821742874830463
H 0.0 0.0 0.0
H 0.0 0.0 0.740818556593262
3

H 0.0 0.0 -2.8207428748304637
H 0.0 0.0 0.0
H 0.0 0.0 0.740818556593262
3

H 0.0 0.0 -2.819742874830464
H 0.0 0.0 0.0
H 0.0 0.0 0.740818556593262
3

H 0.0 0.0 -2.8187428748304635
H 0.0 0.0 0.0
H 0.0 0.0 0.740818556593262
3

H 0.0 0.0 -2.817742874830464
H 0.0 0.0 0.0
H 0.0 0.0 0.740818556593262
3

H 0.0 0.0 -2.816742874830464
H 0.0 0.0 0.0
H 0.0 0.0 0.740818556593262
3

H 0.0 0.0 -2.815742874830464
H 0.0 0.0 0.0
H 0.0 0.0 0.740818556593262
3

H 0.0 0.0 -2.814742874830464
H 0.0 0.0 0.0
H 0.0 0.0 0.740818556593262
3

H 0.0 0.0 -2.813742874830464
H 0.0 0.0 0.0
H 0.0 0.0 0.740818556593262
3

H 0.0 0.0 -2.812742874830464
H 0.0 0.0 0.0
H 0.0 0.0 0.740818556593262
3

H 0.0 0.0 -2.8117428748304643
H 0.0 0.0 0.0
H 0.0 0.0 0.740818556593262
3

H 0.0 0.0 -2.8107428748304644
H 0.0 0.0 0.0
H 0.0 0.0 0.740818556593262
3

H 0.0 0.0 -2.8097428748304645
H 0.0 0.0 0.0
H 0.0 0.0 0.740818556593262
3

H 0.0 0.0 -2.8087428748304646
H 0.0 0.0 0.0
H 0.0 0.0 0.740818556593262
3

H 0.0 0.0 -2.8077428748304647
H 0.0 0.0 0.0
H 0.0 0.0 0.740818556593262
3

H 0.0 0.0 -2.806742874830465
H 0.0 0.0 0.0
H 0.0 0.0 0.740818556593262
3

H 0.0 0.0 -2.805742874830465
H 0.0 0.0 0.0
H 0.0 0.0 0.740818556593262
3

H 0.0 0.0 -2.804742874830465
H 0.0 0.0 0.0
H 0.0 0.0 0.740818556593262
3

H 0.0 0.0 -2.803742874830465
H 0.0 0.0 0.0
H 0.0 0.0 0.740818556593262
3

H 0.0 0.0 -2.802742874830465
H 0.0 0.0 0.0
H 0.0 0.0 0.740818556593262
3

H 0.0 0.0 -2.8017428748304654
H 0.0 0.0 0.0
H 0.0 0.0 0.740818556593262
3

H 0.0 0.0 -2.800742874830465
H 0.0 0.0 0.0
H 0.0 0.0 0.740818556593262
3

H 0.0 0.0 -2.7997428748304656
H 0.0 0.0 0.0
H 0.0 0.0 0.740818556593262
3

H 0.0 0.0 -2.7987428748304657
H 0.0 0.0 0.0
H 0.0 0.0 0.740818556593262
3

H 0.0 0.0 -2.797742874830466
H 0.0 0.0 0.0
H 0.0 0.0 0.740818556593262
3

H 0.0 0.0 -2.796742874830466
H 0.0 0.0 0.0
H 0.0 0.0 0.740818556593262
3

H 0.0 0.0 -2.795742874830466
H 0.0 0.0 0.0
H 0.0 0.0 0.740818556593262
3

H 0.0 0.0 -2.794742874830466
H 0.0 0.0 0.0
H 0.0 0.0 0.740818556593262
3

H 0.0 0.0 -2.7937428748304662
H 0.0 0.0 0.0
H 0.0 0.0 0.740818556593262
3

H 0.0 0.0 -2.7927428748304663
H 0.0 0.0 0.0
H 0.0 0.0 0.740818556593262
3

H 0.0 0.0 -2.7917428748304665
H 0.0 0.0 0.0
H 0.0 0.0 0.740818556593262
3

H 0.0 0.0 -2.7907428748304666
H 0.0 0.0 0.0
H 0.0 0.0 0.740818556593262
3

H 0.0 0.0 -2.7897428748304667
H 0.0 0.0 0.0
H 0.0 0.0 0.740818556593262
3

H 0.0 0.0 -2.788742874830467
H 0.0 0.0 0.0
H 0.0 0.0 0.740818556593262
3

H 0.0 0.0 -2.787742874830467
H 0.0 0.0 0.0
H 0.0 0.0 0.740818556593262
3

H 0.0 0.0 -2.786742874830467
H 0.0 0.0 0.0
H 0.0 0.0 0.740818556593262
3

H 0.0 0.0 -2.785742874830467
H 0.0 0.0 0.0
H 0.0 0.0 0.740818556593262
3

H 0.0 0.0 -2.7847428748304672
H 0.0 0.0 0.0
H 0.0 0.0 0.740818556593262
3

H 0.0 0.0 -2.783742874830468
H 0.0 0.0 0.0
H 0.0 0.0 0.740818556593262
3

H 0.0 0.0 -2.7827428748304674
H 0.0 0.0 0.0
H 0.0 0.0 0.740818556593262
3

H 0.0 0.0 -2.781742874830468
H 0.0 0.0 0.0
H 0.0 0.0 0.740818556593262
3

H 0.0 0.0 -2.780742874830468
H 0.0 0.0 0.0
H 0.0 0.0 0.740818556593262
3

H 0.0 0.0 -2.779743027135311
H 0.0 0.0 0.0
H 0.0 0.0 0.7408360089996993
3

H 0.0 0.0 -2.7787430271353117
H 0.0 0.0 0.0
H 0.0 0.0 0.7408360089996993
3

H 0.0 0.0 -2.7777430271353114
H 0.0 0.0 0.0
H 0.0 0.0 0.7408360089996993
3

H 0.0 0.0 -2.7767430271353115
H 0.0 0.0 0.0
H 0.0 0.0 0.7408360089996993
3

H 0.0 0.0 -2.775743027135312
H 0.0 0.0 0.0
H 0.0 0.0 0.7408360089996993
3

H 0.0 0.0 -2.774743027135312
H 0.0 0.0 0.0
H 0.0 0.0 0.7408360089996993
3

H 0.0 0.0 -2.773743027135312
H 0.0 0.0 0.0
H 0.0 0.0 0.7408360089996993
3

H 0.0 0.0 -2.772743027135312
H 0.0 0.0 0.0
H 0.0 0.0 0.7408360089996993
3

H 0.0 0.0 -2.771743027135312
H 0.0 0.0 0.0
H 0.0 0.0 0.7408360089996993
3

H 0.0 0.0 -2.770743027135312
H 0.0 0.0 0.0
H 0.0 0.0 0.7408360089996993
3

H 0.0 0.0 -2.7697430271353123
H 0.0 0.0 0.0
H 0.0 0.0 0.7408360089996993
3

H 0.0 0.0 -2.7687430271353124
H 0.0 0.0 0.0
H 0.0 0.0 0.7408360089996993
3

H 0.0 0.0 -2.7677430271353125
H 0.0 0.0 0.0
H 0.0 0.0 0.7408360089996993
3

H 0.0 0.0 -2.7667430271353126
H 0.0 0.0 0.0
H 0.0 0.0 0.7408360089996993
3

H 0.0 0.0 -2.7657430271353127
H 0.0 0.0 0.0
H 0.0 0.0 0.7408360089996993
3

H 0.0 0.0 -2.764743027135313
H 0.0 0.0 0.0
H 0.0 0.0 0.7408360089996993
3

H 0.0 0.0 -2.763743027135313
H 0.0 0.0 0.0
H 0.0 0.0 0.7408360089996993
3

H 0.0 0.0 -2.762743027135313
H 0.0 0.0 0.0
H 0.0 0.0 0.7408360089996993
3

H 0.0 0.0 -2.761743027135313
H 0.0 0.0 0.0
H 0.0 0.0 0.7408360089996993
3

H 0.0 0.0 -2.7607430271353133
H 0.0 0.0 0.0
H 0.0 0.0 0.7408360089996993
3

H 0.0 0.0 -2.7597430271353134
H 0.0 0.0 0.0
H 0.0 0.0 0.7408360089996993
3

H 0.0 0.0 -2.758743027135313
H 0.0 0.0 0.0
H 0.0 0.0 0.7408360089996993
3

H 0.0 0.0 -2.7577430271353136
H 0.0 0.0 0.0
H 0.0 0.0 0.7408360089996993
3

H 0.0 0.0 -2.7567430271353137
H 0.0 0.0 0.0
H 0.0 0.0 0.7408360089996993
3

H 0.0 0.0 -2.755743027135314
H 0.0 0.0 0.0
H 0.0 0.0 0.7408360089996993
3

H 0.0 0.0 -2.754743027135314
H 0.0 0.0 0.0
H 0.0 0.0 0.7408360089996993
3

H 0.0 0.0 -2.753743027135314
H 0.0 0.0 0.0
H 0.0 0.0 0.7408360089996993
3

H 0.0 0.0 -2.752743027135314
H 0.0 0.0 0.0
H 0.0 0.0 0.7408360089996993
3

H 0.0 0.0 -2.7517430271353143
H 0.0 0.0 0.0
H 0.0 0.0 0.7408360089996993
3

H 0.0 0.0 -2.7507430271353144
H 0.0 0.0 0.0
H 0.0 0.0 0.7408360089996993
3

H 0.0 0.0 -2.7497430271353145
H 0.0 0.0 0.0
H 0.0 0.0 0.7408360089996993
3

H 0.0 0.0 -2.7487430271353146
H 0.0 0.0 0.0
H 0.0 0.0 0.7408360089996993
3

H 0.0 0.0 -2.7477430271353147
H 0.0 0.0 0.0
H 0.0 0.0 0.7408360089996993
3

H 0.0 0.0 -2.746743027135315
H 0.0 0.0 0.0
H 0.0 0.0 0.7408360089996993
3

H 0.0 0.0 -2.745743027135315
H 0.0 0.0 0.0
H 0.0 0.0 0.7408360089996993
3

H 0.0 0.0 -2.744743027135315
H 0.0 0.0 0.0
H 0.0 0.0 0.7408360089996993
3

H 0.0 0.0 -2.7437431794401586
H 0.0 0.0 0.0
H 0.0 0.0 0.7408534614061365
3

H 0.0 0.0 -2.7427431794401587
H 0.0 0.0 0.0
H 0.0 0.0 0.7408534614061365
3

H 0.0 0.0 -2.7417431794401588
H 0.0 0.0 0.0
H 0.0 0.0 0.7408534614061365
3

H 0.0 0.0 -2.740743179440159
H 0.0 0.0 0.0
H 0.0 0.0 0.7408534614061365
3

H 0.0 0.0 -2.739743179440159
H 0.0 0.0 0.0
H 0.0 0.0 0.7408534614061365
3

H 0.0 0.0 -2.738743179440159
H 0.0 0.0 0.0
H 0.0 0.0 0.7408534614061365
3

H 0.0 0.0 -2.737743179440159
H 0.0 0.0 0.0
H 0.0 0.0 0.7408534614061365
3

H 0.0 0.0 -2.7367431794401598
H 0.0 0.0 0.0
H 0.0 0.0 0.7408534614061365
3

H 0.0 0.0 -2.7357431794401594
H 0.0 0.0 0.0
H 0.0 0.0 0.7408534614061365
3

H 0.0 0.0 -2.7347431794401595
H 0.0 0.0 0.0
H 0.0 0.0 0.7408534614061365
3

H 0.0 0.0 -2.73374317944016
H 0.0 0.0 0.0
H 0.0 0.0 0.7408534614061365
3

H 0.0 0.0 -2.73274317944016
H 0.0 0.0 0.0
H 0.0 0.0 0.7408534614061365
3

H 0.0 0.0 -2.73174317944016
H 0.0 0.0 0.0
H 0.0 0.0 0.7408534614061365
3

H 0.0 0.0 -2.73074317944016
H 0.0 0.0 0.0
H 0.0 0.0 0.7408534614061365
3

H 0.0 0.0 -2.72974317944016
H 0.0 0.0 0.0
H 0.0 0.0 0.7408534614061365
3

H 0.0 0.0 -2.72874317944016
H 0.0 0.0 0.0
H 0.0 0.0 0.7408534614061365
3

H 0.0 0.0 -2.7277431794401603
H 0.0 0.0 0.0
H 0.0 0.0 0.7408534614061365
3

H 0.0 0.0 -2.7267431794401604
H 0.0 0.0 0.0
H 0.0 0.0 0.7408534614061365
3

H 0.0 0.0 -2.7257431794401605
H 0.0 0.0 0.0
H 0.0 0.0 0.7408534614061365
3

H 0.0 0.0 -2.7247431794401606
H 0.0 0.0 0.0
H 0.0 0.0 0.7408534614061365
3

H 0.0 0.0 -2.7237431794401608
H 0.0 0.0 0.0
H 0.0 0.0 0.7408534614061365
3

H 0.0 0.0 -2.722743179440161
H 0.0 0.0 0.0
H 0.0 0.0 0.7408534614061365
3

H 0.0 0.0 -2.721743179440161
H 0.0 0.0 0.0
H 0.0 0.0 0.7408534614061365
3

H 0.0 0.0 -2.720743179440161
H 0.0 0.0 0.0
H 0.0 0.0 0.7408534614061365
3

H 0.0 0.0 -2.7197433317450046
H 0.0 0.0 0.0
H 0.0 0.0 0.7408709138125738
3

H 0.0 0.0 -2.7187433317450047
H 0.0 0.0 0.0
H 0.0 0.0 0.7408709138125738
3

H 0.0 0.0 -2.717743331745005
H 0.0 0.0 0.0
H 0.0 0.0 0.7408709138125738
3

H 0.0 0.0 -2.716743331745005
H 0.0 0.0 0.0
H 0.0 0.0 0.7408709138125738
3

H 0.0 0.0 -2.715743331745005
H 0.0 0.0 0.0
H 0.0 0.0 0.7408709138125738
3

H 0.0 0.0 -2.714743331745005
H 0.0 0.0 0.0
H 0.0 0.0 0.7408709138125738
3

H 0.0 0.0 -2.7137433317450053
H 0.0 0.0 0.0
H 0.0 0.0 0.7408709138125738
3

H 0.0 0.0 -2.7127433317450054
H 0.0 0.0 0.0
H 0.0 0.0 0.7408709138125738
3

H 0.0 0.0 -2.711743331745005
H 0.0 0.0 0.0
H 0.0 0.0 0.7408709138125738
3

H 0.0 0.0 -2.7107433317450056
H 0.0 0.0 0.0
H 0.0 0.0 0.7408709138125738
3

H 0.0 0.0 -2.7097433317450057
H 0.0 0.0 0.0
H 0.0 0.0 0.7408709138125738
3

H 0.0 0.0 -2.708743331745006
H 0.0 0.0 0.0
H 0.0 0.0 0.7408709138125738
3

H 0.0 0.0 -2.707743331745006
H 0.0 0.0 0.0
H 0.0 0.0 0.7408709138125738
3

H 0.0 0.0 -2.706743331745006
H 0.0 0.0 0.0
H 0.0 0.0 0.7408709138125738
3

H 0.0 0.0 -2.705743331745006
H 0.0 0.0 0.0
H 0.0 0.0 0.7408709138125738
3

H 0.0 0.0 -2.7047433317450063
H 0.0 0.0 0.0
H 0.0 0.0 0.7408709138125738
3

H 0.0 0.0 -2.7037433317450064
H 0.0 0.0 0.0
H 0.0 0.0 0.7408709138125738
3

H 0.0 0.0 -2.7027433317450065
H 0.0 0.0 0.0
H 0.0 0.0 0.7408709138125738
3

H 0.0 0.0 -2.7017433317450066
H 0.0 0.0 0.0
H 0.0 0.0 0.7408709138125738
3

H 0.0 0.0 -2.7007433317450067
H 0.0 0.0 0.0
H 0.0 0.0 0.7408709138125738
3

H 0.0 0.0 -2.699743331745007
H 0.0 0.0 0.0
H 0.0 0.0 0.7408709138125738
3

H 0.0 0.0 -2.698743331745007
H 0.0 0.0 0.0
H 0.0 0.0 0.7408709138125738
3

H 0.0 0.0 -2.697743331745007
H 0.0 0.0 0.0
H 0.0 0.0 0.7408709138125738
3

H 0.0 0.0 -2.696743331745007
H 0.0 0.0 0.0
H 0.0 0.0 0.7408709138125738
3

H 0.0 0.0 -2.6957433317450072
H 0.0 0.0 0.0
H 0.0 0.0 0.7408709138125738
3

H 0.0 0.0 -2.694743331745008
H 0.0 0.0 0.0
H 0.0 0.0 0.7408709138125738
3

H 0.0 0.0 -2.6937433317450075
H 0.0 0.0 0.0
H 0.0 0.0 0.7408709138125738
3

H 0.0 0.0 -2.692743331745008
H 0.0 0.0 0.0
H 0.0 0.0 0.7408709138125738
3

H 0.0 0.0 -2.691743331745008
H 0.0 0.0 0.0
H 0.0 0.0 0.7408709138125738
3

H 0.0 0.0 -2.690743331745008
H 0.0 0.0 0.0
H 0.0 0.0 0.7408709138125738
3

H 0.0 0.0 -2.689743331745008
H 0.0 0.0 0.0
H 0.0 0.0 0.7408709138125738
3

H 0.0 0.0 -2.688743331745008
H 0.0 0.0 0.0
H 0.0 0.0 0.7408709138125738
3

H 0.0 0.0 -2.687743331745008
H 0.0 0.0 0.0
H 0.0 0.0 0.7408709138125738
3

H 0.0 0.0 -2.686743331745008
H 0.0 0.0 0.0
H 0.0 0.0 0.7408709138125738
3

H 0.0 0.0 -2.685743484049852
H 0.0 0.0 0.0
H 0.0 0.0 0.740888366219011
3

H 0.0 0.0 -2.684743484049852
H 0.0 0.0 0.0
H 0.0 0.0 0.740888366219011
3

H 0.0 0.0 -2.683743484049852
H 0.0 0.0 0.0
H 0.0 0.0 0.740888366219011
3

H 0.0 0.0 -2.682743484049852
H 0.0 0.0 0.0
H 0.0 0.0 0.740888366219011
3

H 0.0 0.0 -2.681743484049852
H 0.0 0.0 0.0
H 0.0 0.0 0.740888366219011
3

H 0.0 0.0 -2.6807434840498523
H 0.0 0.0 0.0
H 0.0 0.0 0.740888366219011
3

H 0.0 0.0 -2.6797434840498524
H 0.0 0.0 0.0
H 0.0 0.0 0.740888366219011
3

H 0.0 0.0 -2.6787434840498525
H 0.0 0.0 0.0
H 0.0 0.0 0.740888366219011
3

H 0.0 0.0 -2.6777434840498526
H 0.0 0.0 0.0
H 0.0 0.0 0.740888366219011
3

H 0.0 0.0 -2.6767434840498527
H 0.0 0.0 0.0
H 0.0 0.0 0.740888366219011
3

H 0.0 0.0 -2.675743484049853
H 0.0 0.0 0.0
H 0.0 0.0 0.740888366219011
3

H 0.0 0.0 -2.674743484049853
H 0.0 0.0 0.0
H 0.0 0.0 0.740888366219011
3

H 0.0 0.0 -2.673743484049853
H 0.0 0.0 0.0
H 0.0 0.0 0.740888366219011
3

H 0.0 0.0 -2.672743484049853
H 0.0 0.0 0.0
H 0.0 0.0 0.740888366219011
3

H 0.0 0.0 -2.6717434840498533
H 0.0 0.0 0.0
H 0.0 0.0 0.740888366219011
3

H 0.0 0.0 -2.6707434840498534
H 0.0 0.0 0.0
H 0.0 0.0 0.740888366219011
3

H 0.0 0.0 -2.669743484049853
H 0.0 0.0 0.0
H 0.0 0.0 0.740888366219011
3

H 0.0 0.0 -2.6687434840498536
H 0.0 0.0 0.0
H 0.0 0.0 0.740888366219011
3

H 0.0 0.0 -2.6677434840498537
H 0.0 0.0 0.0
H 0.0 0.0 0.740888366219011
3

H 0.0 0.0 -2.666743484049854
H 0.0 0.0 0.0
H 0.0 0.0 0.740888366219011
3

H 0.0 0.0 -2.6657436363546974
H 0.0 0.0 0.0
H 0.0 0.0 0.7409058186254482
3

H 0.0 0.0 -2.664743636354697
H 0.0 0.0 0.0
H 0.0 0.0 0.7409058186254482
3

H 0.0 0.0 -2.6637436363546976
H 0.0 0.0 0.0
H 0.0 0.0 0.7409058186254482
3

H 0.0 0.0 -2.6627436363546977
H 0.0 0.0 0.0
H 0.0 0.0 0.7409058186254482
3

H 0.0 0.0 -2.661743636354698
H 0.0 0.0 0.0
H 0.0 0.0 0.7409058186254482
3

H 0.0 0.0 -2.660743636354698
H 0.0 0.0 0.0
H 0.0 0.0 0.7409058186254482
3

H 0.0 0.0 -2.659743636354698
H 0.0 0.0 0.0
H 0.0 0.0 0.7409058186254482
3

H 0.0 0.0 -2.658743636354698
H 0.0 0.0 0.0
H 0.0 0.0 0.7409058186254482
3

H 0.0 0.0 -2.6577436363546982
H 0.0 0.0 0.0
H 0.0 0.0 0.7409058186254482
3

H 0.0 0.0 -2.6567436363546983
H 0.0 0.0 0.0
H 0.0 0.0 0.7409058186254482
3

H 0.0 0.0 -2.6557436363546985
H 0.0 0.0 0.0
H 0.0 0.0 0.7409058186254482
3

H 0.0 0.0 -2.6547436363546986
H 0.0 0.0 0.0
H 0.0 0.0 0.7409058186254482
3

H 0.0 0.0 -2.6537436363546987
H 0.0 0.0 0.0
H 0.0 0.0 0.7409058186254482
3

H 0.0 0.0 -2.652743636354699
H 0.0 0.0 0.0
H 0.0 0.0 0.7409058186254482
3

H 0.0 0.0 -2.651743636354699
H 0.0 0.0 0.0
H 0.0 0.0 0.7409058186254482
3

H 0.0 0.0 -2.650743636354699
H 0.0 0.0 0.0
H 0.0 0.0 0.7409058186254482
3

H 0.0 0.0 -2.649743636354699
H 0.0 0.0 0.0
H 0.0 0.0 0.7409058186254482
3

H 0.0 0.0 -2.6487436363546992
H 0.0 0.0 0.0
H 0.0 0.0 0.7409058186254482
3

H 0.0 0.0 -2.6477436363547
H 0.0 0.0 0.0
H 0.0 0.0 0.7409058186254482
3

H 0.0 0.0 -2.6467436363546994
H 0.0 0.0 0.0
H 0.0 0.0 0.7409058186254482
3

H 0.0 0.0 -2.6457436363547
H 0.0 0.0 0.0
H 0.0 0.0 0.7409058186254482
3

H 0.0 0.0 -2.6447436363547
H 0.0 0.0 0.0
H 0.0 0.0 0.7409058186254482
3

H 0.0 0.0 -2.643743788659543
H 0.0 0.0 0.0
H 0.0 0.0 0.7409232710318855
3

H 0.0 0.0 -2.6427437886595437
H 0.0 0.0 0.0
H 0.0 0.0 0.7409232710318855
3

H 0.0 0.0 -2.6417437886595434
H 0.0 0.0 0.0
H 0.0 0.0 0.7409232710318855
3

H 0.0 0.0 -2.6407437886595435
H 0.0 0.0 0.0
H 0.0 0.0 0.7409232710318855
3

H 0.0 0.0 -2.639743788659544
H 0.0 0.0 0.0
H 0.0 0.0 0.7409232710318855
3

H 0.0 0.0 -2.638743788659544
H 0.0 0.0 0.0
H 0.0 0.0 0.7409232710318855
3

H 0.0 0.0 -2.637743788659544
H 0.0 0.0 0.0
H 0.0 0.0 0.7409232710318855
3

H 0.0 0.0 -2.636743788659544
H 0.0 0.0 0.0
H 0.0 0.0 0.7409232710318855
3

H 0.0 0.0 -2.635743788659544
H 0.0 0.0 0.0
H 0.0 0.0 0.7409232710318855
3

H 0.0 0.0 -2.634743788659544
H 0.0 0.0 0.0
H 0.0 0.0 0.7409232710318855
3

H 0.0 0.0 -2.6337437886595443
H 0.0 0.0 0.0
H 0.0 0.0 0.7409232710318855
3

H 0.0 0.0 -2.6327437886595444
H 0.0 0.0 0.0
H 0.0 0.0 0.7409232710318855
3

H 0.0 0.0 -2.6317437886595445
H 0.0 0.0 0.0
H 0.0 0.0 0.7409232710318855
3

H 0.0 0.0 -2.6307437886595446
H 0.0 0.0 0.0
H 0.0 0.0 0.7409232710318855
3

H 0.0 0.0 -2.629743940964388
H 0.0 0.0 0.0
H 0.0 0.0 0.7409407234383227
3

H 0.0 0.0 -2.628743940964388
H 0.0 0.0 0.0
H 0.0 0.0 0.7409407234383227
3

H 0.0 0.0 -2.6277439409643883
H 0.0 0.0 0.0
H 0.0 0.0 0.7409407234383227
3

H 0.0 0.0 -2.6267439409643885
H 0.0 0.0 0.0
H 0.0 0.0 0.7409407234383227
3

H 0.0 0.0 -2.625743940964389
H 0.0 0.0 0.0
H 0.0 0.0 0.7409407234383227
3

H 0.0 0.0 -2.6247439409643887
H 0.0 0.0 0.0
H 0.0 0.0 0.7409407234383227
3

H 0.0 0.0 -2.623743940964389
H 0.0 0.0 0.0
H 0.0 0.0 0.7409407234383227
3

H 0.0 0.0 -2.622743940964389
H 0.0 0.0 0.0
H 0.0 0.0 0.7409407234383227
3

H 0.0 0.0 -2.621743940964389
H 0.0 0.0 0.0
H 0.0 0.0 0.7409407234383227
3

H 0.0 0.0 -2.620743940964389
H 0.0 0.0 0.0
H 0.0 0.0 0.7409407234383227
3

H 0.0 0.0 -2.619743940964389
H 0.0 0.0 0.0
H 0.0 0.0 0.7409407234383227
3

H 0.0 0.0 -2.6187439409643893
H 0.0 0.0 0.0
H 0.0 0.0 0.7409407234383227
3

H 0.0 0.0 -2.617743940964389
H 0.0 0.0 0.0
H 0.0 0.0 0.7409407234383227
3

H 0.0 0.0 -2.6167439409643896
H 0.0 0.0 0.0
H 0.0 0.0 0.7409407234383227
3

H 0.0 0.0 -2.6157439409643897
H 0.0 0.0 0.0
H 0.0 0.0 0.7409407234383227
3

H 0.0 0.0 -2.61474394096439
H 0.0 0.0 0.0
H 0.0 0.0 0.7409407234383227
3

H 0.0 0.0 -2.61374394096439
H 0.0 0.0 0.0
H 0.0 0.0 0.7409407234383227
3

H 0.0 0.0 -2.61274394096439
H 0.0 0.0 0.0
H 0.0 0.0 0.7409407234383227
3

H 0.0 0.0 -2.61174394096439
H 0.0 0.0 0.0
H 0.0 0.0 0.7409407234383227
3

H 0.0 0.0 -2.61074394096439
H 0.0 0.0 0.0
H 0.0 0.0 0.7409407234383227
3

H 0.0 0.0 -2.6097439409643903
H 0.0 0.0 0.0
H 0.0 0.0 0.7409407234383227
3

H 0.0 0.0 -2.6087439409643904
H 0.0 0.0 0.0
H 0.0 0.0 0.7409407234383227
3

H 0.0 0.0 -2.607744093269234
H 0.0 0.0 0.0
H 0.0 0.0 0.74095817584476
3

H 0.0 0.0 -2.606744093269234
H 0.0 0.0 0.0
H 0.0 0.0 0.74095817584476
3

H 0.0 0.0 -2.605744093269234
H 0.0 0.0 0.0
H 0.0 0.0 0.74095817584476
3

H 0.0 0.0 -2.6047440932692343
H 0.0 0.0 0.0
H 0.0 0.0 0.74095817584476
3

H 0.0 0.0 -2.6037440932692344
H 0.0 0.0 0.0
H 0.0 0.0 0.74095817584476
3

H 0.0 0.0 -2.6027440932692345
H 0.0 0.0 0.0
H 0.0 0.0 0.74095817584476
3

H 0.0 0.0 -2.6017440932692346
H 0.0 0.0 0.0
H 0.0 0.0 0.74095817584476
3

H 0.0 0.0 -2.6007440932692347
H 0.0 0.0 0.0
H 0.0 0.0 0.74095817584476
3

H 0.0 0.0 -2.599744093269235
H 0.0 0.0 0.0
H 0.0 0.0 0.74095817584476
3

H 0.0 0.0 -2.598744093269235
H 0.0 0.0 0.0
H 0.0 0.0 0.74095817584476
3

H 0.0 0.0 -2.597744093269235
H 0.0 0.0 0.0
H 0.0 0.0 0.74095817584476
3

H 0.0 0.0 -2.596744093269235
H 0.0 0.0 0.0
H 0.0 0.0 0.74095817584476
3

H 0.0 0.0 -2.5957440932692357
H 0.0 0.0 0.0
H 0.0 0.0 0.74095817584476
3

H 0.0 0.0 -2.5947440932692354
H 0.0 0.0 0.0
H 0.0 0.0 0.74095817584476
3

H 0.0 0.0 -2.593744245574079
H 0.0 0.0 0.0
H 0.0 0.0 0.7409756282511972
3

H 0.0 0.0 -2.592744245574079
H 0.0 0.0 0.0
H 0.0 0.0 0.7409756282511972
3

H 0.0 0.0 -2.591744245574079
H 0.0 0.0 0.0
H 0.0 0.0 0.7409756282511972
3

H 0.0 0.0 -2.5907442455740792
H 0.0 0.0 0.0
H 0.0 0.0 0.7409756282511972
3

H 0.0 0.0 -2.58974424557408
H 0.0 0.0 0.0
H 0.0 0.0 0.7409756282511972
3

H 0.0 0.0 -2.5887442455740795
H 0.0 0.0 0.0
H 0.0 0.0 0.7409756282511972
3

H 0.0 0.0 -2.58774424557408
H 0.0 0.0 0.0
H 0.0 0.0 0.7409756282511972
3

H 0.0 0.0 -2.58674424557408
H 0.0 0.0 0.0
H 0.0 0.0 0.7409756282511972
3

H 0.0 0.0 -2.58574424557408
H 0.0 0.0 0.0
H 0.0 0.0 0.7409756282511972
3

H 0.0 0.0 -2.58474424557408
H 0.0 0.0 0.0
H 0.0 0.0 0.7409756282511972
3

H 0.0 0.0 -2.58374424557408
H 0.0 0.0 0.0
H 0.0 0.0 0.7409756282511972
3

H 0.0 0.0 -2.58274424557408
H 0.0 0.0 0.0
H 0.0 0.0 0.7409756282511972
3

H 0.0 0.0 -2.58174424557408
H 0.0 0.0 0.0
H 0.0 0.0 0.7409756282511972
3

H 0.0 0.0 -2.5807442455740803
H 0.0 0.0 0.0
H 0.0 0.0 0.7409756282511972
3

H 0.0 0.0 -2.5797442455740804
H 0.0 0.0 0.0
H 0.0 0.0 0.7409756282511972
3

H 0.0 0.0 -2.578744245574081
H 0.0 0.0 0.0
H 0.0 0.0 0.7409756282511972
3

H 0.0 0.0 -2.577744397878924
H 0.0 0.0 0.0
H 0.0 0.0 0.7409930806576345
3

H 0.0 0.0 -2.576744397878924
H 0.0 0.0 0.0
H 0.0 0.0 0.7409930806576345
3

H 0.0 0.0 -2.5757443978789243
H 0.0 0.0 0.0
H 0.0 0.0 0.7409930806576345
3

H 0.0 0.0 -2.5747443978789244
H 0.0 0.0 0.0
H 0.0 0.0 0.7409930806576345
3

H 0.0 0.0 -2.5737443978789245
H 0.0 0.0 0.0
H 0.0 0.0 0.7409930806576345
3

H 0.0 0.0 -2.5727443978789246
H 0.0 0.0 0.0
H 0.0 0.0 0.7409930806576345
3

H 0.0 0.0 -2.5717443978789247
H 0.0 0.0 0.0
H 0.0 0.0 0.7409930806576345
3

H 0.0 0.0 -2.570744397878925
H 0.0 0.0 0.0
H 0.0 0.0 0.7409930806576345
3

H 0.0 0.0 -2.569744397878925
H 0.0 0.0 0.0
H 0.0 0.0 0.7409930806576345
3

H 0.0 0.0 -2.568744397878925
H 0.0 0.0 0.0
H 0.0 0.0 0.7409930806576345
3

H 0.0 0.0 -2.567744397878925
H 0.0 0.0 0.0
H 0.0 0.0 0.7409930806576345
3

H 0.0 0.0 -2.5667443978789253
H 0.0 0.0 0.0
H 0.0 0.0 0.7409930806576345
3

H 0.0 0.0 -2.565744550183769
H 0.0 0.0 0.0
H 0.0 0.0 0.7410105330640717
3

H 0.0 0.0 -2.564744550183769
H 0.0 0.0 0.0
H 0.0 0.0 0.7410105330640717
3

H 0.0 0.0 -2.563744550183769
H 0.0 0.0 0.0
H 0.0 0.0 0.7410105330640717
3

H 0.0 0.0 -2.562744550183769
H 0.0 0.0 0.0
H 0.0 0.0 0.7410105330640717
3

H 0.0 0.0 -2.561744550183769
H 0.0 0.0 0.0
H 0.0 0.0 0.7410105330640717
3

H 0.0 0.0 -2.5607445501837693
H 0.0 0.0 0.0
H 0.0 0.0 0.7410105330640717
3

H 0.0 0.0 -2.559744550183769
H 0.0 0.0 0.0
H 0.0 0.0 0.7410105330640717
3

H 0.0 0.0 -2.5587445501837696
H 0.0 0.0 0.0
H 0.0 0.0 0.7410105330640717
3

H 0.0 0.0 -2.5577445501837697
H 0.0 0.0 0.0
H 0.0 0.0 0.7410105330640717
3

H 0.0 0.0 -2.55674455018377
H 0.0 0.0 0.0
H 0.0 0.0 0.7410105330640717
3

H 0.0 0.0 -2.55574455018377
H 0.0 0.0 0.0
H 0.0 0.0 0.7410105330640717
3

H 0.0 0.0 -2.55474455018377
H 0.0 0.0 0.0
H 0.0 0.0 0.7410105330640717
3

H 0.0 0.0 -2.55374455018377
H 0.0 0.0 0.0
H 0.0 0.0 0.7410105330640717
3

H 0.0 0.0 -2.5527445501837702
H 0.0 0.0 0.0
H 0.0 0.0 0.7410105330640717
3

H 0.0 0.0 -2.5517447024886137
H 0.0 0.0 0.0
H 0.0 0.0 0.741027985470509
3

H 0.0 0.0 -2.550744702488614
H 0.0 0.0 0.0
H 0.0 0.0 0.741027985470509
3

H 0.0 0.0 -2.549744702488614
H 0.0 0.0 0.0
H 0.0 0.0 0.741027985470509
3

H 0.0 0.0 -2.548744702488614
H 0.0 0.0 0.0
H 0.0 0.0 0.741027985470509
3

H 0.0 0.0 -2.547744702488614
H 0.0 0.0 0.0
H 0.0 0.0 0.741027985470509
3

H 0.0 0.0 -2.5467447024886143
H 0.0 0.0 0.0
H 0.0 0.0 0.741027985470509
3

H 0.0 0.0 -2.5457447024886144
H 0.0 0.0 0.0
H 0.0 0.0 0.741027985470509
3

H 0.0 0.0 -2.5447447024886145
H 0.0 0.0 0.0
H 0.0 0.0 0.741027985470509
3

H 0.0 0.0 -2.5437447024886146
H 0.0 0.0 0.0
H 0.0 0.0 0.741027985470509
3

H 0.0 0.0 -2.5427447024886147
H 0.0 0.0 0.0
H 0.0 0.0 0.741027985470509
3

H 0.0 0.0 -2.541744702488615
H 0.0 0.0 0.0
H 0.0 0.0 0.741027985470509
3

H 0.0 0.0 -2.5407448547934584
H 0.0 0.0 0.0
H 0.0 0.0 0.7410454378769462
3

H 0.0 0.0 -2.5397448547934585
H 0.0 0.0 0.0
H 0.0 0.0 0.7410454378769462
3

H 0.0 0.0 -2.5387448547934586
H 0.0 0.0 0.0
H 0.0 0.0 0.7410454378769462
3

H 0.0 0.0 -2.5377448547934587
H 0.0 0.0 0.0
H 0.0 0.0 0.7410454378769462
3

H 0.0 0.0 -2.536744854793459
H 0.0 0.0 0.0
H 0.0 0.0 0.7410454378769462
3

H 0.0 0.0 -2.535744854793459
H 0.0 0.0 0.0
H 0.0 0.0 0.7410454378769462
3

H 0.0 0.0 -2.534744854793459
H 0.0 0.0 0.0
H 0.0 0.0 0.7410454378769462
3

H 0.0 0.0 -2.533744854793459
H 0.0 0.0 0.0
H 0.0 0.0 0.7410454378769462
3

H 0.0 0.0 -2.5327448547934592
H 0.0 0.0 0.0
H 0.0 0.0 0.7410454378769462
3

H 0.0 0.0 -2.53174485479346
H 0.0 0.0 0.0
H 0.0 0.0 0.7410454378769462
3

H 0.0 0.0 -2.5307448547934595
H 0.0 0.0 0.0
H 0.0 0.0 0.7410454378769462
3

H 0.0 0.0 -2.52974485479346
H 0.0 0.0 0.0
H 0.0 0.0 0.7410454378769462
3

H 0.0 0.0 -2.52874485479346
H 0.0 0.0 0.0
H 0.0 0.0 0.7410454378769462
3

H 0.0 0.0 -2.527745007098303
H 0.0 0.0 0.0
H 0.0 0.0 0.7410628902833835
3

H 0.0 0.0 -2.5267450070983037
H 0.0 0.0 0.0
H 0.0 0.0 0.7410628902833835
3

H 0.0 0.0 -2.5257450070983034
H 0.0 0.0 0.0
H 0.0 0.0 0.7410628902833835
3

H 0.0 0.0 -2.5247450070983035
H 0.0 0.0 0.0
H 0.0 0.0 0.7410628902833835
3

H 0.0 0.0 -2.523745007098304
H 0.0 0.0 0.0
H 0.0 0.0 0.7410628902833835
3

H 0.0 0.0 -2.522745007098304
H 0.0 0.0 0.0
H 0.0 0.0 0.7410628902833835
3

H 0.0 0.0 -2.521745007098304
H 0.0 0.0 0.0
H 0.0 0.0 0.7410628902833835
3

H 0.0 0.0 -2.520745007098304
H 0.0 0.0 0.0
H 0.0 0.0 0.7410628902833835
3

H 0.0 0.0 -2.519745007098304
H 0.0 0.0 0.0
H 0.0 0.0 0.7410628902833835
3

H 0.0 0.0 -2.518745007098304
H 0.0 0.0 0.0
H 0.0 0.0 0.7410628902833835
3

H 0.0 0.0 -2.5177450070983043
H 0.0 0.0 0.0
H 0.0 0.0 0.7410628902833835
3

H 0.0 0.0 -2.5167450070983044
H 0.0 0.0 0.0
H 0.0 0.0 0.7410628902833835
3

H 0.0 0.0 -2.5157450070983045
H 0.0 0.0 0.0
H 0.0 0.0 0.7410628902833835
3

H 0.0 0.0 -2.514745159403148
H 0.0 0.0 0.0
H 0.0 0.0 0.7410803426898207
3

H 0.0 0.0 -2.513745159403148
H 0.0 0.0 0.0
H 0.0 0.0 0.7410803426898207
3

H 0.0 0.0 -2.512745159403148
H 0.0 0.0 0.0
H 0.0 0.0 0.7410803426898207
3

H 0.0 0.0 -2.5117451594031484
H 0.0 0.0 0.0
H 0.0 0.0 0.7410803426898207
3

H 0.0 0.0 -2.5107451594031485
H 0.0 0.0 0.0
H 0.0 0.0 0.7410803426898207
3

H 0.0 0.0 -2.509745159403149
H 0.0 0.0 0.0
H 0.0 0.0 0.7410803426898207
3

H 0.0 0.0 -2.5087451594031487
H 0.0 0.0 0.0
H 0.0 0.0 0.7410803426898207
3

H 0.0 0.0 -2.507745159403149
H 0.0 0.0 0.0
H 0.0 0.0 0.7410803426898207
3

H 0.0 0.0 -2.506745159403149
H 0.0 0.0 0.0
H 0.0 0.0 0.7410803426898207
3

H 0.0 0.0 -2.505745159403149
H 0.0 0.0 0.0
H 0.0 0.0 0.7410803426898207
3

H 0.0 0.0 -2.5047453117079925
H 0.0 0.0 0.0
H 0.0 0.0 0.741097795096258
3

H 0.0 0.0 -2.5037453117079926
H 0.0 0.0 0.0
H 0.0 0.0 0.741097795096258
3

H 0.0 0.0 -2.5027453117079927
H 0.0 0.0 0.0
H 0.0 0.0 0.741097795096258
3

H 0.0 0.0 -2.501745311707993
H 0.0 0.0 0.0
H 0.0 0.0 0.741097795096258
3

H 0.0 0.0 -2.500745311707993
H 0.0 0.0 0.0
H 0.0 0.0 0.741097795096258
3

H 0.0 0.0 -2.499745311707993
H 0.0 0.0 0.0
H 0.0 0.0 0.741097795096258
3

H 0.0 0.0 -2.498745311707993
H 0.0 0.0 0.0
H 0.0 0.0 0.741097795096258
3

H 0.0 0.0 -2.4977453117079933
H 0.0 0.0 0.0
H 0.0 0.0 0.741097795096258
3

H 0.0 0.0 -2.4967453117079934
H 0.0 0.0 0.0
H 0.0 0.0 0.741097795096258
3

H 0.0 0.0 -2.495745311707993
H 0.0 0.0 0.0
H 0.0 0.0 0.741097795096258
3

H 0.0 0.0 -2.4947453117079936
H 0.0 0.0 0.0
H 0.0 0.0 0.741097795096258
3

H 0.0 0.0 -2.493745464012837
H 0.0 0.0 0.0
H 0.0 0.0 0.7411152475026952
3

H 0.0 0.0 -2.4927454640128373
H 0.0 0.0 0.0
H 0.0 0.0 0.7411152475026952
3

H 0.0 0.0 -2.4917454640128374
H 0.0 0.0 0.0
H 0.0 0.0 0.7411152475026952
3

H 0.0 0.0 -2.490745464012837
H 0.0 0.0 0.0
H 0.0 0.0 0.7411152475026952
3

H 0.0 0.0 -2.4897454640128376
H 0.0 0.0 0.0
H 0.0 0.0 0.7411152475026952
3

H 0.0 0.0 -2.4887454640128377
H 0.0 0.0 0.0
H 0.0 0.0 0.7411152475026952
3

H 0.0 0.0 -2.487745464012838
H 0.0 0.0 0.0
H 0.0 0.0 0.7411152475026952
3

H 0.0 0.0 -2.486745464012838
H 0.0 0.0 0.0
H 0.0 0.0 0.7411152475026952
3

H 0.0 0.0 -2.485745464012838
H 0.0 0.0 0.0
H 0.0 0.0 0.7411152475026952
3

H 0.0 0.0 -2.484745616317681
H 0.0 0.0 0.0
H 0.0 0.0 0.7411326999091324
3

H 0.0 0.0 -2.4837456163176816
H 0.0 0.0 0.0
H 0.0 0.0 0.7411326999091324
3

H 0.0 0.0 -2.4827456163176818
H 0.0 0.0 0.0
H 0.0 0.0 0.7411326999091324
3

H 0.0 0.0 -2.481745616317682
H 0.0 0.0 0.0
H 0.0 0.0 0.7411326999091324
3

H 0.0 0.0 -2.480745616317682
H 0.0 0.0 0.0
H 0.0 0.0 0.7411326999091324
3

H 0.0 0.0 -2.479745616317682
H 0.0 0.0 0.0
H 0.0 0.0 0.7411326999091324
3

H 0.0 0.0 -2.478745616317682
H 0.0 0.0 0.0
H 0.0 0.0 0.7411326999091324
3

H 0.0 0.0 -2.4777456163176823
H 0.0 0.0 0.0
H 0.0 0.0 0.7411326999091324
3

H 0.0 0.0 -2.4767456163176824
H 0.0 0.0 0.0
H 0.0 0.0 0.7411326999091324
3

H 0.0 0.0 -2.4757456163176825
H 0.0 0.0 0.0
H 0.0 0.0 0.7411326999091324
3

H 0.0 0.0 -2.474745768622526
H 0.0 0.0 0.0
H 0.0 0.0 0.7411501523155697
3

H 0.0 0.0 -2.473745768622526
H 0.0 0.0 0.0
H 0.0 0.0 0.7411501523155697
3

H 0.0 0.0 -2.4727457686225263
H 0.0 0.0 0.0
H 0.0 0.0 0.7411501523155697
3

H 0.0 0.0 -2.4717457686225264
H 0.0 0.0 0.0
H 0.0 0.0 0.7411501523155697
3

H 0.0 0.0 -2.4707457686225265
H 0.0 0.0 0.0
H 0.0 0.0 0.7411501523155697
3

H 0.0 0.0 -2.4697457686225266
H 0.0 0.0 0.0
H 0.0 0.0 0.7411501523155697
3

H 0.0 0.0 -2.4687457686225267
H 0.0 0.0 0.0
H 0.0 0.0 0.7411501523155697
3

H 0.0 0.0 -2.467745768622527
H 0.0 0.0 0.0
H 0.0 0.0 0.7411501523155697
3

H 0.0 0.0 -2.466745768622527
H 0.0 0.0 0.0
H 0.0 0.0 0.7411501523155697
3

H 0.0 0.0 -2.465745768622527
H 0.0 0.0 0.0
H 0.0 0.0 0.7411501523155697
3

H 0.0 0.0 -2.4647459209273705
H 0.0 0.0 0.0
H 0.0 0.0 0.7411676047220069
3

H 0.0 0.0 -2.4637459209273707
H 0.0 0.0 0.0
H 0.0 0.0 0.7411676047220069
3

H 0.0 0.0 -2.4627459209273708
H 0.0 0.0 0.0
H 0.0 0.0 0.7411676047220069
3

H 0.0 0.0 -2.461745920927371
H 0.0 0.0 0.0
H 0.0 0.0 0.7411676047220069
3

H 0.0 0.0 -2.460745920927371
H 0.0 0.0 0.0
H 0.0 0.0 0.7411676047220069
3

H 0.0 0.0 -2.459745920927371
H 0.0 0.0 0.0
H 0.0 0.0 0.7411676047220069
3

H 0.0 0.0 -2.458745920927371
H 0.0 0.0 0.0
H 0.0 0.0 0.7411676047220069
3

H 0.0 0.0 -2.4577459209273718
H 0.0 0.0 0.0
H 0.0 0.0 0.7411676047220069
3

H 0.0 0.0 -2.456746073232215
H 0.0 0.0 0.0
H 0.0 0.0 0.7411850571284442
3

H 0.0 0.0 -2.455746073232215
H 0.0 0.0 0.0
H 0.0 0.0 0.7411850571284442
3

H 0.0 0.0 -2.454746073232215
H 0.0 0.0 0.0
H 0.0 0.0 0.7411850571284442
3

H 0.0 0.0 -2.453746073232215
H 0.0 0.0 0.0
H 0.0 0.0 0.7411850571284442
3

H 0.0 0.0 -2.4527460732322157
H 0.0 0.0 0.0
H 0.0 0.0 0.7411850571284442
3

H 0.0 0.0 -2.4517460732322154
H 0.0 0.0 0.0
H 0.0 0.0 0.7411850571284442
3

H 0.0 0.0 -2.4507460732322155
H 0.0 0.0 0.0
H 0.0 0.0 0.7411850571284442
3

H 0.0 0.0 -2.449746073232216
H 0.0 0.0 0.0
H 0.0 0.0 0.7411850571284442
3

H 0.0 0.0 -2.448746225537059
H 0.0 0.0 0.0
H 0.0 0.0 0.7412025095348814
3

H 0.0 0.0 -2.4477462255370592
H 0.0 0.0 0.0
H 0.0 0.0 0.7412025095348814
3

H 0.0 0.0 -2.44674622553706
H 0.0 0.0 0.0
H 0.0 0.0 0.7412025095348814
3

H 0.0 0.0 -2.4457462255370594
H 0.0 0.0 0.0
H 0.0 0.0 0.7412025095348814
3

H 0.0 0.0 -2.44474622553706
H 0.0 0.0 0.0
H 0.0 0.0 0.7412025095348814
3

H 0.0 0.0 -2.44374622553706
H 0.0 0.0 0.0
H 0.0 0.0 0.7412025095348814
3

H 0.0 0.0 -2.44274622553706
H 0.0 0.0 0.0
H 0.0 0.0 0.7412025095348814
3

H 0.0 0.0 -2.44174622553706
H 0.0 0.0 0.0
H 0.0 0.0 0.7412025095348814
3

H 0.0 0.0 -2.44074622553706
H 0.0 0.0 0.0
H 0.0 0.0 0.7412025095348814
3

H 0.0 0.0 -2.4397463778419035
H 0.0 0.0 0.0
H 0.0 0.0 0.7412199619413187
3

H 0.0 0.0 -2.438746377841904
H 0.0 0.0 0.0
H 0.0 0.0 0.7412199619413187
3

H 0.0 0.0 -2.437746377841904
H 0.0 0.0 0.0
H 0.0 0.0 0.7412199619413187
3

H 0.0 0.0 -2.436746377841904
H 0.0 0.0 0.0
H 0.0 0.0 0.7412199619413187
3

H 0.0 0.0 -2.435746377841904
H 0.0 0.0 0.0
H 0.0 0.0 0.7412199619413187
3

H 0.0 0.0 -2.434746377841904
H 0.0 0.0 0.0
H 0.0 0.0 0.7412199619413187
3

H 0.0 0.0 -2.433746377841904
H 0.0 0.0 0.0
H 0.0 0.0 0.7412199619413187
3

H 0.0 0.0 -2.4327463778419043
H 0.0 0.0 0.0
H 0.0 0.0 0.7412199619413187
3

H 0.0 0.0 -2.4317463778419044
H 0.0 0.0 0.0
H 0.0 0.0 0.7412199619413187
3

H 0.0 0.0 -2.430746530146748
H 0.0 0.0 0.0
H 0.0 0.0 0.7412374143477559
3

H 0.0 0.0 -2.429746530146748
H 0.0 0.0 0.0
H 0.0 0.0 0.7412374143477559
3

H 0.0 0.0 -2.428746530146748
H 0.0 0.0 0.0
H 0.0 0.0 0.7412374143477559
3

H 0.0 0.0 -2.427746530146748
H 0.0 0.0 0.0
H 0.0 0.0 0.7412374143477559
3

H 0.0 0.0 -2.4267465301467483
H 0.0 0.0 0.0
H 0.0 0.0 0.7412374143477559
3

H 0.0 0.0 -2.4257465301467485
H 0.0 0.0 0.0
H 0.0 0.0 0.7412374143477559
3

H 0.0 0.0 -2.424746530146749
H 0.0 0.0 0.0
H 0.0 0.0 0.7412374143477559
3

H 0.0 0.0 -2.423746682451592
H 0.0 0.0 0.0
H 0.0 0.0 0.7412548667541932
3

H 0.0 0.0 -2.422746682451592
H 0.0 0.0 0.0
H 0.0 0.0 0.7412548667541932
3

H 0.0 0.0 -2.4217466824515923
H 0.0 0.0 0.0
H 0.0 0.0 0.7412548667541932
3

H 0.0 0.0 -2.4207466824515924
H 0.0 0.0 0.0
H 0.0 0.0 0.7412548667541932
3

H 0.0 0.0 -2.4197466824515925
H 0.0 0.0 0.0
H 0.0 0.0 0.7412548667541932
3

H 0.0 0.0 -2.4187466824515926
H 0.0 0.0 0.0
H 0.0 0.0 0.7412548667541932
3

H 0.0 0.0 -2.4177466824515927
H 0.0 0.0 0.0
H 0.0 0.0 0.7412548667541932
3

H 0.0 0.0 -2.416746682451593
H 0.0 0.0 0.0
H 0.0 0.0 0.7412548667541932
3

H 0.0 0.0 -2.4157468347564364
H 0.0 0.0 0.0
H 0.0 0.0 0.7412723191606304
3

H 0.0 0.0 -2.4147468347564365
H 0.0 0.0 0.0
H 0.0 0.0 0.7412723191606304
3

H 0.0 0.0 -2.4137468347564366
H 0.0 0.0 0.0
H 0.0 0.0 0.7412723191606304
3

H 0.0 0.0 -2.4127468347564367
H 0.0 0.0 0.0
H 0.0 0.0 0.7412723191606304
3

H 0.0 0.0 -2.411746834756437
H 0.0 0.0 0.0
H 0.0 0.0 0.7412723191606304
3

H 0.0 0.0 -2.410746834756437
H 0.0 0.0 0.0
H 0.0 0.0 0.7412723191606304
3

H 0.0 0.0 -2.409746834756437
H 0.0 0.0 0.0
H 0.0 0.0 0.7412723191606304
3

H 0.0 0.0 -2.408746834756437
H 0.0 0.0 0.0
H 0.0 0.0 0.7412723191606304
3

H 0.0 0.0 -2.4077469870612807
H 0.0 0.0 0.0
H 0.0 0.0 0.7412897715670677
3

H 0.0 0.0 -2.4067469870612808
H 0.0 0.0 0.0
H 0.0 0.0 0.7412897715670677
3

H 0.0 0.0 -2.405746987061281
H 0.0 0.0 0.0
H 0.0 0.0 0.7412897715670677
3

H 0.0 0.0 -2.404746987061281
H 0.0 0.0 0.0
H 0.0 0.0 0.7412897715670677
3

H 0.0 0.0 -2.403746987061281
H 0.0 0.0 0.0
H 0.0 0.0 0.7412897715670677
3

H 0.0 0.0 -2.402746987061281
H 0.0 0.0 0.0
H 0.0 0.0 0.7412897715670677
3

H 0.0 0.0 -2.4017469870612813
H 0.0 0.0 0.0
H 0.0 0.0 0.7412897715670677
3

H 0.0 0.0 -2.400747139366125
H 0.0 0.0 0.0
H 0.0 0.0 0.7413072239735049
3

H 0.0 0.0 -2.399747139366125
H 0.0 0.0 0.0
H 0.0 0.0 0.7413072239735049
3

H 0.0 0.0 -2.398747139366125
H 0.0 0.0 0.0
H 0.0 0.0 0.7413072239735049
3

H 0.0 0.0 -2.397747139366125
H 0.0 0.0 0.0
H 0.0 0.0 0.7413072239735049
3

H 0.0 0.0 -2.3967471393661253
H 0.0 0.0 0.0
H 0.0 0.0 0.7413072239735049
3

H 0.0 0.0 -2.3957471393661254
H 0.0 0.0 0.0
H 0.0 0.0 0.7413072239735049
3

H 0.0 0.0 -2.394747139366125
H 0.0 0.0 0.0
H 0.0 0.0 0.7413072239735049
3

H 0.0 0.0 -2.393747291670969
H 0.0 0.0 0.0
H 0.0 0.0 0.7413246763799421
3

H 0.0 0.0 -2.392747291670969
H 0.0 0.0 0.0
H 0.0 0.0 0.7413246763799421
3

H 0.0 0.0 -2.391747291670969
H 0.0 0.0 0.0
H 0.0 0.0 0.7413246763799421
3

H 0.0 0.0 -2.3907472916709693
H 0.0 0.0 0.0
H 0.0 0.0 0.7413246763799421
3

H 0.0 0.0 -2.389747291670969
H 0.0 0.0 0.0
H 0.0 0.0 0.7413246763799421
3

H 0.0 0.0 -2.3887472916709696
H 0.0 0.0 0.0
H 0.0 0.0 0.7413246763799421
3

H 0.0 0.0 -2.3877472916709697
H 0.0 0.0 0.0
H 0.0 0.0 0.7413246763799421
3

H 0.0 0.0 -2.3867472916709698
H 0.0 0.0 0.0
H 0.0 0.0 0.7413246763799421
3

H 0.0 0.0 -2.3857474439758133
H 0.0 0.0 0.0
H 0.0 0.0 0.7413421287863794
3

H 0.0 0.0 -2.3847474439758134
H 0.0 0.0 0.0
H 0.0 0.0 0.7413421287863794
3

H 0.0 0.0 -2.383747443975813
H 0.0 0.0 0.0
H 0.0 0.0 0.7413421287863794
3

H 0.0 0.0 -2.3827474439758136
H 0.0 0.0 0.0
H 0.0 0.0 0.7413421287863794
3

H 0.0 0.0 -2.3817474439758137
H 0.0 0.0 0.0
H 0.0 0.0 0.7413421287863794
3

H 0.0 0.0 -2.380747596280657
H 0.0 0.0 0.0
H 0.0 0.0 0.7413595811928166
3

H 0.0 0.0 -2.3797475962806574
H 0.0 0.0 0.0
H 0.0 0.0 0.7413595811928166
3

H 0.0 0.0 -2.378747596280657
H 0.0 0.0 0.0
H 0.0 0.0 0.7413595811928166
3

H 0.0 0.0 -2.3777475962806576
H 0.0 0.0 0.0
H 0.0 0.0 0.7413595811928166
3

H 0.0 0.0 -2.3767475962806577
H 0.0 0.0 0.0
H 0.0 0.0 0.7413595811928166
3

H 0.0 0.0 -2.375747596280658
H 0.0 0.0 0.0
H 0.0 0.0 0.7413595811928166
3

H 0.0 0.0 -2.374747596280658
H 0.0 0.0 0.0
H 0.0 0.0 0.7413595811928166
3

H 0.0 0.0 -2.373747596280658
H 0.0 0.0 0.0
H 0.0 0.0 0.7413595811928166
3

H 0.0 0.0 -2.372747748585501
H 0.0 0.0 0.0
H 0.0 0.0 0.7413770335992539
3

H 0.0 0.0 -2.3717477485855016
H 0.0 0.0 0.0
H 0.0 0.0 0.7413770335992539
3

H 0.0 0.0 -2.3707477485855017
H 0.0 0.0 0.0
H 0.0 0.0 0.7413770335992539
3

H 0.0 0.0 -2.369747748585502
H 0.0 0.0 0.0
H 0.0 0.0 0.7413770335992539
3

H 0.0 0.0 -2.368747748585502
H 0.0 0.0 0.0
H 0.0 0.0 0.7413770335992539
3

H 0.0 0.0 -2.367747900890345
H 0.0 0.0 0.0
H 0.0 0.0 0.7413944860056911
3

H 0.0 0.0 -2.3667479008903456
H 0.0 0.0 0.0
H 0.0 0.0 0.7413944860056911
3

H 0.0 0.0 -2.3657479008903457
H 0.0 0.0 0.0
H 0.0 0.0 0.7413944860056911
3

H 0.0 0.0 -2.364747900890346
H 0.0 0.0 0.0
H 0.0 0.0 0.7413944860056911
3

H 0.0 0.0 -2.363747900890346
H 0.0 0.0 0.0
H 0.0 0.0 0.7413944860056911
3

H 0.0 0.0 -2.362747900890346
H 0.0 0.0 0.0
H 0.0 0.0 0.7413944860056911
3

H 0.0 0.0 -2.361748053195189
H 0.0 0.0 0.0
H 0.0 0.0 0.7414119384121284
3

H 0.0 0.0 -2.3607480531951897
H 0.0 0.0 0.0
H 0.0 0.0 0.7414119384121284
3

H 0.0 0.0 -2.3597480531951898
H 0.0 0.0 0.0
H 0.0 0.0 0.7414119384121284
3

H 0.0 0.0 -2.35874805319519
H 0.0 0.0 0.0
H 0.0 0.0 0.7414119384121284
3

H 0.0 0.0 -2.35774805319519
H 0.0 0.0 0.0
H 0.0 0.0 0.7414119384121284
3

H 0.0 0.0 -2.35674805319519
H 0.0 0.0 0.0
H 0.0 0.0 0.7414119384121284
3

H 0.0 0.0 -2.35574805319519
H 0.0 0.0 0.0
H 0.0 0.0 0.7414119384121284
3

H 0.0 0.0 -2.3547482055000337
H 0.0 0.0 0.0
H 0.0 0.0 0.7414293908185656
3

H 0.0 0.0 -2.353748205500034
H 0.0 0.0 0.0
H 0.0 0.0 0.7414293908185656
3

H 0.0 0.0 -2.352748205500034
H 0.0 0.0 0.0
H 0.0 0.0 0.7414293908185656
3

H 0.0 0.0 -2.351748205500034
H 0.0 0.0 0.0
H 0.0 0.0 0.7414293908185656
3

H 0.0 0.0 -2.350748205500034
H 0.0 0.0 0.0
H 0.0 0.0 0.7414293908185656
3

H 0.0 0.0 -2.3497483578048777
H 0.0 0.0 0.0
H 0.0 0.0 0.7414468432250029
3

H 0.0 0.0 -2.348748357804878
H 0.0 0.0 0.0
H 0.0 0.0 0.7414468432250029
3

H 0.0 0.0 -2.347748357804878
H 0.0 0.0 0.0
H 0.0 0.0 0.7414468432250029
3

H 0.0 0.0 -2.346748357804878
H 0.0 0.0 0.0
H 0.0 0.0 0.7414468432250029
3

H 0.0 0.0 -2.345748357804878
H 0.0 0.0 0.0
H 0.0 0.0 0.7414468432250029
3

H 0.0 0.0 -2.3447483578048782
H 0.0 0.0 0.0
H 0.0 0.0 0.7414468432250029
3

H 0.0 0.0 -2.3437485101097217
H 0.0 0.0 0.0
H 0.0 0.0 0.7414642956314401
3

H 0.0 0.0 -2.342748510109722
H 0.0 0.0 0.0
H 0.0 0.0 0.7414642956314401
3

H 0.0 0.0 -2.341748510109722
H 0.0 0.0 0.0
H 0.0 0.0 0.7414642956314401
3

H 0.0 0.0 -2.340748510109722
H 0.0 0.0 0.0
H 0.0 0.0 0.7414642956314401
3

H 0.0 0.0 -2.339748510109722
H 0.0 0.0 0.0
H 0.0 0.0 0.7414642956314401
3

H 0.0 0.0 -2.3387486624145657
H 0.0 0.0 0.0
H 0.0 0.0 0.7414817480378774
3

H 0.0 0.0 -2.337748662414566
H 0.0 0.0 0.0
H 0.0 0.0 0.7414817480378774
3

H 0.0 0.0 -2.336748662414566
H 0.0 0.0 0.0
H 0.0 0.0 0.7414817480378774
3

H 0.0 0.0 -2.335748662414566
H 0.0 0.0 0.0
H 0.0 0.0 0.7414817480378774
3

H 0.0 0.0 -2.334748662414566
H 0.0 0.0 0.0
H 0.0 0.0 0.7414817480378774
3

H 0.0 0.0 -2.3337486624145662
H 0.0 0.0 0.0
H 0.0 0.0 0.7414817480378774
3

H 0.0 0.0 -2.3327488147194098
H 0.0 0.0 0.0
H 0.0 0.0 0.7414992004443146
3

H 0.0 0.0 -2.33174881471941
H 0.0 0.0 0.0
H 0.0 0.0 0.7414992004443146
3

H 0.0 0.0 -2.33074881471941
H 0.0 0.0 0.0
H 0.0 0.0 0.7414992004443146
3

H 0.0 0.0 -2.32974881471941
H 0.0 0.0 0.0
H 0.0 0.0 0.7414992004443146
3

H 0.0 0.0 -2.32874881471941
H 0.0 0.0 0.0
H 0.0 0.0 0.7414992004443146
3

H 0.0 0.0 -2.3277488147194103
H 0.0 0.0 0.0
H 0.0 0.0 0.7414992004443146
3

H 0.0 0.0 -2.326748967024254
H 0.0 0.0 0.0
H 0.0 0.0 0.7415166528507519
3

H 0.0 0.0 -2.325748967024254
H 0.0 0.0 0.0
H 0.0 0.0 0.7415166528507519
3

H 0.0 0.0 -2.324748967024254
H 0.0 0.0 0.0
H 0.0 0.0 0.7415166528507519
3

H 0.0 0.0 -2.323748967024254
H 0.0 0.0 0.0
H 0.0 0.0 0.7415166528507519
3

H 0.0 0.0 -2.3227489670242543
H 0.0 0.0 0.0
H 0.0 0.0 0.7415166528507519
3

H 0.0 0.0 -2.3217489670242544
H 0.0 0.0 0.0
H 0.0 0.0 0.7415166528507519
3

H 0.0 0.0 -2.320749119329098
H 0.0 0.0 0.0
H 0.0 0.0 0.7415341052571891
3

H 0.0 0.0 -2.319749119329098
H 0.0 0.0 0.0
H 0.0 0.0 0.7415341052571891
3

H 0.0 0.0 -2.318749119329098
H 0.0 0.0 0.0
H 0.0 0.0 0.7415341052571891
3

H 0.0 0.0 -2.317749119329098
H 0.0 0.0 0.0
H 0.0 0.0 0.7415341052571891
3

H 0.0 0.0 -2.3167492716339417
H 0.0 0.0 0.0
H 0.0 0.0 0.7415515576636263
3

H 0.0 0.0 -2.315749271633942
H 0.0 0.0 0.0
H 0.0 0.0 0.7415515576636263
3

H 0.0 0.0 -2.314749271633942
H 0.0 0.0 0.0
H 0.0 0.0 0.7415515576636263
3

H 0.0 0.0 -2.313749271633942
H 0.0 0.0 0.0
H 0.0 0.0 0.7415515576636263
3

H 0.0 0.0 -2.312749271633942
H 0.0 0.0 0.0
H 0.0 0.0 0.7415515576636263
3

H 0.0 0.0 -2.3117492716339423
H 0.0 0.0 0.0
H 0.0 0.0 0.7415515576636263
3

H 0.0 0.0 -2.310749423938786
H 0.0 0.0 0.0
H 0.0 0.0 0.7415690100700636
3

H 0.0 0.0 -2.309749423938786
H 0.0 0.0 0.0
H 0.0 0.0 0.7415690100700636
3

H 0.0 0.0 -2.308749423938786
H 0.0 0.0 0.0
H 0.0 0.0 0.7415690100700636
3

H 0.0 0.0 -2.307749423938786
H 0.0 0.0 0.0
H 0.0 0.0 0.7415690100700636
3

H 0.0 0.0 -2.3067494239387862
H 0.0 0.0 0.0
H 0.0 0.0 0.7415690100700636
3

H 0.0 0.0 -2.3057495762436298
H 0.0 0.0 0.0
H 0.0 0.0 0.7415864624765008
3

H 0.0 0.0 -2.30474957624363
H 0.0 0.0 0.0
H 0.0 0.0 0.7415864624765008
3

H 0.0 0.0 -2.30374957624363
H 0.0 0.0 0.0
H 0.0 0.0 0.7415864624765008
3

H 0.0 0.0 -2.30274957624363
H 0.0 0.0 0.0
H 0.0 0.0 0.7415864624765008
3

H 0.0 0.0 -2.30174957624363
H 0.0 0.0 0.0
H 0.0 0.0 0.7415864624765008
3

H 0.0 0.0 -2.3007495762436303
H 0.0 0.0 0.0
H 0.0 0.0 0.7415864624765008
3

H 0.0 0.0 -2.299749728548474
H 0.0 0.0 0.0
H 0.0 0.0 0.7416039148829381
3

H 0.0 0.0 -2.298749728548474
H 0.0 0.0 0.0
H 0.0 0.0 0.7416039148829381
3

H 0.0 0.0 -2.297749728548474
H 0.0 0.0 0.0
H 0.0 0.0 0.7416039148829381
3

H 0.0 0.0 -2.296749728548474
H 0.0 0.0 0.0
H 0.0 0.0 0.7416039148829381
3

H 0.0 0.0 -2.2957497285484743
H 0.0 0.0 0.0
H 0.0 0.0 0.7416039148829381
3

H 0.0 0.0 -2.2947498808533178
H 0.0 0.0 0.0
H 0.0 0.0 0.7416213672893753
3

H 0.0 0.0 -2.293749880853318
H 0.0 0.0 0.0
H 0.0 0.0 0.7416213672893753
3

H 0.0 0.0 -2.292749880853318
H 0.0 0.0 0.0
H 0.0 0.0 0.7416213672893753
3

H 0.0 0.0 -2.291749880853318
H 0.0 0.0 0.0
H 0.0 0.0 0.7416213672893753
3

H 0.0 0.0 -2.2907500331581616
H 0.0 0.0 0.0
H 0.0 0.0 0.7416388196958126
3

H 0.0 0.0 -2.2897500331581617
H 0.0 0.0 0.0
H 0.0 0.0 0.7416388196958126
3

H 0.0 0.0 -2.288750033158162
H 0.0 0.0 0.0
H 0.0 0.0 0.7416388196958126
3

H 0.0 0.0 -2.287750033158162
H 0.0 0.0 0.0
H 0.0 0.0 0.7416388196958126
3

H 0.0 0.0 -2.286750033158162
H 0.0 0.0 0.0
H 0.0 0.0 0.7416388196958126
3

H 0.0 0.0 -2.2857501854630056
H 0.0 0.0 0.0
H 0.0 0.0 0.7416562721022498
3

H 0.0 0.0 -2.2847501854630057
H 0.0 0.0 0.0
H 0.0 0.0 0.7416562721022498
3

H 0.0 0.0 -2.283750185463006
H 0.0 0.0 0.0
H 0.0 0.0 0.7416562721022498
3

H 0.0 0.0 -2.282750185463006
H 0.0 0.0 0.0
H 0.0 0.0 0.7416562721022498
3

H 0.0 0.0 -2.2817503377678494
H 0.0 0.0 0.0
H 0.0 0.0 0.7416737245086871
3

H 0.0 0.0 -2.280750337767849
H 0.0 0.0 0.0
H 0.0 0.0 0.7416737245086871
3

H 0.0 0.0 -2.2797503377678496
H 0.0 0.0 0.0
H 0.0 0.0 0.7416737245086871
3

H 0.0 0.0 -2.2787503377678497
H 0.0 0.0 0.0
H 0.0 0.0 0.7416737245086871
3

H 0.0 0.0 -2.27775033776785
H 0.0 0.0 0.0
H 0.0 0.0 0.7416737245086871
3

H 0.0 0.0 -2.2767504900726934
H 0.0 0.0 0.0
H 0.0 0.0 0.7416911769151243
3

H 0.0 0.0 -2.275750490072693
H 0.0 0.0 0.0
H 0.0 0.0 0.7416911769151243
3

H 0.0 0.0 -2.2747504900726936
H 0.0 0.0 0.0
H 0.0 0.0 0.7416911769151243
3

H 0.0 0.0 -2.2737504900726937
H 0.0 0.0 0.0
H 0.0 0.0 0.7416911769151243
3

H 0.0 0.0 -2.272750642377537
H 0.0 0.0 0.0
H 0.0 0.0 0.7417086293215616
3

H 0.0 0.0 -2.2717506423775373
H 0.0 0.0 0.0
H 0.0 0.0 0.7417086293215616
3

H 0.0 0.0 -2.270750642377537
H 0.0 0.0 0.0
H 0.0 0.0 0.7417086293215616
3

H 0.0 0.0 -2.269750642377537
H 0.0 0.0 0.0
H 0.0 0.0 0.7417086293215616
3

H 0.0 0.0 -2.2687506423775377
H 0.0 0.0 0.0
H 0.0 0.0 0.7417086293215616
3

H 0.0 0.0 -2.267750794682381
H 0.0 0.0 0.0
H 0.0 0.0 0.7417260817279988
3

H 0.0 0.0 -2.2667507946823813
H 0.0 0.0 0.0
H 0.0 0.0 0.7417260817279988
3

H 0.0 0.0 -2.2657507946823814
H 0.0 0.0 0.0
H 0.0 0.0 0.7417260817279988
3

H 0.0 0.0 -2.264750794682381
H 0.0 0.0 0.0
H 0.0 0.0 0.7417260817279988
3

H 0.0 0.0 -2.2637507946823816
H 0.0 0.0 0.0
H 0.0 0.0 0.7417260817279988
3

H 0.0 0.0 -2.262750946987225
H 0.0 0.0 0.0
H 0.0 0.0 0.7417435341344361
3

H 0.0 0.0 -2.261750946987225
H 0.0 0.0 0.0
H 0.0 0.0 0.7417435341344361
3

H 0.0 0.0 -2.2607509469872253
H 0.0 0.0 0.0
H 0.0 0.0 0.7417435341344361
3

H 0.0 0.0 -2.259750946987225
H 0.0 0.0 0.0
H 0.0 0.0 0.7417435341344361
3

H 0.0 0.0 -2.258751099292069
H 0.0 0.0 0.0
H 0.0 0.0 0.7417609865408733
3

H 0.0 0.0 -2.257751099292069
H 0.0 0.0 0.0
H 0.0 0.0 0.7417609865408733
3

H 0.0 0.0 -2.256751099292069
H 0.0 0.0 0.0
H 0.0 0.0 0.7417609865408733
3

H 0.0 0.0 -2.2557510992920693
H 0.0 0.0 0.0
H 0.0 0.0 0.7417609865408733
3

H 0.0 0.0 -2.254751251596913
H 0.0 0.0 0.0
H 0.0 0.0 0.7417784389473105
3

H 0.0 0.0 -2.253751251596913
H 0.0 0.0 0.0
H 0.0 0.0 0.7417784389473105
3

H 0.0 0.0 -2.252751251596913
H 0.0 0.0 0.0
H 0.0 0.0 0.7417784389473105
3

H 0.0 0.0 -2.251751251596913
H 0.0 0.0 0.0
H 0.0 0.0 0.7417784389473105
3

H 0.0 0.0 -2.2507514039017567
H 0.0 0.0 0.0
H 0.0 0.0 0.7417958913537478
3

H 0.0 0.0 -2.2497514039017568
H 0.0 0.0 0.0
H 0.0 0.0 0.7417958913537478
3

H 0.0 0.0 -2.248751403901757
H 0.0 0.0 0.0
H 0.0 0.0 0.7417958913537478
3

H 0.0 0.0 -2.247751403901757
H 0.0 0.0 0.0
H 0.0 0.0 0.7417958913537478
3

H 0.0 0.0 -2.246751403901757
H 0.0 0.0 0.0
H 0.0 0.0 0.7417958913537478
3

H 0.0 0.0 -2.2457515562066006
H 0.0 0.0 0.0
H 0.0 0.0 0.741813343760185
3

H 0.0 0.0 -2.2447515562066007
H 0.0 0.0 0.0
H 0.0 0.0 0.741813343760185
3

H 0.0 0.0 -2.243751556206601
H 0.0 0.0 0.0
H 0.0 0.0 0.741813343760185
3

H 0.0 0.0 -2.2427517085114443
H 0.0 0.0 0.0
H 0.0 0.0 0.7418307961666223
3

H 0.0 0.0 -2.2417517085114445
H 0.0 0.0 0.0
H 0.0 0.0 0.7418307961666223
3

H 0.0 0.0 -2.240751708511445
H 0.0 0.0 0.0
H 0.0 0.0 0.7418307961666223
3

H 0.0 0.0 -2.2397517085114447
H 0.0 0.0 0.0
H 0.0 0.0 0.7418307961666223
3

H 0.0 0.0 -2.238751860816288
H 0.0 0.0 0.0
H 0.0 0.0 0.7418482485730595
3

H 0.0 0.0 -2.2377518608162883
H 0.0 0.0 0.0
H 0.0 0.0 0.7418482485730595
3

H 0.0 0.0 -2.2367518608162884
H 0.0 0.0 0.0
H 0.0 0.0 0.7418482485730595
3

H 0.0 0.0 -2.2357518608162885
H 0.0 0.0 0.0
H 0.0 0.0 0.7418482485730595
3

H 0.0 0.0 -2.234752013121132
H 0.0 0.0 0.0
H 0.0 0.0 0.7418657009794968
3

H 0.0 0.0 -2.233752013121132
H 0.0 0.0 0.0
H 0.0 0.0 0.7418657009794968
3

H 0.0 0.0 -2.2327520131211323
H 0.0 0.0 0.0
H 0.0 0.0 0.7418657009794968
3

H 0.0 0.0 -2.2317520131211324
H 0.0 0.0 0.0
H 0.0 0.0 0.7418657009794968
3

H 0.0 0.0 -2.230752165425976
H 0.0 0.0 0.0
H 0.0 0.0 0.741883153385934
3

H 0.0 0.0 -2.229752165425976
H 0.0 0.0 0.0
H 0.0 0.0 0.741883153385934
3

H 0.0 0.0 -2.228752165425976
H 0.0 0.0 0.0
H 0.0 0.0 0.741883153385934
3

H 0.0 0.0 -2.227752165425976
H 0.0 0.0 0.0
H 0.0 0.0 0.741883153385934
3

H 0.0 0.0 -2.22675231773082
H 0.0 0.0 0.0
H 0.0 0.0 0.7419006057923713
3

H 0.0 0.0 -2.22575231773082
H 0.0 0.0 0.0
H 0.0 0.0 0.7419006057923713
3

H 0.0 0.0 -2.22475231773082
H 0.0 0.0 0.0
H 0.0 0.0 0.7419006057923713
3

H 0.0 0.0 -2.22375231773082
H 0.0 0.0 0.0
H 0.0 0.0 0.7419006057923713
3

H 0.0 0.0 -2.222752470035664
H 0.0 0.0 0.0
H 0.0 0.0 0.7419180581988085
3

H 0.0 0.0 -2.221752470035664
H 0.0 0.0 0.0
H 0.0 0.0 0.7419180581988085
3

H 0.0 0.0 -2.220752470035664
H 0.0 0.0 0.0
H 0.0 0.0 0.7419180581988085
3

H 0.0 0.0 -2.2197526223405077
H 0.0 0.0 0.0
H 0.0 0.0 0.7419355106052458
3

H 0.0 0.0 -2.2187526223405074
H 0.0 0.0 0.0
H 0.0 0.0 0.7419355106052458
3

H 0.0 0.0 -2.2177526223405075
H 0.0 0.0 0.0
H 0.0 0.0 0.7419355106052458
3

H 0.0 0.0 -2.216752622340508
H 0.0 0.0 0.0
H 0.0 0.0 0.7419355106052458
3

H 0.0 0.0 -2.215752774645351
H 0.0 0.0 0.0
H 0.0 0.0 0.741952963011683
3

H 0.0 0.0 -2.2147527746453517
H 0.0 0.0 0.0
H 0.0 0.0 0.741952963011683
3

H 0.0 0.0 -2.213752774645352
H 0.0 0.0 0.0
H 0.0 0.0 0.741952963011683
3

H 0.0 0.0 -2.2127527746453515
H 0.0 0.0 0.0
H 0.0 0.0 0.741952963011683
3

H 0.0 0.0 -2.211752926950195
H 0.0 0.0 0.0
H 0.0 0.0 0.7419704154181203
3

H 0.0 0.0 -2.210752926950195
H 0.0 0.0 0.0
H 0.0 0.0 0.7419704154181203
3

H 0.0 0.0 -2.209752926950195
H 0.0 0.0 0.0
H 0.0 0.0 0.7419704154181203
3

H 0.0 0.0 -2.2087529269501958
H 0.0 0.0 0.0
H 0.0 0.0 0.7419704154181203
3

H 0.0 0.0 -2.207753079255039
H 0.0 0.0 0.0
H 0.0 0.0 0.7419878678245575
3

H 0.0 0.0 -2.206753079255039
H 0.0 0.0 0.0
H 0.0 0.0 0.7419878678245575
3

H 0.0 0.0 -2.205753079255039
H 0.0 0.0 0.0
H 0.0 0.0 0.7419878678245575
3

H 0.0 0.0 -2.2047532315598826
H 0.0 0.0 0.0
H 0.0 0.0 0.7420053202309947
3

H 0.0 0.0 -2.2037532315598827
H 0.0 0.0 0.0
H 0.0 0.0 0.7420053202309947
3

H 0.0 0.0 -2.202753231559883
H 0.0 0.0 0.0
H 0.0 0.0 0.7420053202309947
3

H 0.0 0.0 -2.201753231559883
H 0.0 0.0 0.0
H 0.0 0.0 0.7420053202309947
3

H 0.0 0.0 -2.2007533838647264
H 0.0 0.0 0.0
H 0.0 0.0 0.742022772637432
3

H 0.0 0.0 -2.1997533838647265
H 0.0 0.0 0.0
H 0.0 0.0 0.742022772637432
3

H 0.0 0.0 -2.198753383864726
H 0.0 0.0 0.0
H 0.0 0.0 0.742022772637432
3

H 0.0 0.0 -2.19775353616957
H 0.0 0.0 0.0
H 0.0 0.0 0.7420402250438692
3

H 0.0 0.0 -2.1967535361695703
H 0.0 0.0 0.0
H 0.0 0.0 0.7420402250438692
3

H 0.0 0.0 -2.1957535361695704
H 0.0 0.0 0.0
H 0.0 0.0 0.7420402250438692
3

H 0.0 0.0 -2.1947535361695705
H 0.0 0.0 0.0
H 0.0 0.0 0.7420402250438692
3

H 0.0 0.0 -2.193753688474414
H 0.0 0.0 0.0
H 0.0 0.0 0.7420576774503065
3

H 0.0 0.0 -2.192753688474414
H 0.0 0.0 0.0
H 0.0 0.0 0.7420576774503065
3

H 0.0 0.0 -2.191753688474414
H 0.0 0.0 0.0
H 0.0 0.0 0.7420576774503065
3

H 0.0 0.0 -2.1907538407792577
H 0.0 0.0 0.0
H 0.0 0.0 0.7420751298567437
3

H 0.0 0.0 -2.189753840779258
H 0.0 0.0 0.0
H 0.0 0.0 0.7420751298567437
3

H 0.0 0.0 -2.188753840779258
H 0.0 0.0 0.0
H 0.0 0.0 0.7420751298567437
3

H 0.0 0.0 -2.187753840779258
H 0.0 0.0 0.0
H 0.0 0.0 0.7420751298567437
3

H 0.0 0.0 -2.1867539930841016
H 0.0 0.0 0.0
H 0.0 0.0 0.742092582263181
3

H 0.0 0.0 -2.1857539930841017
H 0.0 0.0 0.0
H 0.0 0.0 0.742092582263181
3

H 0.0 0.0 -2.184753993084102
H 0.0 0.0 0.0
H 0.0 0.0 0.742092582263181
3

H 0.0 0.0 -2.183753993084102
H 0.0 0.0 0.0
H 0.0 0.0 0.742092582263181
3

H 0.0 0.0 -2.1827541453889454
H 0.0 0.0 0.0
H 0.0 0.0 0.7421100346696182
3

H 0.0 0.0 -2.181754145388945
H 0.0 0.0 0.0
H 0.0 0.0 0.7421100346696182
3

H 0.0 0.0 -2.180754297693789
H 0.0 0.0 0.0
H 0.0 0.0 0.7421274870760555
3

H 0.0 0.0 -2.179754297693789
H 0.0 0.0 0.0
H 0.0 0.0 0.7421274870760555
3

H 0.0 0.0 -2.1787542976937893
H 0.0 0.0 0.0
H 0.0 0.0 0.7421274870760555
3

H 0.0 0.0 -2.1777542976937894
H 0.0 0.0 0.0
H 0.0 0.0 0.7421274870760555
3

H 0.0 0.0 -2.176754449998633
H 0.0 0.0 0.0
H 0.0 0.0 0.7421449394824927
3

H 0.0 0.0 -2.175754449998633
H 0.0 0.0 0.0
H 0.0 0.0 0.7421449394824927
3

H 0.0 0.0 -2.1747546023034765
H 0.0 0.0 0.0
H 0.0 0.0 0.74216239188893
3

H 0.0 0.0 -2.1737546023034766
H 0.0 0.0 0.0
H 0.0 0.0 0.74216239188893
3

H 0.0 0.0 -2.1727546023034767
H 0.0 0.0 0.0
H 0.0 0.0 0.74216239188893
3

H 0.0 0.0 -2.171754602303477
H 0.0 0.0 0.0
H 0.0 0.0 0.74216239188893
3

H 0.0 0.0 -2.170754602303477
H 0.0 0.0 0.0
H 0.0 0.0 0.74216239188893
3

H 0.0 0.0 -2.1697547546083205
H 0.0 0.0 0.0
H 0.0 0.0 0.7421798442953672
3

H 0.0 0.0 -2.168754754608321
H 0.0 0.0 0.0
H 0.0 0.0 0.7421798442953672
3

H 0.0 0.0 -2.1677547546083207
H 0.0 0.0 0.0
H 0.0 0.0 0.7421798442953672
3

H 0.0 0.0 -2.166754906913164
H 0.0 0.0 0.0
H 0.0 0.0 0.7421972967018045
3

H 0.0 0.0 -2.1657549069131643
H 0.0 0.0 0.0
H 0.0 0.0 0.7421972967018045
3

H 0.0 0.0 -2.1647549069131644
H 0.0 0.0 0.0
H 0.0 0.0 0.7421972967018045
3

H 0.0 0.0 -2.163755059218008
H 0.0 0.0 0.0
H 0.0 0.0 0.7422147491082417
3

H 0.0 0.0 -2.162755059218008
H 0.0 0.0 0.0
H 0.0 0.0 0.7422147491082417
3

H 0.0 0.0 -2.161755059218008
H 0.0 0.0 0.0
H 0.0 0.0 0.7422147491082417
3

H 0.0 0.0 -2.160755211522852
H 0.0 0.0 0.0
H 0.0 0.0 0.742232201514679
3

H 0.0 0.0 -2.159755211522852
H 0.0 0.0 0.0
H 0.0 0.0 0.742232201514679
3

H 0.0 0.0 -2.1587553638276957
H 0.0 0.0 0.0
H 0.0 0.0 0.7422496539211162
3

H 0.0 0.0 -2.1577553638276954
H 0.0 0.0 0.0
H 0.0 0.0 0.7422496539211162
3

H 0.0 0.0 -2.1567553638276955
H 0.0 0.0 0.0
H 0.0 0.0 0.7422496539211162
3

H 0.0 0.0 -2.155755363827696
H 0.0 0.0 0.0
H 0.0 0.0 0.7422496539211162
3

H 0.0 0.0 -2.154755516132539
H 0.0 0.0 0.0
H 0.0 0.0 0.7422671063275534
3

H 0.0 0.0 -2.1537555161325392
H 0.0 0.0 0.0
H 0.0 0.0 0.7422671063275534
3

H 0.0 0.0 -2.15275551613254
H 0.0 0.0 0.0
H 0.0 0.0 0.7422671063275534
3

H 0.0 0.0 -2.151755668437383
H 0.0 0.0 0.0
H 0.0 0.0 0.7422845587339907
3

H 0.0 0.0 -2.150755668437383
H 0.0 0.0 0.0
H 0.0 0.0 0.7422845587339907
3

H 0.0 0.0 -2.149755668437383
H 0.0 0.0 0.0
H 0.0 0.0 0.7422845587339907
3

H 0.0 0.0 -2.148755668437383
H 0.0 0.0 0.0
H 0.0 0.0 0.7422845587339907
3

H 0.0 0.0 -2.1477558207422267
H 0.0 0.0 0.0
H 0.0 0.0 0.7423020111404279
3

H 0.0 0.0 -2.146755820742227
H 0.0 0.0 0.0
H 0.0 0.0 0.7423020111404279
3

H 0.0 0.0 -2.1457559730470703
H 0.0 0.0 0.0
H 0.0 0.0 0.7423194635468652
3

H 0.0 0.0 -2.1447559730470704
H 0.0 0.0 0.0
H 0.0 0.0 0.7423194635468652
3

H 0.0 0.0 -2.1437559730470706
H 0.0 0.0 0.0
H 0.0 0.0 0.7423194635468652
3

H 0.0 0.0 -2.142756125351914
H 0.0 0.0 0.0
H 0.0 0.0 0.7423369159533024
3

H 0.0 0.0 -2.141756125351914
H 0.0 0.0 0.0
H 0.0 0.0 0.7423369159533024
3

H 0.0 0.0 -2.1407561253519143
H 0.0 0.0 0.0
H 0.0 0.0 0.7423369159533024
3

H 0.0 0.0 -2.139756277656758
H 0.0 0.0 0.0
H 0.0 0.0 0.7423543683597397
3

H 0.0 0.0 -2.138756277656758
H 0.0 0.0 0.0
H 0.0 0.0 0.7423543683597397
3

H 0.0 0.0 -2.137756277656758
H 0.0 0.0 0.0
H 0.0 0.0 0.7423543683597397
3

H 0.0 0.0 -2.136756429961601
H 0.0 0.0 0.0
H 0.0 0.0 0.7423718207661769
3

H 0.0 0.0 -2.1357564299616016
H 0.0 0.0 0.0
H 0.0 0.0 0.7423718207661769
3

H 0.0 0.0 -2.134756582266445
H 0.0 0.0 0.0
H 0.0 0.0 0.7423892731726142
3

H 0.0 0.0 -2.1337565822664453
H 0.0 0.0 0.0
H 0.0 0.0 0.7423892731726142
3

H 0.0 0.0 -2.1327565822664454
H 0.0 0.0 0.0
H 0.0 0.0 0.7423892731726142
3

H 0.0 0.0 -2.131756734571289
H 0.0 0.0 0.0
H 0.0 0.0 0.7424067255790514
3

H 0.0 0.0 -2.130756734571289
H 0.0 0.0 0.0
H 0.0 0.0 0.7424067255790514
3

H 0.0 0.0 -2.129756734571289
H 0.0 0.0 0.0
H 0.0 0.0 0.7424067255790514
3

H 0.0 0.0 -2.1287568868761326
H 0.0 0.0 0.0
H 0.0 0.0 0.7424241779854887
3

H 0.0 0.0 -2.1277568868761327
H 0.0 0.0 0.0
H 0.0 0.0 0.7424241779854887
3

H 0.0 0.0 -2.126756886876133
H 0.0 0.0 0.0
H 0.0 0.0 0.7424241779854887
3

H 0.0 0.0 -2.1257570391809764
H 0.0 0.0 0.0
H 0.0 0.0 0.7424416303919259
3

H 0.0 0.0 -2.1247570391809765
H 0.0 0.0 0.0
H 0.0 0.0 0.7424416303919259
3

H 0.0 0.0 -2.12375719148582
H 0.0 0.0 0.0
H 0.0 0.0 0.7424590827983631
3

H 0.0 0.0 -2.12275719148582
H 0.0 0.0 0.0
H 0.0 0.0 0.7424590827983631
3

H 0.0 0.0 -2.12175719148582
H 0.0 0.0 0.0
H 0.0 0.0 0.7424590827983631
3

H 0.0 0.0 -2.120757343790664
H 0.0 0.0 0.0
H 0.0 0.0 0.7424765352048004
3

H 0.0 0.0 -2.119757343790664
H 0.0 0.0 0.0
H 0.0 0.0 0.7424765352048004
3

H 0.0 0.0 -2.118757343790664
H 0.0 0.0 0.0
H 0.0 0.0 0.7424765352048004
3

H 0.0 0.0 -2.1177574960955075
H 0.0 0.0 0.0
H 0.0 0.0 0.7424939876112376
3

H 0.0 0.0 -2.116757496095508
H 0.0 0.0 0.0
H 0.0 0.0 0.7424939876112376
3

H 0.0 0.0 -2.115757496095508
H 0.0 0.0 0.0
H 0.0 0.0 0.7424939876112376
3

H 0.0 0.0 -2.114757648400351
H 0.0 0.0 0.0
H 0.0 0.0 0.7425114400176749
3

H 0.0 0.0 -2.1137576484003517
H 0.0 0.0 0.0
H 0.0 0.0 0.7425114400176749
3

H 0.0 0.0 -2.112757800705195
H 0.0 0.0 0.0
H 0.0 0.0 0.7425288924241121
3

H 0.0 0.0 -2.111757800705195
H 0.0 0.0 0.0
H 0.0 0.0 0.7425288924241121
3

H 0.0 0.0 -2.1107579530100384
H 0.0 0.0 0.0
H 0.0 0.0 0.7425463448305494
3

H 0.0 0.0 -2.1097579530100385
H 0.0 0.0 0.0
H 0.0 0.0 0.7425463448305494
3

H 0.0 0.0 -2.1087579530100387
H 0.0 0.0 0.0
H 0.0 0.0 0.7425463448305494
3

H 0.0 0.0 -2.107758105314882
H 0.0 0.0 0.0
H 0.0 0.0 0.7425637972369866
3

H 0.0 0.0 -2.1067581053148823
H 0.0 0.0 0.0
H 0.0 0.0 0.7425637972369866
3

H 0.0 0.0 -2.1057581053148824
H 0.0 0.0 0.0
H 0.0 0.0 0.7425637972369866
3

H 0.0 0.0 -2.104758257619726
H 0.0 0.0 0.0
H 0.0 0.0 0.7425812496434239
3

H 0.0 0.0 -2.103758257619726
H 0.0 0.0 0.0
H 0.0 0.0 0.7425812496434239
3

H 0.0 0.0 -2.102758257619726
H 0.0 0.0 0.0
H 0.0 0.0 0.7425812496434239
3

H 0.0 0.0 -2.1017584099245696
H 0.0 0.0 0.0
H 0.0 0.0 0.7425987020498611
3

H 0.0 0.0 -2.1007584099245697
H 0.0 0.0 0.0
H 0.0 0.0 0.7425987020498611
3

H 0.0 0.0 -2.0997585622294133
H 0.0 0.0 0.0
H 0.0 0.0 0.7426161544562984
3

H 0.0 0.0 -2.0987585622294134
H 0.0 0.0 0.0
H 0.0 0.0 0.7426161544562984
3

H 0.0 0.0 -2.097758562229413
H 0.0 0.0 0.0
H 0.0 0.0 0.7426161544562984
3

H 0.0 0.0 -2.096758714534257
H 0.0 0.0 0.0
H 0.0 0.0 0.7426336068627356
3

H 0.0 0.0 -2.095758714534257
H 0.0 0.0 0.0
H 0.0 0.0 0.7426336068627356
3

H 0.0 0.0 -2.0947588668391006
H 0.0 0.0 0.0
H 0.0 0.0 0.7426510592691729
3

H 0.0 0.0 -2.0937588668391007
H 0.0 0.0 0.0
H 0.0 0.0 0.7426510592691729
3

H 0.0 0.0 -2.092759019143944
H 0.0 0.0 0.0
H 0.0 0.0 0.7426685116756101
3

H 0.0 0.0 -2.0917590191439444
H 0.0 0.0 0.0
H 0.0 0.0 0.7426685116756101
3

H 0.0 0.0 -2.0907590191439445
H 0.0 0.0 0.0
H 0.0 0.0 0.7426685116756101
3

H 0.0 0.0 -2.089759171448788
H 0.0 0.0 0.0
H 0.0 0.0 0.7426859640820473
3

H 0.0 0.0 -2.088759171448788
H 0.0 0.0 0.0
H 0.0 0.0 0.7426859640820473
3

H 0.0 0.0 -2.087759323753632
H 0.0 0.0 0.0
H 0.0 0.0 0.7427034164884846
3

H 0.0 0.0 -2.086759323753632
H 0.0 0.0 0.0
H 0.0 0.0 0.7427034164884846
3

H 0.0 0.0 -2.085759323753632
H 0.0 0.0 0.0
H 0.0 0.0 0.7427034164884846
3

H 0.0 0.0 -2.084759476058476
H 0.0 0.0 0.0
H 0.0 0.0 0.7427208688949218
3

H 0.0 0.0 -2.0837594760584754
H 0.0 0.0 0.0
H 0.0 0.0 0.7427208688949218
3

H 0.0 0.0 -2.082759628363319
H 0.0 0.0 0.0
H 0.0 0.0 0.7427383213013591
3

H 0.0 0.0 -2.081759628363319
H 0.0 0.0 0.0
H 0.0 0.0 0.7427383213013591
3

H 0.0 0.0 -2.0807597806681626
H 0.0 0.0 0.0
H 0.0 0.0 0.7427557737077963
3

H 0.0 0.0 -2.0797597806681627
H 0.0 0.0 0.0
H 0.0 0.0 0.7427557737077963
3

H 0.0 0.0 -2.078759780668163
H 0.0 0.0 0.0
H 0.0 0.0 0.7427557737077963
3

H 0.0 0.0 -2.0777599329730063
H 0.0 0.0 0.0
H 0.0 0.0 0.7427732261142336
3

H 0.0 0.0 -2.0767599329730064
H 0.0 0.0 0.0
H 0.0 0.0 0.7427732261142336
3

H 0.0 0.0 -2.0757599329730065
H 0.0 0.0 0.0
H 0.0 0.0 0.7427732261142336
3

H 0.0 0.0 -2.07476008527785
H 0.0 0.0 0.0
H 0.0 0.0 0.7427906785206708
3

H 0.0 0.0 -2.07376008527785
H 0.0 0.0 0.0
H 0.0 0.0 0.7427906785206708
3

H 0.0 0.0 -2.0727602375826937
H 0.0 0.0 0.0
H 0.0 0.0 0.7428081309271081
3

H 0.0 0.0 -2.071760237582694
H 0.0 0.0 0.0
H 0.0 0.0 0.7428081309271081
3

H 0.0 0.0 -2.0707603898875373
H 0.0 0.0 0.0
H 0.0 0.0 0.7428255833335453
3

H 0.0 0.0 -2.0697603898875374
H 0.0 0.0 0.0
H 0.0 0.0 0.7428255833335453
3

H 0.0 0.0 -2.068760542192381
H 0.0 0.0 0.0
H 0.0 0.0 0.7428430357399826
3

H 0.0 0.0 -2.067760542192381
H 0.0 0.0 0.0
H 0.0 0.0 0.7428430357399826
3

H 0.0 0.0 -2.0667606944972245
H 0.0 0.0 0.0
H 0.0 0.0 0.7428604881464198
3

H 0.0 0.0 -2.0657606944972247
H 0.0 0.0 0.0
H 0.0 0.0 0.7428604881464198
3

H 0.0 0.0 -2.0647606944972248
H 0.0 0.0 0.0
H 0.0 0.0 0.7428604881464198
3

H 0.0 0.0 -2.0637608468020683
H 0.0 0.0 0.0
H 0.0 0.0 0.742877940552857
3

H 0.0 0.0 -2.0627608468020684
H 0.0 0.0 0.0
H 0.0 0.0 0.742877940552857
3

H 0.0 0.0 -2.061760999106912
H 0.0 0.0 0.0
H 0.0 0.0 0.7428953929592943
3

H 0.0 0.0 -2.060760999106912
H 0.0 0.0 0.0
H 0.0 0.0 0.7428953929592943
3

H 0.0 0.0 -2.059760999106912
H 0.0 0.0 0.0
H 0.0 0.0 0.7428953929592943
3

H 0.0 0.0 -2.058761151411756
H 0.0 0.0 0.0
H 0.0 0.0 0.7429128453657315
3

H 0.0 0.0 -2.057761303716599
H 0.0 0.0 0.0
H 0.0 0.0 0.7429302977721688
3

H 0.0 0.0 -2.0567613037165997
H 0.0 0.0 0.0
H 0.0 0.0 0.7429302977721688
3

H 0.0 0.0 -2.0557613037166
H 0.0 0.0 0.0
H 0.0 0.0 0.7429302977721688
3

H 0.0 0.0 -2.054761456021443
H 0.0 0.0 0.0
H 0.0 0.0 0.742947750178606
3

H 0.0 0.0 -2.053761456021443
H 0.0 0.0 0.0
H 0.0 0.0 0.742947750178606
3

H 0.0 0.0 -2.0527616083262865
H 0.0 0.0 0.0
H 0.0 0.0 0.7429652025850433
3

H 0.0 0.0 -2.051761608326286
H 0.0 0.0 0.0
H 0.0 0.0 0.7429652025850433
3

H 0.0 0.0 -2.05076176063113
H 0.0 0.0 0.0
H 0.0 0.0 0.7429826549914805
3

H 0.0 0.0 -2.0497617606311302
H 0.0 0.0 0.0
H 0.0 0.0 0.7429826549914805
3

H 0.0 0.0 -2.0487617606311304
H 0.0 0.0 0.0
H 0.0 0.0 0.7429826549914805
3

H 0.0 0.0 -2.047761912935974
H 0.0 0.0 0.0
H 0.0 0.0 0.7430001073979178
3

H 0.0 0.0 -2.0467620652408174
H 0.0 0.0 0.0
H 0.0 0.0 0.743017559804355
3

H 0.0 0.0 -2.045762065240817
H 0.0 0.0 0.0
H 0.0 0.0 0.743017559804355
3

H 0.0 0.0 -2.044762217545661
H 0.0 0.0 0.0
H 0.0 0.0 0.7430350122107923
3

H 0.0 0.0 -2.043762217545661
H 0.0 0.0 0.0
H 0.0 0.0 0.7430350122107923
3

H 0.0 0.0 -2.042762217545661
H 0.0 0.0 0.0
H 0.0 0.0 0.7430350122107923
3

H 0.0 0.0 -2.0417623698505047
H 0.0 0.0 0.0
H 0.0 0.0 0.7430524646172295
3

H 0.0 0.0 -2.0407625221553483
H 0.0 0.0 0.0
H 0.0 0.0 0.7430699170236668
3

H 0.0 0.0 -2.0397625221553484
H 0.0 0.0 0.0
H 0.0 0.0 0.7430699170236668
3

H 0.0 0.0 -2.038762674460192
H 0.0 0.0 0.0
H 0.0 0.0 0.743087369430104
3

H 0.0 0.0 -2.037762674460192
H 0.0 0.0 0.0
H 0.0 0.0 0.743087369430104
3

H 0.0 0.0 -2.036762674460192
H 0.0 0.0 0.0
H 0.0 0.0 0.743087369430104
3

H 0.0 0.0 -2.035762826765036
H 0.0 0.0 0.0
H 0.0 0.0 0.7431048218365413
3

H 0.0 0.0 -2.034762826765036
H 0.0 0.0 0.0
H 0.0 0.0 0.7431048218365413
3

H 0.0 0.0 -2.0337629790698792
H 0.0 0.0 0.0
H 0.0 0.0 0.7431222742429785
3

H 0.0 0.0 -2.03276297906988
H 0.0 0.0 0.0
H 0.0 0.0 0.7431222742429785
3

H 0.0 0.0 -2.031763131374723
H 0.0 0.0 0.0
H 0.0 0.0 0.7431397266494157
3

H 0.0 0.0 -2.030763131374723
H 0.0 0.0 0.0
H 0.0 0.0 0.7431397266494157
3

H 0.0 0.0 -2.0297632836795665
H 0.0 0.0 0.0
H 0.0 0.0 0.743157179055853
3

H 0.0 0.0 -2.0287632836795666
H 0.0 0.0 0.0
H 0.0 0.0 0.743157179055853
3

H 0.0 0.0 -2.02776343598441
H 0.0 0.0 0.0
H 0.0 0.0 0.7431746314622902
3

H 0.0 0.0 -2.0267634359844102
H 0.0 0.0 0.0
H 0.0 0.0 0.7431746314622902
3

H 0.0 0.0 -2.0257635882892537
H 0.0 0.0 0.0
H 0.0 0.0 0.7431920838687275
3

H 0.0 0.0 -2.024763588289254
H 0.0 0.0 0.0
H 0.0 0.0 0.7431920838687275
3

H 0.0 0.0 -2.0237637405940974
H 0.0 0.0 0.0
H 0.0 0.0 0.7432095362751647
3

H 0.0 0.0 -2.022763740594097
H 0.0 0.0 0.0
H 0.0 0.0 0.7432095362751647
3

H 0.0 0.0 -2.021763892898941
H 0.0 0.0 0.0
H 0.0 0.0 0.743226988681602
3

H 0.0 0.0 -2.020763892898941
H 0.0 0.0 0.0
H 0.0 0.0 0.743226988681602
3

H 0.0 0.0 -2.0197640452037846
H 0.0 0.0 0.0
H 0.0 0.0 0.7432444410880392
3

H 0.0 0.0 -2.0187640452037847
H 0.0 0.0 0.0
H 0.0 0.0 0.7432444410880392
3

H 0.0 0.0 -2.017764197508628
H 0.0 0.0 0.0
H 0.0 0.0 0.7432618934944765
3

H 0.0 0.0 -2.016764349813472
H 0.0 0.0 0.0
H 0.0 0.0 0.7432793459009137
3

H 0.0 0.0 -2.015764349813472
H 0.0 0.0 0.0
H 0.0 0.0 0.7432793459009137
3

H 0.0 0.0 -2.014764502118316
H 0.0 0.0 0.0
H 0.0 0.0 0.743296798307351
3

H 0.0 0.0 -2.0137645021183155
H 0.0 0.0 0.0
H 0.0 0.0 0.743296798307351
3

H 0.0 0.0 -2.012764502118316
H 0.0 0.0 0.0
H 0.0 0.0 0.743296798307351
3

H 0.0 0.0 -2.011764654423159
H 0.0 0.0 0.0
H 0.0 0.0 0.7433142507137882
3

H 0.0 0.0 -2.0107648067280026
H 0.0 0.0 0.0
H 0.0 0.0 0.7433317031202255
3

H 0.0 0.0 -2.0097648067280027
H 0.0 0.0 0.0
H 0.0 0.0 0.7433317031202255
3

H 0.0 0.0 -2.0087649590328462
H 0.0 0.0 0.0
H 0.0 0.0 0.7433491555266627
3

H 0.0 0.0 -2.0077649590328464
H 0.0 0.0 0.0
H 0.0 0.0 0.7433491555266627
3

H 0.0 0.0 -2.00676511133769
H 0.0 0.0 0.0
H 0.0 0.0 0.7433666079330999
3

H 0.0 0.0 -2.00576511133769
H 0.0 0.0 0.0
H 0.0 0.0 0.7433666079330999
3

H 0.0 0.0 -2.004765263642533
H 0.0 0.0 0.0
H 0.0 0.0 0.7433840603395372
3

H 0.0 0.0 -2.0037652636425336
H 0.0 0.0 0.0
H 0.0 0.0 0.7433840603395372
3

H 0.0 0.0 -2.002765415947377
H 0.0 0.0 0.0
H 0.0 0.0 0.7434015127459744
3

H 0.0 0.0 -2.0017655682522206
H 0.0 0.0 0.0
H 0.0 0.0 0.7434189651524117
3

H 0.0 0.0 -2.0007655682522207
H 0.0 0.0 0.0
H 0.0 0.0 0.7434189651524117
3

H 0.0 0.0 -1.9997657205570645
H 0.0 0.0 0.0
H 0.0 0.0 0.7434364175588489
3

H 0.0 0.0 -1.9987657205570648
H 0.0 0.0 0.0
H 0.0 0.0 0.7434364175588489
3

H 0.0 0.0 -1.997765872861908
H 0.0 0.0 0.0
H 0.0 0.0 0.7434538699652862
3

H 0.0 0.0 -1.996766025166752
H 0.0 0.0 0.0
H 0.0 0.0 0.7434713223717234
3

H 0.0 0.0 -1.995766025166752
H 0.0 0.0 0.0
H 0.0 0.0 0.7434713223717234
3

H 0.0 0.0 -1.994766025166752
H 0.0 0.0 0.0
H 0.0 0.0 0.7434713223717234
3

H 0.0 0.0 -1.9937661774715956
H 0.0 0.0 0.0
H 0.0 0.0 0.7434887747781607
3

H 0.0 0.0 -1.9927661774715957
H 0.0 0.0 0.0
H 0.0 0.0 0.7434887747781607
3

H 0.0 0.0 -1.991766329776439
H 0.0 0.0 0.0
H 0.0 0.0 0.7435062271845979
3

H 0.0 0.0 -1.9907664820812825
H 0.0 0.0 0.0
H 0.0 0.0 0.7435236795910352
3

H 0.0 0.0 -1.9897664820812824
H 0.0 0.0 0.0
H 0.0 0.0 0.7435236795910352
3

H 0.0 0.0 -1.988766634386126
H 0.0 0.0 0.0
H 0.0 0.0 0.7435411319974724
3

H 0.0 0.0 -1.9877666343861264
H 0.0 0.0 0.0
H 0.0 0.0 0.7435411319974724
3

H 0.0 0.0 -1.9867667866909695
H 0.0 0.0 0.0
H 0.0 0.0 0.7435585844039097
3

H 0.0 0.0 -1.9857667866909696
H 0.0 0.0 0.0
H 0.0 0.0 0.7435585844039097
3

H 0.0 0.0 -1.9847669389958131
H 0.0 0.0 0.0
H 0.0 0.0 0.7435760368103469
3

H 0.0 0.0 -1.9837669389958132
H 0.0 0.0 0.0
H 0.0 0.0 0.7435760368103469
3

H 0.0 0.0 -1.982767091300657
H 0.0 0.0 0.0
H 0.0 0.0 0.7435934892167841
3

H 0.0 0.0 -1.9817672436055005
H 0.0 0.0 0.0
H 0.0 0.0 0.7436109416232214
3

H 0.0 0.0 -1.9807672436055008
H 0.0 0.0 0.0
H 0.0 0.0 0.7436109416232214
3

H 0.0 0.0 -1.979767395910344
H 0.0 0.0 0.0
H 0.0 0.0 0.7436283940296586
3

H 0.0 0.0 -1.978767395910344
H 0.0 0.0 0.0
H 0.0 0.0 0.7436283940296586
3

H 0.0 0.0 -1.977767548215188
H 0.0 0.0 0.0
H 0.0 0.0 0.7436458464360959
3

H 0.0 0.0 -1.9767677005200317
H 0.0 0.0 0.0
H 0.0 0.0 0.7436632988425331
3

H 0.0 0.0 -1.9757677005200316
H 0.0 0.0 0.0
H 0.0 0.0 0.7436632988425331
3

H 0.0 0.0 -1.9747678528248749
H 0.0 0.0 0.0
H 0.0 0.0 0.7436807512489704
3

H 0.0 0.0 -1.9737680051297184
H 0.0 0.0 0.0
H 0.0 0.0 0.7436982036554076
3

H 0.0 0.0 -1.9727680051297185
H 0.0 0.0 0.0
H 0.0 0.0 0.7436982036554076
3

H 0.0 0.0 -1.971768157434562
H 0.0 0.0 0.0
H 0.0 0.0 0.7437156560618449
3

H 0.0 0.0 -1.970768157434562
H 0.0 0.0 0.0
H 0.0 0.0 0.7437156560618449
3

H 0.0 0.0 -1.9697683097394056
H 0.0 0.0 0.0
H 0.0 0.0 0.7437331084682821
3

H 0.0 0.0 -1.9687684620442487
H 0.0 0.0 0.0
H 0.0 0.0 0.7437505608747194
3

H 0.0 0.0 -1.9677684620442493
H 0.0 0.0 0.0
H 0.0 0.0 0.7437505608747194
3

H 0.0 0.0 -1.9667686143490928
H 0.0 0.0 0.0
H 0.0 0.0 0.7437680132811566
3

H 0.0 0.0 -1.965768614349093
H 0.0 0.0 0.0
H 0.0 0.0 0.7437680132811566
3

H 0.0 0.0 -1.9647687666539364
H 0.0 0.0 0.0
H 0.0 0.0 0.7437854656875938
3

H 0.0 0.0 -1.96376891895878
H 0.0 0.0 0.0
H 0.0 0.0 0.7438029180940311
3

H 0.0 0.0 -1.96276891895878
H 0.0 0.0 0.0
H 0.0 0.0 0.7438029180940311
3

H 0.0 0.0 -1.9617690712636235
H 0.0 0.0 0.0
H 0.0 0.0 0.7438203705004683
3

H 0.0 0.0 -1.960769223568467
H 0.0 0.0 0.0
H 0.0 0.0 0.7438378229069056
3

H 0.0 0.0 -1.9597692235684672
H 0.0 0.0 0.0
H 0.0 0.0 0.7438378229069056
3

H 0.0 0.0 -1.958769375873311
H 0.0 0.0 0.0
H 0.0 0.0 0.7438552753133428
3

H 0.0 0.0 -1.9577695281781544
H 0.0 0.0 0.0
H 0.0 0.0 0.7438727277197801
3

H 0.0 0.0 -1.9567695281781543
H 0.0 0.0 0.0
H 0.0 0.0 0.7438727277197801
3

H 0.0 0.0 -1.9557696804829976
H 0.0 0.0 0.0
H 0.0 0.0 0.7438901801262173
3

H 0.0 0.0 -1.954769680482998
H 0.0 0.0 0.0
H 0.0 0.0 0.7438901801262173
3

H 0.0 0.0 -1.9537698327878412
H 0.0 0.0 0.0
H 0.0 0.0 0.7439076325326546
3

H 0.0 0.0 -1.952769985092685
H 0.0 0.0 0.0
H 0.0 0.0 0.7439250849390918
3

H 0.0 0.0 -1.951769985092685
H 0.0 0.0 0.0
H 0.0 0.0 0.7439250849390918
3

H 0.0 0.0 -1.9507701373975288
H 0.0 0.0 0.0
H 0.0 0.0 0.7439425373455291
3

H 0.0 0.0 -1.9497701373975287
H 0.0 0.0 0.0
H 0.0 0.0 0.7439425373455291
3

H 0.0 0.0 -1.948770289702372
H 0.0 0.0 0.0
H 0.0 0.0 0.7439599897519663
3

H 0.0 0.0 -1.947770442007216
H 0.0 0.0 0.0
H 0.0 0.0 0.7439774421584036
3

H 0.0 0.0 -1.946770442007216
H 0.0 0.0 0.0
H 0.0 0.0 0.7439774421584036
3

H 0.0 0.0 -1.9457705943120596
H 0.0 0.0 0.0
H 0.0 0.0 0.7439948945648408
3

H 0.0 0.0 -1.9447707466169029
H 0.0 0.0 0.0
H 0.0 0.0 0.744012346971278
3

H 0.0 0.0 -1.9437708989217464
H 0.0 0.0 0.0
H 0.0 0.0 0.7440297993777153
3

H 0.0 0.0 -1.9427708989217465
H 0.0 0.0 0.0
H 0.0 0.0 0.7440297993777153
3

H 0.0 0.0 -1.94177105122659
H 0.0 0.0 0.0
H 0.0 0.0 0.7440472517841525
3

H 0.0 0.0 -1.9407712035314333
H 0.0 0.0 0.0
H 0.0 0.0 0.7440647041905898
3

H 0.0 0.0 -1.9397712035314336
H 0.0 0.0 0.0
H 0.0 0.0 0.7440647041905898
3

H 0.0 0.0 -1.938771355836277
H 0.0 0.0 0.0
H 0.0 0.0 0.744082156597027
3

H 0.0 0.0 -1.9377713558362768
H 0.0 0.0 0.0
H 0.0 0.0 0.744082156597027
3

H 0.0 0.0 -1.9367715081411208
H 0.0 0.0 0.0
H 0.0 0.0 0.7440996090034643
3

H 0.0 0.0 -1.9357716604459645
H 0.0 0.0 0.0
H 0.0 0.0 0.7441170614099015
3

H 0.0 0.0 -1.934771812750808
H 0.0 0.0 0.0
H 0.0 0.0 0.7441345138163388
3

H 0.0 0.0 -1.933771812750808
H 0.0 0.0 0.0
H 0.0 0.0 0.7441345138163388
3

H 0.0 0.0 -1.9327719650556516
H 0.0 0.0 0.0
H 0.0 0.0 0.744151966222776
3

H 0.0 0.0 -1.931772117360495
H 0.0 0.0 0.0
H 0.0 0.0 0.7441694186292133
3

H 0.0 0.0 -1.930772117360495
H 0.0 0.0 0.0
H 0.0 0.0 0.7441694186292133
3

H 0.0 0.0 -1.9297722696653383
H 0.0 0.0 0.0
H 0.0 0.0 0.7441868710356505
3

H 0.0 0.0 -1.928772421970182
H 0.0 0.0 0.0
H 0.0 0.0 0.7442043234420878
3

H 0.0 0.0 -1.9277725742750256
H 0.0 0.0 0.0
H 0.0 0.0 0.744221775848525
3

H 0.0 0.0 -1.9267725742750257
H 0.0 0.0 0.0
H 0.0 0.0 0.744221775848525
3

H 0.0 0.0 -1.9257727265798688
H 0.0 0.0 0.0
H 0.0 0.0 0.7442392282549622
3

H 0.0 0.0 -1.9247727265798693
H 0.0 0.0 0.0
H 0.0 0.0 0.7442392282549622
3

H 0.0 0.0 -1.9237728788847128
H 0.0 0.0 0.0
H 0.0 0.0 0.7442566806613995
3

H 0.0 0.0 -1.9227730311895563
H 0.0 0.0 0.0
H 0.0 0.0 0.7442741330678367
3

H 0.0 0.0 -1.9217731834944
H 0.0 0.0 0.0
H 0.0 0.0 0.744291585474274
3

H 0.0 0.0 -1.9207733357992436
H 0.0 0.0 0.0
H 0.0 0.0 0.7443090378807112
3

H 0.0 0.0 -1.9197733357992437
H 0.0 0.0 0.0
H 0.0 0.0 0.7443090378807112
3

H 0.0 0.0 -1.918773488104087
H 0.0 0.0 0.0
H 0.0 0.0 0.7443264902871485
3

H 0.0 0.0 -1.9177736404089305
H 0.0 0.0 0.0
H 0.0 0.0 0.7443439426935857
3

H 0.0 0.0 -1.9167736404089304
H 0.0 0.0 0.0
H 0.0 0.0 0.7443439426935857
3

H 0.0 0.0 -1.915773792713774
H 0.0 0.0 0.0
H 0.0 0.0 0.744361395100023
3

H 0.0 0.0 -1.9147739450186176
H 0.0 0.0 0.0
H 0.0 0.0 0.7443788475064602
3

H 0.0 0.0 -1.9137739450186175
H 0.0 0.0 0.0
H 0.0 0.0 0.7443788475064602
3

H 0.0 0.0 -1.9127740973234613
H 0.0 0.0 0.0
H 0.0 0.0 0.7443962999128975
3

H 0.0 0.0 -1.9117742496283048
H 0.0 0.0 0.0
H 0.0 0.0 0.7444137523193347
3

H 0.0 0.0 -1.9107744019331483
H 0.0 0.0 0.0
H 0.0 0.0 0.744431204725772
3

H 0.0 0.0 -1.9097744019331484
H 0.0 0.0 0.0
H 0.0 0.0 0.744431204725772
3

H 0.0 0.0 -1.908774554237992
H 0.0 0.0 0.0
H 0.0 0.0 0.7444486571322092
3

H 0.0 0.0 -1.9077747065428357
H 0.0 0.0 0.0
H 0.0 0.0 0.7444661095386464
3

H 0.0 0.0 -1.906774858847679
H 0.0 0.0 0.0
H 0.0 0.0 0.7444835619450837
3

H 0.0 0.0 -1.905774858847679
H 0.0 0.0 0.0
H 0.0 0.0 0.7444835619450837
3

H 0.0 0.0 -1.9047750111525223
H 0.0 0.0 0.0
H 0.0 0.0 0.7445010143515209
3

H 0.0 0.0 -1.903775163457366
H 0.0 0.0 0.0
H 0.0 0.0 0.7445184667579582
3

H 0.0 0.0 -1.9027753157622096
H 0.0 0.0 0.0
H 0.0 0.0 0.7445359191643954
3

H 0.0 0.0 -1.901775468067053
H 0.0 0.0 0.0
H 0.0 0.0 0.7445533715708327
3

H 0.0 0.0 -1.9007754680670528
H 0.0 0.0 0.0
H 0.0 0.0 0.7445533715708327
3

H 0.0 0.0 -1.8997756203718967
H 0.0 0.0 0.0
H 0.0 0.0 0.7445708239772699
3

H 0.0 0.0 -1.89877577267674
H 0.0 0.0 0.0
H 0.0 0.0 0.7445882763837072
3

H 0.0 0.0 -1.897775924981584
H 0.0 0.0 0.0
H 0.0 0.0 0.7446057287901444
3

H 0.0 0.0 -1.896775924981584
H 0.0 0.0 0.0
H 0.0 0.0 0.7446057287901444
3

H 0.0 0.0 -1.8957760772864276
H 0.0 0.0 0.0
H 0.0 0.0 0.7446231811965817
3

H 0.0 0.0 -1.894776229591271
H 0.0 0.0 0.0
H 0.0 0.0 0.7446406336030189
3

H 0.0 0.0 -1.8937763818961144
H 0.0 0.0 0.0
H 0.0 0.0 0.7446580860094562
3

H 0.0 0.0 -1.892776534200958
H 0.0 0.0 0.0
H 0.0 0.0 0.7446755384158934
3

H 0.0 0.0 -1.891776534200958
H 0.0 0.0 0.0
H 0.0 0.0 0.7446755384158934
3

H 0.0 0.0 -1.8907766865058016
H 0.0 0.0 0.0
H 0.0 0.0 0.7446929908223306
3

H 0.0 0.0 -1.889776838810645
H 0.0 0.0 0.0
H 0.0 0.0 0.7447104432287679
3

H 0.0 0.0 -1.8887769911154888
H 0.0 0.0 0.0
H 0.0 0.0 0.7447278956352051
3

H 0.0 0.0 -1.887777143420332
H 0.0 0.0 0.0
H 0.0 0.0 0.7447453480416424
3

H 0.0 0.0 -1.886777143420332
H 0.0 0.0 0.0
H 0.0 0.0 0.7447453480416424
3

H 0.0 0.0 -1.885777295725176
H 0.0 0.0 0.0
H 0.0 0.0 0.7447628004480796
3

H 0.0 0.0 -1.8847774480300192
H 0.0 0.0 0.0
H 0.0 0.0 0.7447802528545169
3

H 0.0 0.0 -1.8837776003348627
H 0.0 0.0 0.0
H 0.0 0.0 0.7447977052609541
3

H 0.0 0.0 -1.8827777526397065
H 0.0 0.0 0.0
H 0.0 0.0 0.7448151576673914
3

H 0.0 0.0 -1.8817779049445496
H 0.0 0.0 0.0
H 0.0 0.0 0.7448326100738286
3

H 0.0 0.0 -1.8807780572493933
H 0.0 0.0 0.0
H 0.0 0.0 0.7448500624802659
3

H 0.0 0.0 -1.8797782095542368
H 0.0 0.0 0.0
H 0.0 0.0 0.7448675148867031
3

H 0.0 0.0 -1.8787783618590803
H 0.0 0.0 0.0
H 0.0 0.0 0.7448849672931404
3

H 0.0 0.0 -1.877778514163924
H 0.0 0.0 0.0
H 0.0 0.0 0.7449024196995776
3

H 0.0 0.0 -1.8767786664687676
H 0.0 0.0 0.0
H 0.0 0.0 0.7449198721060148
3

H 0.0 0.0 -1.8757788187736109
H 0.0 0.0 0.0
H 0.0 0.0 0.7449373245124521
3

H 0.0 0.0 -1.8747789710784544
H 0.0 0.0 0.0
H 0.0 0.0 0.7449547769188893
3

H 0.0 0.0 -1.8737791233832977
H 0.0 0.0 0.0
H 0.0 0.0 0.7449722293253266
3

H 0.0 0.0 -1.8727792756881412
H 0.0 0.0 0.0
H 0.0 0.0 0.7449896817317638
3

H 0.0 0.0 -1.871779427992985
H 0.0 0.0 0.0
H 0.0 0.0 0.7450071341382011
3

H 0.0 0.0 -1.8707795802978284
H 0.0 0.0 0.0
H 0.0 0.0 0.7450245865446383
3

H 0.0 0.0 -1.869779732602672
H 0.0 0.0 0.0
H 0.0 0.0 0.7450420389510756
3

H 0.0 0.0 -1.8687798849075157
H 0.0 0.0 0.0
H 0.0 0.0 0.7450594913575128
3

H 0.0 0.0 -1.867780037212359
H 0.0 0.0 0.0
H 0.0 0.0 0.7450769437639501
3

H 0.0 0.0 -1.8667801895172025
H 0.0 0.0 0.0
H 0.0 0.0 0.7450943961703873
3

H 0.0 0.0 -1.865780341822046
H 0.0 0.0 0.0
H 0.0 0.0 0.7451118485768246
3

H 0.0 0.0 -1.8647804941268893
H 0.0 0.0 0.0
H 0.0 0.0 0.7451293009832618
3

H 0.0 0.0 -1.863780646431733
H 0.0 0.0 0.0
H 0.0 0.0 0.745146753389699
3

H 0.0 0.0 -1.8627807987365763
H 0.0 0.0 0.0
H 0.0 0.0 0.7451642057961363
3

H 0.0 0.0 -1.86178095104142
H 0.0 0.0 0.0
H 0.0 0.0 0.7451816582025735
3

H 0.0 0.0 -1.860781103346264
H 0.0 0.0 0.0
H 0.0 0.0 0.7451991106090108
3

H 0.0 0.0 -1.859781255651107
H 0.0 0.0 0.0
H 0.0 0.0 0.745216563015448
3

H 0.0 0.0 -1.8587814079559504
H 0.0 0.0 0.0
H 0.0 0.0 0.7452340154218853
3

H 0.0 0.0 -1.857781560260794
H 0.0 0.0 0.0
H 0.0 0.0 0.7452514678283225
3

H 0.0 0.0 -1.8567817125656376
H 0.0 0.0 0.0
H 0.0 0.0 0.7452689202347598
3

H 0.0 0.0 -1.8557818648704807
H 0.0 0.0 0.0
H 0.0 0.0 0.745286372641197
3

H 0.0 0.0 -1.8547820171753249
H 0.0 0.0 0.0
H 0.0 0.0 0.7453038250476343
3

H 0.0 0.0 -1.853782169480168
H 0.0 0.0 0.0
H 0.0 0.0 0.7453212774540715
3

H 0.0 0.0 -1.852782321785012
H 0.0 0.0 0.0
H 0.0 0.0 0.7453387298605088
3

H 0.0 0.0 -1.8517824740898552
H 0.0 0.0 0.0
H 0.0 0.0 0.745356182266946
3

H 0.0 0.0 -1.8507826263946987
H 0.0 0.0 0.0
H 0.0 0.0 0.7453736346733832
3

H 0.0 0.0 -1.8497827786995424
H 0.0 0.0 0.0
H 0.0 0.0 0.7453910870798205
3

H 0.0 0.0 -1.8487829310043855
H 0.0 0.0 0.0
H 0.0 0.0 0.7454085394862577
3

H 0.0 0.0 -1.8477830833092288
H 0.0 0.0 0.0
H 0.0 0.0 0.745425991892695
3

H 0.0 0.0 -1.8467832356140728
H 0.0 0.0 0.0
H 0.0 0.0 0.7454434442991322
3

H 0.0 0.0 -1.8457833879189165
H 0.0 0.0 0.0
H 0.0 0.0 0.7454608967055695
3

H 0.0 0.0 -1.84478354022376
H 0.0 0.0 0.0
H 0.0 0.0 0.7454783491120067
3

H 0.0 0.0 -1.8437836925286035
H 0.0 0.0 0.0
H 0.0 0.0 0.745495801518444
3

H 0.0 0.0 -1.8427838448334468
H 0.0 0.0 0.0
H 0.0 0.0 0.7455132539248812
3

H 0.0 0.0 -1.8417839971382903
H 0.0 0.0 0.0
H 0.0 0.0 0.7455307063313185
3

H 0.0 0.0 -1.8407841494431336
H 0.0 0.0 0.0
H 0.0 0.0 0.7455481587377557
3

H 0.0 0.0 -1.8397843017479771
H 0.0 0.0 0.0
H 0.0 0.0 0.745565611144193
3

H 0.0 0.0 -1.8387844540528209
H 0.0 0.0 0.0
H 0.0 0.0 0.7455830635506302
3

H 0.0 0.0 -1.8377846063576644
H 0.0 0.0 0.0
H 0.0 0.0 0.7456005159570674
3

H 0.0 0.0 -1.836784758662508
H 0.0 0.0 0.0
H 0.0 0.0 0.7456179683635047
3

H 0.0 0.0 -1.8357849109673516
H 0.0 0.0 0.0
H 0.0 0.0 0.7456354207699419
3

H 0.0 0.0 -1.834785063272195
H 0.0 0.0 0.0
H 0.0 0.0 0.7456528731763792
3

H 0.0 0.0 -1.8337852155770384
H 0.0 0.0 0.0
H 0.0 0.0 0.7456703255828164
3

H 0.0 0.0 -1.832785367881882
H 0.0 0.0 0.0
H 0.0 0.0 0.7456877779892537
3

H 0.0 0.0 -1.8317855201867252
H 0.0 0.0 0.0
H 0.0 0.0 0.7457052303956909
3

H 0.0 0.0 -1.830785672491569
H 0.0 0.0 0.0
H 0.0 0.0 0.7457226828021282
3

H 0.0 0.0 -1.8297858247964125
H 0.0 0.0 0.0
H 0.0 0.0 0.7457401352085654
3

H 0.0 0.0 -1.828785977101256
H 0.0 0.0 0.0
H 0.0 0.0 0.7457575876150027
3

H 0.0 0.0 -1.8277861294060995
H 0.0 0.0 0.0
H 0.0 0.0 0.7457750400214399
3

H 0.0 0.0 -1.826786281710943
H 0.0 0.0 0.0
H 0.0 0.0 0.7457924924278772
3

H 0.0 0.0 -1.8257864340157863
H 0.0 0.0 0.0
H 0.0 0.0 0.7458099448343144
3

H 0.0 0.0 -1.82478658632063
H 0.0 0.0 0.0
H 0.0 0.0 0.7458273972407516
3

H 0.0 0.0 -1.8237867386254736
H 0.0 0.0 0.0
H 0.0 0.0 0.7458448496471889
3

H 0.0 0.0 -1.822786890930317
H 0.0 0.0 0.0
H 0.0 0.0 0.7458623020536261
3

H 0.0 0.0 -1.8217870432351608
H 0.0 0.0 0.0
H 0.0 0.0 0.7458797544600634
3

H 0.0 0.0 -1.820787195540004
H 0.0 0.0 0.0
H 0.0 0.0 0.7458972068665006
3

H 0.0 0.0 -1.819787347844848
H 0.0 0.0 0.0
H 0.0 0.0 0.7459146592729379
3

H 0.0 0.0 -1.8187875001496911
H 0.0 0.0 0.0
H 0.0 0.0 0.7459321116793751
3

H 0.0 0.0 -1.8177876524545349
H 0.0 0.0 0.0
H 0.0 0.0 0.7459495640858124
3

H 0.0 0.0 -1.8167878047593784
H 0.0 0.0 0.0
H 0.0 0.0 0.7459670164922496
3

H 0.0 0.0 -1.8157879570642217
H 0.0 0.0 0.0
H 0.0 0.0 0.7459844688986869
3

H 0.0 0.0 -1.8147881093690648
H 0.0 0.0 0.0
H 0.0 0.0 0.7460019213051241
3

H 0.0 0.0 -1.8137882616739087
H 0.0 0.0 0.0
H 0.0 0.0 0.7460193737115614
3

H 0.0 0.0 -1.812788413978752
H 0.0 0.0 0.0
H 0.0 0.0 0.7460368261179986
3

H 0.0 0.0 -1.811789023151733
H 0.0 0.0 0.0
H 0.0 0.0 0.7460717256147011
3

H 0.0 0.0 -1.8107891754565768
H 0.0 0.0 0.0
H 0.0 0.0 0.7460891780211384
3

H 0.0 0.0 -1.80978932776142
H 0.0 0.0 0.0
H 0.0 0.0 0.7461066304275756
3

H 0.0 0.0 -1.808789480066264
H 0.0 0.0 0.0
H 0.0 0.0 0.7461240828340129
3

H 0.0 0.0 -1.8077896323711071
H 0.0 0.0 0.0
H 0.0 0.0 0.7461415352404501
3

H 0.0 0.0 -1.8067897846759504
H 0.0 0.0 0.0
H 0.0 0.0 0.7461589876468874
3

H 0.0 0.0 -1.8057899369807944
H 0.0 0.0 0.0
H 0.0 0.0 0.7461764400533246
3

H 0.0 0.0 -1.8047900892856377
H 0.0 0.0 0.0
H 0.0 0.0 0.7461938924597619
3

H 0.0 0.0 -1.8037902415904807
H 0.0 0.0 0.0
H 0.0 0.0 0.7462113448661991
3

H 0.0 0.0 -1.8027903938953247
H 0.0 0.0 0.0
H 0.0 0.0 0.7462287972726364
3

H 0.0 0.0 -1.801790546200168
H 0.0 0.0 0.0
H 0.0 0.0 0.7462462496790736
3

H 0.0 0.0 -1.8007906985050115
H 0.0 0.0 0.0
H 0.0 0.0 0.7462637020855108
3

H 0.0 0.0 -1.7997908508098552
H 0.0 0.0 0.0
H 0.0 0.0 0.7462811544919481
3

H 0.0 0.0 -1.798791459982836
H 0.0 0.0 0.0
H 0.0 0.0 0.7463160539886506
3

H 0.0 0.0 -1.7977916122876796
H 0.0 0.0 0.0
H 0.0 0.0 0.7463335063950879
3

H 0.0 0.0 -1.796791764592523
H 0.0 0.0 0.0
H 0.0 0.0 0.7463509588015251
3

H 0.0 0.0 -1.7957919168973666
H 0.0 0.0 0.0
H 0.0 0.0 0.7463684112079624
3

H 0.0 0.0 -1.79479206920221
H 0.0 0.0 0.0
H 0.0 0.0 0.7463858636143996
3

H 0.0 0.0 -1.7937922215070536
H 0.0 0.0 0.0
H 0.0 0.0 0.7464033160208369
3

H 0.0 0.0 -1.7927923738118972
H 0.0 0.0 0.0
H 0.0 0.0 0.7464207684272741
3

H 0.0 0.0 -1.791792526116741
H 0.0 0.0 0.0
H 0.0 0.0 0.7464382208337114
3

H 0.0 0.0 -1.7907931352897215
H 0.0 0.0 0.0
H 0.0 0.0 0.7464731203304139
3

H 0.0 0.0 -1.789793287594565
H 0.0 0.0 0.0
H 0.0 0.0 0.7464905727368512
3

H 0.0 0.0 -1.7887934398994083
H 0.0 0.0 0.0
H 0.0 0.0 0.7465080251432884
3

H 0.0 0.0 -1.787793592204252
H 0.0 0.0 0.0
H 0.0 0.0 0.7465254775497256
3

H 0.0 0.0 -1.7867937445090956
H 0.0 0.0 0.0
H 0.0 0.0 0.7465429299561629
3

H 0.0 0.0 -1.785793896813939
H 0.0 0.0 0.0
H 0.0 0.0 0.7465603823626001
3

H 0.0 0.0 -1.78479450598692
H 0.0 0.0 0.0
H 0.0 0.0 0.7465952818593027
3

H 0.0 0.0 -1.7837946582917634
H 0.0 0.0 0.0
H 0.0 0.0 0.7466127342657399
3

H 0.0 0.0 -1.782794810596607
H 0.0 0.0 0.0
H 0.0 0.0 0.7466301866721772
3

H 0.0 0.0 -1.7817949629014505
H 0.0 0.0 0.0
H 0.0 0.0 0.7466476390786144
3

H 0.0 0.0 -1.780795115206294
H 0.0 0.0 0.0
H 0.0 0.0 0.7466650914850517
3

H 0.0 0.0 -1.7797952675111377
H 0.0 0.0 0.0
H 0.0 0.0 0.7466825438914889
3

H 0.0 0.0 -1.7787958766841183
H 0.0 0.0 0.0
H 0.0 0.0 0.7467174433881915
3

H 0.0 0.0 -1.7777960289889618
H 0.0 0.0 0.0
H 0.0 0.0 0.7467348957946287
3

H 0.0 0.0 -1.7767961812938051
H 0.0 0.0 0.0
H 0.0 0.0 0.746752348201066
3

H 0.0 0.0 -1.7757963335986489
H 0.0 0.0 0.0
H 0.0 0.0 0.7467698006075032
3

H 0.0 0.0 -1.7747964859034924
H 0.0 0.0 0.0
H 0.0 0.0 0.7467872530139404
3

H 0.0 0.0 -1.773796638208336
H 0.0 0.0 0.0
H 0.0 0.0 0.7468047054203777
3

H 0.0 0.0 -1.7727972473813167
H 0.0 0.0 0.0
H 0.0 0.0 0.7468396049170802
3

H 0.0 0.0 -1.7717973996861602
H 0.0 0.0 0.0
H 0.0 0.0 0.7468570573235175
3

H 0.0 0.0 -1.7707975519910035
H 0.0 0.0 0.0
H 0.0 0.0 0.7468745097299547
3

H 0.0 0.0 -1.7697977042958473
H 0.0 0.0 0.0
H 0.0 0.0 0.746891962136392
3

H 0.0 0.0 -1.7687978566006908
H 0.0 0.0 0.0
H 0.0 0.0 0.7469094145428292
3

H 0.0 0.0 -1.7677984657736716
H 0.0 0.0 0.0
H 0.0 0.0 0.7469443140395318
3

H 0.0 0.0 -1.7667986180785151
H 0.0 0.0 0.0
H 0.0 0.0 0.746961766445969
3

H 0.0 0.0 -1.7657987703833586
H 0.0 0.0 0.0
H 0.0 0.0 0.7469792188524063
3

H 0.0 0.0 -1.7647989226882022
H 0.0 0.0 0.0
H 0.0 0.0 0.7469966712588435
3

H 0.0 0.0 -1.763799531861183
H 0.0 0.0 0.0
H 0.0 0.0 0.747031570755546
3

H 0.0 0.0 -1.7627996841660265
H 0.0 0.0 0.0
H 0.0 0.0 0.7470490231619833
3

H 0.0 0.0 -1.76179983647087
H 0.0 0.0 0.0
H 0.0 0.0 0.7470664755684205
3

H 0.0 0.0 -1.7607999887757135
H 0.0 0.0 0.0
H 0.0 0.0 0.7470839279748578
3

H 0.0 0.0 -1.7598005979486944
H 0.0 0.0 0.0
H 0.0 0.0 0.7471188274715603
3

H 0.0 0.0 -1.758800750253538
H 0.0 0.0 0.0
H 0.0 0.0 0.7471362798779976
3

H 0.0 0.0 -1.7578009025583814
H 0.0 0.0 0.0
H 0.0 0.0 0.7471537322844348
3

H 0.0 0.0 -1.756801054863225
H 0.0 0.0 0.0
H 0.0 0.0 0.7471711846908721
3

H 0.0 0.0 -1.7558016640362055
H 0.0 0.0 0.0
H 0.0 0.0 0.7472060841875746
3

H 0.0 0.0 -1.7548018163410493
H 0.0 0.0 0.0
H 0.0 0.0 0.7472235365940119
3

H 0.0 0.0 -1.7538019686458928
H 0.0 0.0 0.0
H 0.0 0.0 0.7472409890004491
3

H 0.0 0.0 -1.7528025778188736
H 0.0 0.0 0.0
H 0.0 0.0 0.7472758884971517
3

H 0.0 0.0 -1.7518027301237171
H 0.0 0.0 0.0
H 0.0 0.0 0.7472933409035889
3

H 0.0 0.0 -1.7508028824285606
H 0.0 0.0 0.0
H 0.0 0.0 0.7473107933100261
3

H 0.0 0.0 -1.7498034916015417
H 0.0 0.0 0.0
H 0.0 0.0 0.7473456928067287
3

H 0.0 0.0 -1.748803643906385
H 0.0 0.0 0.0
H 0.0 0.0 0.7473631452131659
3

H 0.0 0.0 -1.7478037962112285
H 0.0 0.0 0.0
H 0.0 0.0 0.7473805976196032
3

H 0.0 0.0 -1.7468044053842091
H 0.0 0.0 0.0
H 0.0 0.0 0.7474154971163057
3

H 0.0 0.0 -1.7458045576890528
H 0.0 0.0 0.0
H 0.0 0.0 0.747432949522743
3

H 0.0 0.0 -1.7448047099938964
H 0.0 0.0 0.0
H 0.0 0.0 0.7474504019291802
3

H 0.0 0.0 -1.74380486229874
H 0.0 0.0 0.0
H 0.0 0.0 0.7474678543356175
3

H 0.0 0.0 -1.7428054714717207
H 0.0 0.0 0.0
H 0.0 0.0 0.74750275383232
3

H 0.0 0.0 -1.7418056237765642
H 0.0 0.0 0.0
H 0.0 0.0 0.7475202062387573
3

H 0.0 0.0 -1.740806232949545
H 0.0 0.0 0.0
H 0.0 0.0 0.7475551057354598
3

H 0.0 0.0 -1.7398063852543886
H 0.0 0.0 0.0
H 0.0 0.0 0.747572558141897
3

H 0.0 0.0 -1.738806537559232
H 0.0 0.0 0.0
H 0.0 0.0 0.7475900105483343
3

H 0.0 0.0 -1.737807146732213
H 0.0 0.0 0.0
H 0.0 0.0 0.7476249100450368
3

H 0.0 0.0 -1.7368072990370564
H 0.0 0.0 0.0
H 0.0 0.0 0.7476423624514741
3

H 0.0 0.0 -1.7358074513419
H 0.0 0.0 0.0
H 0.0 0.0 0.7476598148579113
3

H 0.0 0.0 -1.7348080605148808
H 0.0 0.0 0.0
H 0.0 0.0 0.7476947143546139
3

H 0.0 0.0 -1.7338082128197243
H 0.0 0.0 0.0
H 0.0 0.0 0.7477121667610511
3

H 0.0 0.0 -1.7328088219927051
H 0.0 0.0 0.0
H 0.0 0.0 0.7477470662577537
3

H 0.0 0.0 -1.7318089742975489
H 0.0 0.0 0.0
H 0.0 0.0 0.7477645186641909
3

H 0.0 0.0 -1.7308091266023922
H 0.0 0.0 0.0
H 0.0 0.0 0.7477819710706282
3

H 0.0 0.0 -1.729809735775373
H 0.0 0.0 0.0
H 0.0 0.0 0.7478168705673307
3

H 0.0 0.0 -1.7288098880802163
H 0.0 0.0 0.0
H 0.0 0.0 0.747834322973768
3

H 0.0 0.0 -1.7278104972531974
H 0.0 0.0 0.0
H 0.0 0.0 0.7478692224704705
3

H 0.0 0.0 -1.7268106495580409
H 0.0 0.0 0.0
H 0.0 0.0 0.7478866748769077
3

H 0.0 0.0 -1.7258112587310217
H 0.0 0.0 0.0
H 0.0 0.0 0.7479215743736103
3

H 0.0 0.0 -1.7248114110358652
H 0.0 0.0 0.0
H 0.0 0.0 0.7479390267800475
3

H 0.0 0.0 -1.7238115633407087
H 0.0 0.0 0.0
H 0.0 0.0 0.7479564791864848
3

H 0.0 0.0 -1.7228121725136896
H 0.0 0.0 0.0
H 0.0 0.0 0.7479913786831873
3

H 0.0 0.0 -1.721812324818533
H 0.0 0.0 0.0
H 0.0 0.0 0.7480088310896246
3

H 0.0 0.0 -1.7208124771233766
H 0.0 0.0 0.0
H 0.0 0.0 0.7480262834960618
3

H 0.0 0.0 -1.7198130862963574
H 0.0 0.0 0.0
H 0.0 0.0 0.7480611829927644
3

H 0.0 0.0 -1.7188136954693385
H 0.0 0.0 0.0
H 0.0 0.0 0.7480960824894669
3

H 0.0 0.0 -1.7178138477741818
H 0.0 0.0 0.0
H 0.0 0.0 0.7481135348959042
3

H 0.0 0.0 -1.7168140000790253
H 0.0 0.0 0.0
H 0.0 0.0 0.7481309873023414
3

H 0.0 0.0 -1.715814609252006
H 0.0 0.0 0.0
H 0.0 0.0 0.7481658867990439
3

H 0.0 0.0 -1.7148147615568496
H 0.0 0.0 0.0
H 0.0 0.0 0.7481833392054812
3

H 0.0 0.0 -1.7138153707298305
H 0.0 0.0 0.0
H 0.0 0.0 0.7482182387021837
3

H 0.0 0.0 -1.712815523034674
H 0.0 0.0 0.0
H 0.0 0.0 0.748235691108621
3

H 0.0 0.0 -1.7118161322076548
H 0.0 0.0 0.0
H 0.0 0.0 0.7482705906053235
3

H 0.0 0.0 -1.7108167413806357
H 0.0 0.0 0.0
H 0.0 0.0 0.7483054901020261
3

H 0.0 0.0 -1.7098168936854792
H 0.0 0.0 0.0
H 0.0 0.0 0.7483229425084633
3

H 0.0 0.0 -1.7088170459903227
H 0.0 0.0 0.0
H 0.0 0.0 0.7483403949149006
3

H 0.0 0.0 -1.7078176551633035
H 0.0 0.0 0.0
H 0.0 0.0 0.7483752944116031
3

H 0.0 0.0 -1.706817807468147
H 0.0 0.0 0.0
H 0.0 0.0 0.7483927468180404
3

H 0.0 0.0 -1.705818416641128
H 0.0 0.0 0.0
H 0.0 0.0 0.7484276463147429
3

H 0.0 0.0 -1.7048185689459714
H 0.0 0.0 0.0
H 0.0 0.0 0.7484450987211801
3

H 0.0 0.0 -1.7038191781189522
H 0.0 0.0 0.0
H 0.0 0.0 0.7484799982178827
3

H 0.0 0.0 -1.702819787291933
H 0.0 0.0 0.0
H 0.0 0.0 0.7485148977145852
3

H 0.0 0.0 -1.7018199395967766
H 0.0 0.0 0.0
H 0.0 0.0 0.7485323501210225
3

H 0.0 0.0 -1.7008205487697574
H 0.0 0.0 0.0
H 0.0 0.0 0.748567249617725
3

H 0.0 0.0 -1.699820701074601
H 0.0 0.0 0.0
H 0.0 0.0 0.7485847020241623
3

H 0.0 0.0 -1.6988213102475818
H 0.0 0.0 0.0
H 0.0 0.0 0.7486196015208648
3

H 0.0 0.0 -1.6978214625524253
H 0.0 0.0 0.0
H 0.0 0.0 0.7486370539273021
3

H 0.0 0.0 -1.696822071725406
H 0.0 0.0 0.0
H 0.0 0.0 0.7486719534240046
3

H 0.0 0.0 -1.695822680898387
H 0.0 0.0 0.0
H 0.0 0.0 0.7487068529207072
3

H 0.0 0.0 -1.6948228332032305
H 0.0 0.0 0.0
H 0.0 0.0 0.7487243053271444
3

H 0.0 0.0 -1.6938234423762113
H 0.0 0.0 0.0
H 0.0 0.0 0.748759204823847
3

H 0.0 0.0 -1.6928235946810548
H 0.0 0.0 0.0
H 0.0 0.0 0.7487766572302842
3

H 0.0 0.0 -1.6918242038540356
H 0.0 0.0 0.0
H 0.0 0.0 0.7488115567269867
3

H 0.0 0.0 -1.6908248130270165
H 0.0 0.0 0.0
H 0.0 0.0 0.7488464562236893
3

H 0.0 0.0 -1.68982496533186
H 0.0 0.0 0.0
H 0.0 0.0 0.7488639086301265
3

H 0.0 0.0 -1.6888255745048408
H 0.0 0.0 0.0
H 0.0 0.0 0.7488988081268291
3

H 0.0 0.0 -1.6878257268096843
H 0.0 0.0 0.0
H 0.0 0.0 0.7489162605332663
3

H 0.0 0.0 -1.6868263359826652
H 0.0 0.0 0.0
H 0.0 0.0 0.7489511600299689
3

H 0.0 0.0 -1.685826945155646
H 0.0 0.0 0.0
H 0.0 0.0 0.7489860595266714
3

H 0.0 0.0 -1.6848270974604895
H 0.0 0.0 0.0
H 0.0 0.0 0.7490035119331087
3

H 0.0 0.0 -1.6838277066334704
H 0.0 0.0 0.0
H 0.0 0.0 0.7490384114298112
3

H 0.0 0.0 -1.6828283158064512
H 0.0 0.0 0.0
H 0.0 0.0 0.7490733109265137
3

H 0.0 0.0 -1.681828924979432
H 0.0 0.0 0.0
H 0.0 0.0 0.7491082104232163
3

H 0.0 0.0 -1.6808290772842756
H 0.0 0.0 0.0
H 0.0 0.0 0.7491256628296535
3

H 0.0 0.0 -1.6798296864572564
H 0.0 0.0 0.0
H 0.0 0.0 0.7491605623263561
3

H 0.0 0.0 -1.6788302956302372
H 0.0 0.0 0.0
H 0.0 0.0 0.7491954618230586
3

H 0.0 0.0 -1.677830904803218
H 0.0 0.0 0.0
H 0.0 0.0 0.7492303613197612
3

H 0.0 0.0 -1.676831513976199
H 0.0 0.0 0.0
H 0.0 0.0 0.7492652608164637
3

H 0.0 0.0 -1.6758321231491795
H 0.0 0.0 0.0
H 0.0 0.0 0.7493001603131663
3

H 0.0 0.0 -1.6748327323221606
H 0.0 0.0 0.0
H 0.0 0.0 0.7493350598098688
3

H 0.0 0.0 -1.6738333414951414
H 0.0 0.0 0.0
H 0.0 0.0 0.7493699593065714
3

H 0.0 0.0 -1.6728339506681222
H 0.0 0.0 0.0
H 0.0 0.0 0.7494048588032739
3

H 0.0 0.0 -1.671834559841103
H 0.0 0.0 0.0
H 0.0 0.0 0.7494397582999764
3

H 0.0 0.0 -1.670835169014084
H 0.0 0.0 0.0
H 0.0 0.0 0.749474657796679
3

H 0.0 0.0 -1.6698357781870647
H 0.0 0.0 0.0
H 0.0 0.0 0.7495095572933815
3

H 0.0 0.0 -1.6688363873600456
H 0.0 0.0 0.0
H 0.0 0.0 0.7495444567900841
3

H 0.0 0.0 -1.6678369965330264
H 0.0 0.0 0.0
H 0.0 0.0 0.7495793562867866
3

H 0.0 0.0 -1.6668376057060073
H 0.0 0.0 0.0
H 0.0 0.0 0.7496142557834892
3

H 0.0 0.0 -1.665838214878988
H 0.0 0.0 0.0
H 0.0 0.0 0.7496491552801917
3

H 0.0 0.0 -1.664838824051969
H 0.0 0.0 0.0
H 0.0 0.0 0.7496840547768943
3

H 0.0 0.0 -1.6638394332249498
H 0.0 0.0 0.0
H 0.0 0.0 0.7497189542735968
3

H 0.0 0.0 -1.6628400423979306
H 0.0 0.0 0.0
H 0.0 0.0 0.7497538537702993
3

H 0.0 0.0 -1.6618406515709114
H 0.0 0.0 0.0
H 0.0 0.0 0.7497887532670019
3

H 0.0 0.0 -1.6608412607438925
H 0.0 0.0 0.0
H 0.0 0.0 0.7498236527637044
3

H 0.0 0.0 -1.659841869916873
H 0.0 0.0 0.0
H 0.0 0.0 0.749858552260407
3

H 0.0 0.0 -1.658842479089854
H 0.0 0.0 0.0
H 0.0 0.0 0.7498934517571095
3

H 0.0 0.0 -1.6578430882628348
H 0.0 0.0 0.0
H 0.0 0.0 0.7499283512538121
3

H 0.0 0.0 -1.6568436974358156
H 0.0 0.0 0.0
H 0.0 0.0 0.7499632507505146
3

H 0.0 0.0 -1.6558443066087964
H 0.0 0.0 0.0
H 0.0 0.0 0.7499981502472172
3

H 0.0 0.0 -1.6548449157817773
H 0.0 0.0 0.0
H 0.0 0.0 0.7500330497439197
3

H 0.0 0.0 -1.653845524954758
H 0.0 0.0 0.0
H 0.0 0.0 0.7500679492406223
3

H 0.0 0.0 -1.652846134127739
H 0.0 0.0 0.0
H 0.0 0.0 0.7501028487373248
3

H 0.0 0.0 -1.6518467433007198
H 0.0 0.0 0.0
H 0.0 0.0 0.7501377482340273
3

H 0.0 0.0 -1.6508473524737006
H 0.0 0.0 0.0
H 0.0 0.0 0.7501726477307299
3

H 0.0 0.0 -1.6498479616466817
H 0.0 0.0 0.0
H 0.0 0.0 0.7502075472274324
3

H 0.0 0.0 -1.6488485708196623
H 0.0 0.0 0.0
H 0.0 0.0 0.750242446724135
3

H 0.0 0.0 -1.6478491799926431
H 0.0 0.0 0.0
H 0.0 0.0 0.7502773462208375
3

H 0.0 0.0 -1.646849789165624
H 0.0 0.0 0.0
H 0.0 0.0 0.7503122457175401
3

H 0.0 0.0 -1.6458503983386048
H 0.0 0.0 0.0
H 0.0 0.0 0.7503471452142426
3

H 0.0 0.0 -1.6448510075115856
H 0.0 0.0 0.0
H 0.0 0.0 0.7503820447109452
3

H 0.0 0.0 -1.6438516166845665
H 0.0 0.0 0.0
H 0.0 0.0 0.7504169442076477
3

H 0.0 0.0 -1.6428522258575473
H 0.0 0.0 0.0
H 0.0 0.0 0.7504518437043503
3

H 0.0 0.0 -1.641852835030528
H 0.0 0.0 0.0
H 0.0 0.0 0.7504867432010528
3

H 0.0 0.0 -1.640853444203509
H 0.0 0.0 0.0
H 0.0 0.0 0.7505216426977553
3

H 0.0 0.0 -1.6398540533764898
H 0.0 0.0 0.0
H 0.0 0.0 0.7505565421944579
3

H 0.0 0.0 -1.6388546625494709
H 0.0 0.0 0.0
H 0.0 0.0 0.7505914416911604
3

H 0.0 0.0 -1.6378552717224517
H 0.0 0.0 0.0
H 0.0 0.0 0.750626341187863
3

H 0.0 0.0 -1.6368558808954323
H 0.0 0.0 0.0
H 0.0 0.0 0.7506612406845655
3

H 0.0 0.0 -1.6358572513606775
H 0.0 0.0 0.0
H 0.0 0.0 0.7507135766408085
3

H 0.0 0.0 -1.6348578605336586
H 0.0 0.0 0.0
H 0.0 0.0 0.7507484761375111
3

H 0.0 0.0 -1.6338584697066394
H 0.0 0.0 0.0
H 0.0 0.0 0.7507833756342136
3

H 0.0 0.0 -1.6328590788796202
H 0.0 0.0 0.0
H 0.0 0.0 0.7508182751309161
3

H 0.0 0.0 -1.631859688052601
H 0.0 0.0 0.0
H 0.0 0.0 0.7508531746276187
3

H 0.0 0.0 -1.630860297225582
H 0.0 0.0 0.0
H 0.0 0.0 0.7508880741243212
3

H 0.0 0.0 -1.6298609063985627
H 0.0 0.0 0.0
H 0.0 0.0 0.7509229736210238
3

H 0.0 0.0 -1.6288615155715436
H 0.0 0.0 0.0
H 0.0 0.0 0.7509578731177263
3

H 0.0 0.0 -1.6278621247445244
H 0.0 0.0 0.0
H 0.0 0.0 0.7509927726144289
3

H 0.0 0.0 -1.6268627339175052
H 0.0 0.0 0.0
H 0.0 0.0 0.7510276721111314
3

H 0.0 0.0 -1.625863343090486
H 0.0 0.0 0.0
H 0.0 0.0 0.751062571607834
3

H 0.0 0.0 -1.624863952263467
H 0.0 0.0 0.0
H 0.0 0.0 0.7510974711045365
3

H 0.0 0.0 -1.6238645614364478
H 0.0 0.0 0.0
H 0.0 0.0 0.751132370601239
3

H 0.0 0.0 -1.6228651706094286
H 0.0 0.0 0.0
H 0.0 0.0 0.7511672700979416
3

H 0.0 0.0 -1.6218657797824094
H 0.0 0.0 0.0
H 0.0 0.0 0.7512021695946441
3

H 0.0 0.0 -1.6208663889553905
H 0.0 0.0 0.0
H 0.0 0.0 0.7512370690913467
3

H 0.0 0.0 -1.619866998128371
H 0.0 0.0 0.0
H 0.0 0.0 0.7512719685880492
3

H 0.0 0.0 -1.618867607301352
H 0.0 0.0 0.0
H 0.0 0.0 0.7513068680847518
3

H 0.0 0.0 -1.6178682164743328
H 0.0 0.0 0.0
H 0.0 0.0 0.7513417675814543
3

H 0.0 0.0 -1.6168695869395782
H 0.0 0.0 0.0
H 0.0 0.0 0.7513941035376973
3

H 0.0 0.0 -1.615870196112559
H 0.0 0.0 0.0
H 0.0 0.0 0.7514290030343999
3

H 0.0 0.0 -1.6148708052855398
H 0.0 0.0 0.0
H 0.0 0.0 0.7514639025311024
3

H 0.0 0.0 -1.613871414458521
H 0.0 0.0 0.0
H 0.0 0.0 0.751498802027805
3

H 0.0 0.0 -1.6128720236315015
H 0.0 0.0 0.0
H 0.0 0.0 0.7515337015245075
3

H 0.0 0.0 -1.611873394096747
H 0.0 0.0 0.0
H 0.0 0.0 0.7515860374807505
3

H 0.0 0.0 -1.6108740032697275
H 0.0 0.0 0.0
H 0.0 0.0 0.751620936977453
3

H 0.0 0.0 -1.6098746124427086
H 0.0 0.0 0.0
H 0.0 0.0 0.7516558364741556
3

H 0.0 0.0 -1.6088752216156894
H 0.0 0.0 0.0
H 0.0 0.0 0.7516907359708581
3

H 0.0 0.0 -1.6078758307886702
H 0.0 0.0 0.0
H 0.0 0.0 0.7517256354675607
3

H 0.0 0.0 -1.606876439961651
H 0.0 0.0 0.0
H 0.0 0.0 0.7517605349642632
3

H 0.0 0.0 -1.6058778104268965
H 0.0 0.0 0.0
H 0.0 0.0 0.7518128709205062
3

H 0.0 0.0 -1.604878419599877
H 0.0 0.0 0.0
H 0.0 0.0 0.7518477704172087
3

H 0.0 0.0 -1.6038790287728582
H 0.0 0.0 0.0
H 0.0 0.0 0.7518826699139113
3

H 0.0 0.0 -1.602879637945839
H 0.0 0.0 0.0
H 0.0 0.0 0.7519175694106138
3

H 0.0 0.0 -1.6018810084110844
H 0.0 0.0 0.0
H 0.0 0.0 0.7519699053668568
3

H 0.0 0.0 -1.6008816175840652
H 0.0 0.0 0.0
H 0.0 0.0 0.7520048048635594
3

H 0.0 0.0 -1.599882226757046
H 0.0 0.0 0.0
H 0.0 0.0 0.7520397043602619
3

H 0.0 0.0 -1.598882835930027
H 0.0 0.0 0.0
H 0.0 0.0 0.7520746038569645
3

H 0.0 0.0 -1.5978842063952725
H 0.0 0.0 0.0
H 0.0 0.0 0.7521269398132074
3

H 0.0 0.0 -1.5968848155682531
H 0.0 0.0 0.0
H 0.0 0.0 0.75216183930991
3

H 0.0 0.0 -1.595885424741234
H 0.0 0.0 0.0
H 0.0 0.0 0.7521967388066125
3

H 0.0 0.0 -1.5948867952064794
H 0.0 0.0 0.0
H 0.0 0.0 0.7522490747628555
3

H 0.0 0.0 -1.5938874043794602
H 0.0 0.0 0.0
H 0.0 0.0 0.7522839742595581
3

H 0.0 0.0 -1.592888013552441
H 0.0 0.0 0.0
H 0.0 0.0 0.7523188737562606
3

H 0.0 0.0 -1.5918893840176864
H 0.0 0.0 0.0
H 0.0 0.0 0.7523712097125036
3

H 0.0 0.0 -1.5908899931906673
H 0.0 0.0 0.0
H 0.0 0.0 0.7524061092092061
3

H 0.0 0.0 -1.589890602363648
H 0.0 0.0 0.0
H 0.0 0.0 0.7524410087059087
3

H 0.0 0.0 -1.5888919728288935
H 0.0 0.0 0.0
H 0.0 0.0 0.7524933446621517
3

H 0.0 0.0 -1.5878925820018743
H 0.0 0.0 0.0
H 0.0 0.0 0.7525282441588542
3

H 0.0 0.0 -1.5868931911748552
H 0.0 0.0 0.0
H 0.0 0.0 0.7525631436555568
3

H 0.0 0.0 -1.5858945616401006
H 0.0 0.0 0.0
H 0.0 0.0 0.7526154796117998
3

H 0.0 0.0 -1.5848951708130814
H 0.0 0.0 0.0
H 0.0 0.0 0.7526503791085023
3

H 0.0 0.0 -1.5838957799860622
H 0.0 0.0 0.0
H 0.0 0.0 0.7526852786052048
3

H 0.0 0.0 -1.5828971504513076
H 0.0 0.0 0.0
H 0.0 0.0 0.7527376145614478
3

H 0.0 0.0 -1.5818977596242885
H 0.0 0.0 0.0
H 0.0 0.0 0.7527725140581504
3

H 0.0 0.0 -1.580899130089534
H 0.0 0.0 0.0
H 0.0 0.0 0.7528248500143934
3

H 0.0 0.0 -1.5798997392625147
H 0.0 0.0 0.0
H 0.0 0.0 0.7528597495110959
3

H 0.0 0.0 -1.57890110972776
H 0.0 0.0 0.0
H 0.0 0.0 0.7529120854673389
3

H 0.0 0.0 -1.577901718900741
H 0.0 0.0 0.0
H 0.0 0.0 0.7529469849640414
3

H 0.0 0.0 -1.5769023280737218
H 0.0 0.0 0.0
H 0.0 0.0 0.752981884460744
3

H 0.0 0.0 -1.5759036985389672
H 0.0 0.0 0.0
H 0.0 0.0 0.753034220416987
3

H 0.0 0.0 -1.5749050690042126
H 0.0 0.0 0.0
H 0.0 0.0 0.75308655637323
3

H 0.0 0.0 -1.5739056781771934
H 0.0 0.0 0.0
H 0.0 0.0 0.7531214558699325
3

H 0.0 0.0 -1.5729070486424388
H 0.0 0.0 0.0
H 0.0 0.0 0.7531737918261755
3

H 0.0 0.0 -1.5719076578154196
H 0.0 0.0 0.0
H 0.0 0.0 0.753208691322878
3

H 0.0 0.0 -1.570909028280665
H 0.0 0.0 0.0
H 0.0 0.0 0.753261027279121
3

H 0.0 0.0 -1.569909637453646
H 0.0 0.0 0.0
H 0.0 0.0 0.7532959267758236
3

H 0.0 0.0 -1.5689110079188913
H 0.0 0.0 0.0
H 0.0 0.0 0.7533482627320666
3

H 0.0 0.0 -1.567911617091872
H 0.0 0.0 0.0
H 0.0 0.0 0.7533831622287691
3

H 0.0 0.0 -1.5669129875571175
H 0.0 0.0 0.0
H 0.0 0.0 0.7534354981850121
3

H 0.0 0.0 -1.565914358022363
H 0.0 0.0 0.0
H 0.0 0.0 0.7534878341412551
3

H 0.0 0.0 -1.5649157284876083
H 0.0 0.0 0.0
H 0.0 0.0 0.7535401700974981
3

H 0.0 0.0 -1.5639170989528537
H 0.0 0.0 0.0
H 0.0 0.0 0.7535925060537411
3

H 0.0 0.0 -1.562918469418099
H 0.0 0.0 0.0
H 0.0 0.0 0.753644842009984
3

H 0.0 0.0 -1.5619198398833445
H 0.0 0.0 0.0
H 0.0 0.0 0.753697177966227
3

H 0.0 0.0 -1.56092121034859
H 0.0 0.0 0.0
H 0.0 0.0 0.75374951392247
3

H 0.0 0.0 -1.5599225808138353
H 0.0 0.0 0.0
H 0.0 0.0 0.753801849878713
3

H 0.0 0.0 -1.558923951279081
H 0.0 0.0 0.0
H 0.0 0.0 0.753854185834956
3

H 0.0 0.0 -1.557925321744326
H 0.0 0.0 0.0
H 0.0 0.0 0.753906521791199
3

H 0.0 0.0 -1.5569266922095717
H 0.0 0.0 0.0
H 0.0 0.0 0.753958857747442
3

H 0.0 0.0 -1.5559280626748169
H 0.0 0.0 0.0
H 0.0 0.0 0.754011193703685
3

H 0.0 0.0 -1.5549294331400625
H 0.0 0.0 0.0
H 0.0 0.0 0.754063529659928
3

H 0.0 0.0 -1.5539308036053077
H 0.0 0.0 0.0
H 0.0 0.0 0.7541158656161709
3

H 0.0 0.0 -1.552932174070553
H 0.0 0.0 0.0
H 0.0 0.0 0.7541682015724139
3

H 0.0 0.0 -1.5519335445357985
H 0.0 0.0 0.0
H 0.0 0.0 0.7542205375286569
3

H 0.0 0.0 -1.550934915001044
H 0.0 0.0 0.0
H 0.0 0.0 0.7542728734848999
3

H 0.0 0.0 -1.5499362854662893
H 0.0 0.0 0.0
H 0.0 0.0 0.7543252094411429
3

H 0.0 0.0 -1.5489376559315349
H 0.0 0.0 0.0
H 0.0 0.0 0.7543775453973859
3

H 0.0 0.0 -1.54793902639678
H 0.0 0.0 0.0
H 0.0 0.0 0.7544298813536289
3

H 0.0 0.0 -1.5469403968620254
H 0.0 0.0 0.0
H 0.0 0.0 0.7544822173098719
3

H 0.0 0.0 -1.5459417673272708
H 0.0 0.0 0.0
H 0.0 0.0 0.7545345532661148
3

H 0.0 0.0 -1.5449431377925162
H 0.0 0.0 0.0
H 0.0 0.0 0.7545868892223578
3

H 0.0 0.0 -1.5439445082577616
H 0.0 0.0 0.0
H 0.0 0.0 0.7546392251786008
3

H 0.0 0.0 -1.542945878723007
H 0.0 0.0 0.0
H 0.0 0.0 0.7546915611348438
3

H 0.0 0.0 -1.5419472491882524
H 0.0 0.0 0.0
H 0.0 0.0 0.7547438970910868
3

H 0.0 0.0 -1.5409486196534978
H 0.0 0.0 0.0
H 0.0 0.0 0.7547962330473298
3

H 0.0 0.0 -1.5399499901187432
H 0.0 0.0 0.0
H 0.0 0.0 0.7548485690035728
3

H 0.0 0.0 -1.5389513605839886
H 0.0 0.0 0.0
H 0.0 0.0 0.7549009049598158
3

H 0.0 0.0 -1.537952731049234
H 0.0 0.0 0.0
H 0.0 0.0 0.7549532409160588
3

H 0.0 0.0 -1.5369541015144794
H 0.0 0.0 0.0
H 0.0 0.0 0.7550055768723017
3

H 0.0 0.0 -1.5359554719797248
H 0.0 0.0 0.0
H 0.0 0.0 0.7550579128285447
3

H 0.0 0.0 -1.5349568424449702
H 0.0 0.0 0.0
H 0.0 0.0 0.7551102487847877
3

H 0.0 0.0 -1.5339582129102156
H 0.0 0.0 0.0
H 0.0 0.0 0.7551625847410307
3

H 0.0 0.0 -1.532959583375461
H 0.0 0.0 0.0
H 0.0 0.0 0.7552149206972737
3

H 0.0 0.0 -1.5319609538407064
H 0.0 0.0 0.0
H 0.0 0.0 0.7552672566535167
3

H 0.0 0.0 -1.5309623243059518
H 0.0 0.0 0.0
H 0.0 0.0 0.7553195926097597
3

H 0.0 0.0 -1.5299636947711972
H 0.0 0.0 0.0
H 0.0 0.0 0.7553719285660027
3

H 0.0 0.0 -1.5289650652364426
H 0.0 0.0 0.0
H 0.0 0.0 0.7554242645222456
3

H 0.0 0.0 -1.527966435701688
H 0.0 0.0 0.0
H 0.0 0.0 0.7554766004784886
3

H 0.0 0.0 -1.5269688716514285
H 0.0 0.0 0.0
H 0.0 0.0 0.7555463569522327
3

H 0.0 0.0 -1.5259702421166736
H 0.0 0.0 0.0
H 0.0 0.0 0.7555986929084757
3

H 0.0 0.0 -1.524971612581919
H 0.0 0.0 0.0
H 0.0 0.0 0.7556510288647187
3

H 0.0 0.0 -1.5239729830471644
H 0.0 0.0 0.0
H 0.0 0.0 0.7557033648209617
3

H 0.0 0.0 -1.5229743535124098
H 0.0 0.0 0.0
H 0.0 0.0 0.7557557007772047
3

H 0.0 0.0 -1.5219757239776552
H 0.0 0.0 0.0
H 0.0 0.0 0.7558080367334477
3

H 0.0 0.0 -1.5209770944429006
H 0.0 0.0 0.0
H 0.0 0.0 0.7558603726896906
3

H 0.0 0.0 -1.519978464908146
H 0.0 0.0 0.0
H 0.0 0.0 0.7559127086459336
3

H 0.0 0.0 -1.5189798353733914
H 0.0 0.0 0.0
H 0.0 0.0 0.7559650446021766
3

H 0.0 0.0 -1.5179812058386368
H 0.0 0.0 0.0
H 0.0 0.0 0.7560173805584196
3

H 0.0 0.0 -1.5169825763038822
H 0.0 0.0 0.0
H 0.0 0.0 0.7560697165146626
3

H 0.0 0.0 -1.5159839467691276
H 0.0 0.0 0.0
H 0.0 0.0 0.7561220524709056
3

H 0.0 0.0 -1.514985317234373
H 0.0 0.0 0.0
H 0.0 0.0 0.7561743884271486
3

H 0.0 0.0 -1.5139866876996184
H 0.0 0.0 0.0
H 0.0 0.0 0.7562267243833916
3

H 0.0 0.0 -1.512989123649359
H 0.0 0.0 0.0
H 0.0 0.0 0.7562964808571356
3

H 0.0 0.0 -1.511990494114604
H 0.0 0.0 0.0
H 0.0 0.0 0.7563488168133786
3

H 0.0 0.0 -1.5109918645798497
H 0.0 0.0 0.0
H 0.0 0.0 0.7564011527696216
3

H 0.0 0.0 -1.5099932350450949
H 0.0 0.0 0.0
H 0.0 0.0 0.7564534887258646
3

H 0.0 0.0 -1.5089946055103405
H 0.0 0.0 0.0
H 0.0 0.0 0.7565058246821076
3

H 0.0 0.0 -1.5079959759755857
H 0.0 0.0 0.0
H 0.0 0.0 0.7565581606383506
3

H 0.0 0.0 -1.506998411925326
H 0.0 0.0 0.0
H 0.0 0.0 0.7566279171120947
3

H 0.0 0.0 -1.5059997823905713
H 0.0 0.0 0.0
H 0.0 0.0 0.7566802530683376
3

H 0.0 0.0 -1.5050011528558167
H 0.0 0.0 0.0
H 0.0 0.0 0.7567325890245806
3

H 0.0 0.0 -1.504002523321062
H 0.0 0.0 0.0
H 0.0 0.0 0.7567849249808236
3

H 0.0 0.0 -1.5030049592708024
H 0.0 0.0 0.0
H 0.0 0.0 0.7568546814545677
3

H 0.0 0.0 -1.5020063297360478
H 0.0 0.0 0.0
H 0.0 0.0 0.7569070174108107
3

H 0.0 0.0 -1.5010077002012931
H 0.0 0.0 0.0
H 0.0 0.0 0.7569593533670537
3

H 0.0 0.0 -1.5000101361510334
H 0.0 0.0 0.0
H 0.0 0.0 0.7570291098407977
3

H 0.0 0.0 -1.4990115066162788
H 0.0 0.0 0.0
H 0.0 0.0 0.7570814457970407
3

H 0.0 0.0 -1.4980128770815242
H 0.0 0.0 0.0
H 0.0 0.0 0.7571337817532837
3

H 0.0 0.0 -1.4970153130312644
H 0.0 0.0 0.0
H 0.0 0.0 0.7572035382270278
3

H 0.0 0.0 -1.4960166834965098
H 0.0 0.0 0.0
H 0.0 0.0 0.7572558741832708
3

H 0.0 0.0 -1.49501911944625
H 0.0 0.0 0.0
H 0.0 0.0 0.7573256306570149
3

H 0.0 0.0 -1.4940204899114955
H 0.0 0.0 0.0
H 0.0 0.0 0.7573779666132578
3

H 0.0 0.0 -1.493021860376741
H 0.0 0.0 0.0
H 0.0 0.0 0.7574303025695008
3

H 0.0 0.0 -1.4920242963264811
H 0.0 0.0 0.0
H 0.0 0.0 0.7575000590432449
3

H 0.0 0.0 -1.4910256667917263
H 0.0 0.0 0.0
H 0.0 0.0 0.7575523949994879
3

H 0.0 0.0 -1.4900281027414668
H 0.0 0.0 0.0
H 0.0 0.0 0.757622151473232
3

H 0.0 0.0 -1.489030538691207
H 0.0 0.0 0.0
H 0.0 0.0 0.757691907946976
3

H 0.0 0.0 -1.4880329746409473
H 0.0 0.0 0.0
H 0.0 0.0 0.7577616644207201
3

H 0.0 0.0 -1.4870354105906876
H 0.0 0.0 0.0
H 0.0 0.0 0.7578314208944642
3

H 0.0 0.0 -1.4860378465404278
H 0.0 0.0 0.0
H 0.0 0.0 0.7579011773682083
3

H 0.0 0.0 -1.485040282490168
H 0.0 0.0 0.0
H 0.0 0.0 0.7579709338419524
3

H 0.0 0.0 -1.4840427184399083
H 0.0 0.0 0.0
H 0.0 0.0 0.7580406903156964
3

H 0.0 0.0 -1.4830451543896486
H 0.0 0.0 0.0
H 0.0 0.0 0.7581104467894405
3

H 0.0 0.0 -1.4820475903393888
H 0.0 0.0 0.0
H 0.0 0.0 0.7581802032631846
3

H 0.0 0.0 -1.481050026289129
H 0.0 0.0 0.0
H 0.0 0.0 0.7582499597369287
3

H 0.0 0.0 -1.480052462238869
H 0.0 0.0 0.0
H 0.0 0.0 0.7583197162106727
3

H 0.0 0.0 -1.4790548981886096
H 0.0 0.0 0.0
H 0.0 0.0 0.7583894726844168
3

H 0.0 0.0 -1.4780573341383498
H 0.0 0.0 0.0
H 0.0 0.0 0.7584592291581609
3

H 0.0 0.0 -1.47705977008809
H 0.0 0.0 0.0
H 0.0 0.0 0.758528985631905
3

H 0.0 0.0 -1.4760622060378303
H 0.0 0.0 0.0
H 0.0 0.0 0.758598742105649
3

H 0.0 0.0 -1.4750646419875706
H 0.0 0.0 0.0
H 0.0 0.0 0.7586684985793931
3

H 0.0 0.0 -1.4740670779373108
H 0.0 0.0 0.0
H 0.0 0.0 0.7587382550531372
3

H 0.0 0.0 -1.473069513887051
H 0.0 0.0 0.0
H 0.0 0.0 0.7588080115268813
3

H 0.0 0.0 -1.4720719498367911
H 0.0 0.0 0.0
H 0.0 0.0 0.7588777680006253
3

H 0.0 0.0 -1.4710743857865316
H 0.0 0.0 0.0
H 0.0 0.0 0.7589475244743694
3

H 0.0 0.0 -1.470076821736272
H 0.0 0.0 0.0
H 0.0 0.0 0.7590172809481135
3

H 0.0 0.0 -1.469079257686012
H 0.0 0.0 0.0
H 0.0 0.0 0.7590870374218576
3

H 0.0 0.0 -1.4680816936357524
H 0.0 0.0 0.0
H 0.0 0.0 0.7591567938956016
3

H 0.0 0.0 -1.4670841295854926
H 0.0 0.0 0.0
H 0.0 0.0 0.7592265503693457
3

H 0.0 0.0 -1.4660865655352329
H 0.0 0.0 0.0
H 0.0 0.0 0.7592963068430898
3

H 0.0 0.0 -1.4650890014849731
H 0.0 0.0 0.0
H 0.0 0.0 0.7593660633168339
3

H 0.0 0.0 -1.4640914374347134
H 0.0 0.0 0.0
H 0.0 0.0 0.759435819790578
3

H 0.0 0.0 -1.4630938733844536
H 0.0 0.0 0.0
H 0.0 0.0 0.759505576264322
3

H 0.0 0.0 -1.462096309334194
H 0.0 0.0 0.0
H 0.0 0.0 0.7595753327380661
3

H 0.0 0.0 -1.461098745283934
H 0.0 0.0 0.0
H 0.0 0.0 0.7596450892118102
3

H 0.0 0.0 -1.4601011812336744
H 0.0 0.0 0.0
H 0.0 0.0 0.7597148456855543
3

H 0.0 0.0 -1.4591036171834146
H 0.0 0.0 0.0
H 0.0 0.0 0.7597846021592983
3

H 0.0 0.0 -1.458106053133155
H 0.0 0.0 0.0
H 0.0 0.0 0.7598543586330424
3

H 0.0 0.0 -1.4571084890828951
H 0.0 0.0 0.0
H 0.0 0.0 0.7599241151067865
3

H 0.0 0.0 -1.4561109250326354
H 0.0 0.0 0.0
H 0.0 0.0 0.7599938715805306
3

H 0.0 0.0 -1.4551133609823756
H 0.0 0.0 0.0
H 0.0 0.0 0.7600636280542746
3

H 0.0 0.0 -1.454115796932116
H 0.0 0.0 0.0
H 0.0 0.0 0.7601333845280187
3

H 0.0 0.0 -1.4531182328818562
H 0.0 0.0 0.0
H 0.0 0.0 0.7602031410017628
3

H 0.0 0.0 -1.4521206688315964
H 0.0 0.0 0.0
H 0.0 0.0 0.7602728974755069
3

H 0.0 0.0 -1.4511231047813369
H 0.0 0.0 0.0
H 0.0 0.0 0.7603426539492509
3

H 0.0 0.0 -1.450125540731077
H 0.0 0.0 0.0
H 0.0 0.0 0.760412410422995
3

H 0.0 0.0 -1.4491279766808172
H 0.0 0.0 0.0
H 0.0 0.0 0.7604821668967391
3

H 0.0 0.0 -1.4481304126305574
H 0.0 0.0 0.0
H 0.0 0.0 0.7605519233704832
3

H 0.0 0.0 -1.4471328485802977
H 0.0 0.0 0.0
H 0.0 0.0 0.7606216798442272
3

H 0.0 0.0 -1.446135284530038
H 0.0 0.0 0.0
H 0.0 0.0 0.7606914363179713
3

H 0.0 0.0 -1.4451377204797782
H 0.0 0.0 0.0
H 0.0 0.0 0.7607611927917154
3

H 0.0 0.0 -1.4441401564295184
H 0.0 0.0 0.0
H 0.0 0.0 0.7608309492654595
3

H 0.0 0.0 -1.4431439617314268
H 0.0 0.0 0.0
H 0.0 0.0 0.7609181050082071
3

H 0.0 0.0 -1.442146397681167
H 0.0 0.0 0.0
H 0.0 0.0 0.7609878614819512
3

H 0.0 0.0 -1.4411488336309073
H 0.0 0.0 0.0
H 0.0 0.0 0.7610576179556953
3

H 0.0 0.0 -1.4401512695806475
H 0.0 0.0 0.0
H 0.0 0.0 0.7611273744294393
3

H 0.0 0.0 -1.4391537055303878
H 0.0 0.0 0.0
H 0.0 0.0 0.7611971309031834
3

H 0.0 0.0 -1.438156141480128
H 0.0 0.0 0.0
H 0.0 0.0 0.7612668873769275
3

H 0.0 0.0 -1.4371599467820364
H 0.0 0.0 0.0
H 0.0 0.0 0.7613540431196751
3

H 0.0 0.0 -1.4361623827317769
H 0.0 0.0 0.0
H 0.0 0.0 0.7614237995934192
3

H 0.0 0.0 -1.435164818681517
H 0.0 0.0 0.0
H 0.0 0.0 0.7614935560671633
3

H 0.0 0.0 -1.4341686239834253
H 0.0 0.0 0.0
H 0.0 0.0 0.7615807118099109
3

H 0.0 0.0 -1.4331710599331655
H 0.0 0.0 0.0
H 0.0 0.0 0.761650468283655
3

H 0.0 0.0 -1.4321734958829058
H 0.0 0.0 0.0
H 0.0 0.0 0.7617202247573991
3

H 0.0 0.0 -1.431177301184814
H 0.0 0.0 0.0
H 0.0 0.0 0.7618073805001467
3

H 0.0 0.0 -1.4301811064867225
H 0.0 0.0 0.0
H 0.0 0.0 0.7618945362428944
3

H 0.0 0.0 -1.4291849117886308
H 0.0 0.0 0.0
H 0.0 0.0 0.761981691985642
3

H 0.0 0.0 -1.4281887170905392
H 0.0 0.0 0.0
H 0.0 0.0 0.7620688477283897
3

H 0.0 0.0 -1.4271925223924475
H 0.0 0.0 0.0
H 0.0 0.0 0.7621560034711373
3

H 0.0 0.0 -1.426196327694356
H 0.0 0.0 0.0
H 0.0 0.0 0.762243159213885
3

H 0.0 0.0 -1.4252001329962642
H 0.0 0.0 0.0
H 0.0 0.0 0.7623303149566326
3

H 0.0 0.0 -1.4242039382981726
H 0.0 0.0 0.0
H 0.0 0.0 0.7624174706993803
3

H 0.0 0.0 -1.423207743600081
H 0.0 0.0 0.0
H 0.0 0.0 0.7625046264421279
3

H 0.0 0.0 -1.4222115489019893
H 0.0 0.0 0.0
H 0.0 0.0 0.7625917821848756
3

H 0.0 0.0 -1.4212153542038977
H 0.0 0.0 0.0
H 0.0 0.0 0.7626789379276232
3

H 0.0 0.0 -1.420219159505806
H 0.0 0.0 0.0
H 0.0 0.0 0.7627660936703708
3

H 0.0 0.0 -1.4192229648077144
H 0.0 0.0 0.0
H 0.0 0.0 0.7628532494131185
3

H 0.0 0.0 -1.4182267701096227
H 0.0 0.0 0.0
H 0.0 0.0 0.7629404051558661
3

H 0.0 0.0 -1.417230575411531
H 0.0 0.0 0.0
H 0.0 0.0 0.7630275608986138
3

H 0.0 0.0 -1.4162343807134394
H 0.0 0.0 0.0
H 0.0 0.0 0.7631147166413614
3

H 0.0 0.0 -1.4152381860153478
H 0.0 0.0 0.0
H 0.0 0.0 0.7632018723841091
3

H 0.0 0.0 -1.414241991317256
H 0.0 0.0 0.0
H 0.0 0.0 0.7632890281268567
3

H 0.0 0.0 -1.4132457966191645
H 0.0 0.0 0.0
H 0.0 0.0 0.7633761838696044
3

H 0.0 0.0 -1.4122496019210729
H 0.0 0.0 0.0
H 0.0 0.0 0.763463339612352
3

H 0.0 0.0 -1.4112534072229812
H 0.0 0.0 0.0
H 0.0 0.0 0.7635504953550997
3

H 0.0 0.0 -1.4102572125248896
H 0.0 0.0 0.0
H 0.0 0.0 0.7636376510978473
3

H 0.0 0.0 -1.409261017826798
H 0.0 0.0 0.0
H 0.0 0.0 0.763724806840595
3

H 0.0 0.0 -1.4082648231287065
H 0.0 0.0 0.0
H 0.0 0.0 0.7638119625833426
3

H 0.0 0.0 -1.4072686284306146
H 0.0 0.0 0.0
H 0.0 0.0 0.7638991183260903
3

H 0.0 0.0 -1.406272433732523
H 0.0 0.0 0.0
H 0.0 0.0 0.7639862740688379
3

H 0.0 0.0 -1.405276239034431
H 0.0 0.0 0.0
H 0.0 0.0 0.7640734298115855
3

H 0.0 0.0 -1.4042800443363397
H 0.0 0.0 0.0
H 0.0 0.0 0.7641605855543332
3

H 0.0 0.0 -1.403283849638248
H 0.0 0.0 0.0
H 0.0 0.0 0.7642477412970808
3

H 0.0 0.0 -1.4022876549401564
H 0.0 0.0 0.0
H 0.0 0.0 0.7643348970398285
3

H 0.0 0.0 -1.4012914602420647
H 0.0 0.0 0.0
H 0.0 0.0 0.7644220527825761
3

H 0.0 0.0 -1.400295265543973
H 0.0 0.0 0.0
H 0.0 0.0 0.7645092085253238
3

H 0.0 0.0 -1.3992990708458817
H 0.0 0.0 0.0
H 0.0 0.0 0.7645963642680714
3

H 0.0 0.0 -1.3983028761477898
H 0.0 0.0 0.0
H 0.0 0.0 0.7646835200108191
3

H 0.0 0.0 -1.3973066814496982
H 0.0 0.0 0.0
H 0.0 0.0 0.7647706757535667
3

H 0.0 0.0 -1.3963104867516063
H 0.0 0.0 0.0
H 0.0 0.0 0.7648578314963144
3

H 0.0 0.0 -1.3953142920535149
H 0.0 0.0 0.0
H 0.0 0.0 0.764944987239062
3

H 0.0 0.0 -1.3943180973554232
H 0.0 0.0 0.0
H 0.0 0.0 0.7650321429818097
3

H 0.0 0.0 -1.3933219026573316
H 0.0 0.0 0.0
H 0.0 0.0 0.7651192987245573
3

H 0.0 0.0 -1.39232570795924
H 0.0 0.0 0.0
H 0.0 0.0 0.765206454467305
3

H 0.0 0.0 -1.3913295132611485
H 0.0 0.0 0.0
H 0.0 0.0 0.7652936102100526
3

H 0.0 0.0 -1.3903333185630566
H 0.0 0.0 0.0
H 0.0 0.0 0.7653807659528002
3

H 0.0 0.0 -1.389337123864965
H 0.0 0.0 0.0
H 0.0 0.0 0.7654679216955479
3

H 0.0 0.0 -1.3883426019695968
H 0.0 0.0 0.0
H 0.0 0.0 0.7655724501588156
3

H 0.0 0.0 -1.3873464072715052
H 0.0 0.0 0.0
H 0.0 0.0 0.7656596059015632
3

H 0.0 0.0 -1.3863502125734135
H 0.0 0.0 0.0
H 0.0 0.0 0.7657467616443109
3

H 0.0 0.0 -1.385354017875322
H 0.0 0.0 0.0
H 0.0 0.0 0.7658339173870585
3

H 0.0 0.0 -1.3843594959799537
H 0.0 0.0 0.0
H 0.0 0.0 0.7659384458503262
3

H 0.0 0.0 -1.3833649740845857
H 0.0 0.0 0.0
H 0.0 0.0 0.7660429743135939
3

H 0.0 0.0 -1.3823704521892173
H 0.0 0.0 0.0
H 0.0 0.0 0.7661475027768616
3

H 0.0 0.0 -1.381375930293849
H 0.0 0.0 0.0
H 0.0 0.0 0.7662520312401293
3

H 0.0 0.0 -1.380381408398481
H 0.0 0.0 0.0
H 0.0 0.0 0.766356559703397
3

H 0.0 0.0 -1.3793868865031127
H 0.0 0.0 0.0
H 0.0 0.0 0.7664610881666647
3

H 0.0 0.0 -1.3783923646077445
H 0.0 0.0 0.0
H 0.0 0.0 0.7665656166299324
3

H 0.0 0.0 -1.3773978427123763
H 0.0 0.0 0.0
H 0.0 0.0 0.7666701450932001
3

H 0.0 0.0 -1.376403320817008
H 0.0 0.0 0.0
H 0.0 0.0 0.7667746735564678
3

H 0.0 0.0 -1.37540879892164
H 0.0 0.0 0.0
H 0.0 0.0 0.7668792020197355
3

H 0.0 0.0 -1.3744142770262715
H 0.0 0.0 0.0
H 0.0 0.0 0.7669837304830032
3

H 0.0 0.0 -1.3734197551309035
H 0.0 0.0 0.0
H 0.0 0.0 0.7670882589462709
3

H 0.0 0.0 -1.3724252332355351
H 0.0 0.0 0.0
H 0.0 0.0 0.7671927874095386
3

H 0.0 0.0 -1.3714307113401671
H 0.0 0.0 0.0
H 0.0 0.0 0.7672973158728063
3

H 0.0 0.0 -1.370436189444799
H 0.0 0.0 0.0
H 0.0 0.0 0.767401844336074
3

H 0.0 0.0 -1.3694416675494308
H 0.0 0.0 0.0
H 0.0 0.0 0.7675063727993416
3

H 0.0 0.0 -1.3684471456540626
H 0.0 0.0 0.0
H 0.0 0.0 0.7676109012626093
3

H 0.0 0.0 -1.3674526237586944
H 0.0 0.0 0.0
H 0.0 0.0 0.767715429725877
3

H 0.0 0.0 -1.3664581018633262
H 0.0 0.0 0.0
H 0.0 0.0 0.7678199581891447
3

H 0.0 0.0 -1.365463579967958
H 0.0 0.0 0.0
H 0.0 0.0 0.7679244866524124
3

H 0.0 0.0 -1.3644690580725898
H 0.0 0.0 0.0
H 0.0 0.0 0.7680290151156801
3

H 0.0 0.0 -1.3634745361772216
H 0.0 0.0 0.0
H 0.0 0.0 0.7681335435789478
3

H 0.0 0.0 -1.3624800142818534
H 0.0 0.0 0.0
H 0.0 0.0 0.7682380720422155
3

H 0.0 0.0 -1.3614854923864852
H 0.0 0.0 0.0
H 0.0 0.0 0.7683426005054832
3

H 0.0 0.0 -1.360490970491117
H 0.0 0.0 0.0
H 0.0 0.0 0.7684471289687509
3

H 0.0 0.0 -1.3594964485957488
H 0.0 0.0 0.0
H 0.0 0.0 0.7685516574320186
3

H 0.0 0.0 -1.3585019267003806
H 0.0 0.0 0.0
H 0.0 0.0 0.7686561858952863
3

H 0.0 0.0 -1.3575074048050124
H 0.0 0.0 0.0
H 0.0 0.0 0.768760714358554
3

H 0.0 0.0 -1.3565128829096442
H 0.0 0.0 0.0
H 0.0 0.0 0.7688652428218217
3

H 0.0 0.0 -1.355518361014276
H 0.0 0.0 0.0
H 0.0 0.0 0.7689697712850894
3

H 0.0 0.0 -1.3545238391189078
H 0.0 0.0 0.0
H 0.0 0.0 0.7690742997483571
3

H 0.0 0.0 -1.3535293172235396
H 0.0 0.0 0.0
H 0.0 0.0 0.7691788282116248
3

H 0.0 0.0 -1.3525347953281714
H 0.0 0.0 0.0
H 0.0 0.0 0.7692833566748924
3

H 0.0 0.0 -1.3515402734328033
H 0.0 0.0 0.0
H 0.0 0.0 0.7693878851381601
3

H 0.0 0.0 -1.350545751537435
H 0.0 0.0 0.0
H 0.0 0.0 0.7694924136014278
3

H 0.0 0.0 -1.3495512296420669
H 0.0 0.0 0.0
H 0.0 0.0 0.7695969420646955
3

H 0.0 0.0 -1.348556707746699
H 0.0 0.0 0.0
H 0.0 0.0 0.7697014705279632
3

H 0.0 0.0 -1.3475621858513305
H 0.0 0.0 0.0
H 0.0 0.0 0.7698059989912309
3

H 0.0 0.0 -1.3465676639559625
H 0.0 0.0 0.0
H 0.0 0.0 0.7699105274544986
3

H 0.0 0.0 -1.345575117804321
H 0.0 0.0 0.0
H 0.0 0.0 0.7700323967979038
3

H 0.0 0.0 -1.3445825716526796
H 0.0 0.0 0.0
H 0.0 0.0 0.770154266141309
3

H 0.0 0.0 -1.3435900255010382
H 0.0 0.0 0.0
H 0.0 0.0 0.7702761354847142
3

H 0.0 0.0 -1.3425974793493969
H 0.0 0.0 0.0
H 0.0 0.0 0.7703980048281194
3

H 0.0 0.0 -1.3416049331977555
H 0.0 0.0 0.0
H 0.0 0.0 0.7705198741715246
3

H 0.0 0.0 -1.3406123870461142
H 0.0 0.0 0.0
H 0.0 0.0 0.7706417435149298
3

H 0.0 0.0 -1.3396198408944728
H 0.0 0.0 0.0
H 0.0 0.0 0.770763612858335
3

H 0.0 0.0 -1.3386272947428317
H 0.0 0.0 0.0
H 0.0 0.0 0.7708854822017401
3

H 0.0 0.0 -1.33763474859119
H 0.0 0.0 0.0
H 0.0 0.0 0.7710073515451453
3

H 0.0 0.0 -1.3366422024395488
H 0.0 0.0 0.0
H 0.0 0.0 0.7711292208885505
3

H 0.0 0.0 -1.3356496562879074
H 0.0 0.0 0.0
H 0.0 0.0 0.7712510902319557
3

H 0.0 0.0 -1.334657110136266
H 0.0 0.0 0.0
H 0.0 0.0 0.7713729595753609
3

H 0.0 0.0 -1.3336645639846247
H 0.0 0.0 0.0
H 0.0 0.0 0.7714948289187661
3

H 0.0 0.0 -1.3326720178329834
H 0.0 0.0 0.0
H 0.0 0.0 0.7716166982621713
3

H 0.0 0.0 -1.331679471681342
H 0.0 0.0 0.0
H 0.0 0.0 0.7717385676055765
3

H 0.0 0.0 -1.3306869255297007
H 0.0 0.0 0.0
H 0.0 0.0 0.7718604369489817
3

H 0.0 0.0 -1.3296943793780591
H 0.0 0.0 0.0
H 0.0 0.0 0.7719823062923868
3

H 0.0 0.0 -1.328701833226418
H 0.0 0.0 0.0
H 0.0 0.0 0.772104175635792
3

H 0.0 0.0 -1.3277092870747766
H 0.0 0.0 0.0
H 0.0 0.0 0.7722260449791972
3

H 0.0 0.0 -1.3267167409231353
H 0.0 0.0 0.0
H 0.0 0.0 0.7723479143226024
3

H 0.0 0.0 -1.325724194771494
H 0.0 0.0 0.0
H 0.0 0.0 0.7724697836660076
3

H 0.0 0.0 -1.3247316486198526
H 0.0 0.0 0.0
H 0.0 0.0 0.7725916530094128
3

H 0.0 0.0 -1.3237391024682112
H 0.0 0.0 0.0
H 0.0 0.0 0.772713522352818
3

H 0.0 0.0 -1.32274655631657
H 0.0 0.0 0.0
H 0.0 0.0 0.7728353916962232
3

H 0.0 0.0 -1.3217540101649283
H 0.0 0.0 0.0
H 0.0 0.0 0.7729572610396284
3

H 0.0 0.0 -1.3207614640132872
H 0.0 0.0 0.0
H 0.0 0.0 0.7730791303830336
3

H 0.0 0.0 -1.319768917861646
H 0.0 0.0 0.0
H 0.0 0.0 0.7732009997264387
3

H 0.0 0.0 -1.3187763717100045
H 0.0 0.0 0.0
H 0.0 0.0 0.7733228690698439
3

H 0.0 0.0 -1.3177838255583632
H 0.0 0.0 0.0
H 0.0 0.0 0.7734447384132491
3

H 0.0 0.0 -1.3167912794067218
H 0.0 0.0 0.0
H 0.0 0.0 0.7735666077566543
3

H 0.0 0.0 -1.3157987332550805
H 0.0 0.0 0.0
H 0.0 0.0 0.7736884771000595
3

H 0.0 0.0 -1.314806187103439
H 0.0 0.0 0.0
H 0.0 0.0 0.7738103464434647
3

H 0.0 0.0 -1.3138136409517978
H 0.0 0.0 0.0
H 0.0 0.0 0.7739322157868699
3

H 0.0 0.0 -1.3128210948001564
H 0.0 0.0 0.0
H 0.0 0.0 0.7740540851302751
3

H 0.0 0.0 -1.311830826731415
H 0.0 0.0 0.0
H 0.0 0.0 0.7741932582312351
3

H 0.0 0.0 -1.3108405586626737
H 0.0 0.0 0.0
H 0.0 0.0 0.7743324313321951
3

H 0.0 0.0 -1.309850290593932
H 0.0 0.0 0.0
H 0.0 0.0 0.7744716044331551
3

H 0.0 0.0 -1.3088600225251903
H 0.0 0.0 0.0
H 0.0 0.0 0.7746107775341151
3

H 0.0 0.0 -1.307869754456449
H 0.0 0.0 0.0
H 0.0 0.0 0.7747499506350751
3

H 0.0 0.0 -1.3068794863877076
H 0.0 0.0 0.0
H 0.0 0.0 0.7748891237360351
3

H 0.0 0.0 -1.305889218318966
H 0.0 0.0 0.0
H 0.0 0.0 0.7750282968369951
3

H 0.0 0.0 -1.3048989502502246
H 0.0 0.0 0.0
H 0.0 0.0 0.7751674699379552
3

H 0.0 0.0 -1.3039086821814831
H 0.0 0.0 0.0
H 0.0 0.0 0.7753066430389152
3

H 0.0 0.0 -1.3029184141127417
H 0.0 0.0 0.0
H 0.0 0.0 0.7754458161398752
3

H 0.0 0.0 -1.3019281460440002
H 0.0 0.0 0.0
H 0.0 0.0 0.7755849892408352
3

H 0.0 0.0 -1.3009378779752587
H 0.0 0.0 0.0
H 0.0 0.0 0.7757241623417952
3

H 0.0 0.0 -1.2999476099065173
H 0.0 0.0 0.0
H 0.0 0.0 0.7758633354427552
3

H 0.0 0.0 -1.2989573418377758
H 0.0 0.0 0.0
H 0.0 0.0 0.7760025085437152
3

H 0.0 0.0 -1.2979670737690343
H 0.0 0.0 0.0
H 0.0 0.0 0.7761416816446752
3

H 0.0 0.0 -1.2969768057002928
H 0.0 0.0 0.0
H 0.0 0.0 0.7762808547456352
3

H 0.0 0.0 -1.2959865376315514
H 0.0 0.0 0.0
H 0.0 0.0 0.7764200278465953
3

H 0.0 0.0 -1.29499626956281
H 0.0 0.0 0.0
H 0.0 0.0 0.7765592009475553
3

H 0.0 0.0 -1.2940060014940684
H 0.0 0.0 0.0
H 0.0 0.0 0.7766983740485153
3

H 0.0 0.0 -1.293015733425327
H 0.0 0.0 0.0
H 0.0 0.0 0.7768375471494753
3

H 0.0 0.0 -1.2920254653565857
H 0.0 0.0 0.0
H 0.0 0.0 0.7769767202504353
3

H 0.0 0.0 -1.291035197287844
H 0.0 0.0 0.0
H 0.0 0.0 0.7771158933513953
3

H 0.0 0.0 -1.2900449292191023
H 0.0 0.0 0.0
H 0.0 0.0 0.7772550664523553
3

H 0.0 0.0 -1.289054661150361
H 0.0 0.0 0.0
H 0.0 0.0 0.7773942395533153
3

H 0.0 0.0 -1.2880643930816196
H 0.0 0.0 0.0
H 0.0 0.0 0.7775334126542753
3

H 0.0 0.0 -1.287074125012878
H 0.0 0.0 0.0
H 0.0 0.0 0.7776725857552353
3

H 0.0 0.0 -1.2860838569441366
H 0.0 0.0 0.0
H 0.0 0.0 0.7778117588561954
3

H 0.0 0.0 -1.2850935888753952
H 0.0 0.0 0.0
H 0.0 0.0 0.7779509319571554
3

H 0.0 0.0 -1.2841033208066537
H 0.0 0.0 0.0
H 0.0 0.0 0.7780901050581154
3

H 0.0 0.0 -1.2831156324660586
H 0.0 0.0 0.0
H 0.0 0.0 0.7782465395231556
3

H 0.0 0.0 -1.2821279441254636
H 0.0 0.0 0.0
H 0.0 0.0 0.7784029739881958
3

H 0.0 0.0 -1.2811402557848686
H 0.0 0.0 0.0
H 0.0 0.0 0.778559408453236
3

H 0.0 0.0 -1.2801525674442735
H 0.0 0.0 0.0
H 0.0 0.0 0.7787158429182762
3

H 0.0 0.0 -1.2791648791036785
H 0.0 0.0 0.0
H 0.0 0.0 0.7788722773833164
3

H 0.0 0.0 -1.2781771907630834
H 0.0 0.0 0.0
H 0.0 0.0 0.7790287118483566
3

H 0.0 0.0 -1.2771895024224884
H 0.0 0.0 0.0
H 0.0 0.0 0.7791851463133969
3

H 0.0 0.0 -1.2762018140818934
H 0.0 0.0 0.0
H 0.0 0.0 0.7793415807784371
3

H 0.0 0.0 -1.2752141257412983
H 0.0 0.0 0.0
H 0.0 0.0 0.7794980152434773
3

H 0.0 0.0 -1.2742264374007033
H 0.0 0.0 0.0
H 0.0 0.0 0.7796544497085175
3

H 0.0 0.0 -1.2732387490601085
H 0.0 0.0 0.0
H 0.0 0.0 0.7798108841735577
3

H 0.0 0.0 -1.2722510607195132
H 0.0 0.0 0.0
H 0.0 0.0 0.7799673186385979
3

H 0.0 0.0 -1.2712633723789182
H 0.0 0.0 0.0
H 0.0 0.0 0.7801237531036381
3

H 0.0 0.0 -1.2702756840383231
H 0.0 0.0 0.0
H 0.0 0.0 0.7802801875686783
3

H 0.0 0.0 -1.269287995697728
H 0.0 0.0 0.0
H 0.0 0.0 0.7804366220337186
3

H 0.0 0.0 -1.268300307357133
H 0.0 0.0 0.0
H 0.0 0.0 0.7805930564987588
3

H 0.0 0.0 -1.267312619016538
H 0.0 0.0 0.0
H 0.0 0.0 0.780749490963799
3

H 0.0 0.0 -1.266324930675943
H 0.0 0.0 0.0
H 0.0 0.0 0.7809059254288392
3

H 0.0 0.0 -1.265337242335348
H 0.0 0.0 0.0
H 0.0 0.0 0.7810623598938794
3

H 0.0 0.0 -1.264349553994753
H 0.0 0.0 0.0
H 0.0 0.0 0.7812187943589196
3

H 0.0 0.0 -1.263361865654158
H 0.0 0.0 0.0
H 0.0 0.0 0.7813752288239598
3

H 0.0 0.0 -1.2623741773135628
H 0.0 0.0 0.0
H 0.0 0.0 0.781531663289
3

H 0.0 0.0 -1.2613864889729678
H 0.0 0.0 0.0
H 0.0 0.0 0.7816880977540402
3

H 0.0 0.0 -1.2603988006323728
H 0.0 0.0 0.0
H 0.0 0.0 0.7818445322190805
3

H 0.0 0.0 -1.2594111122917775
H 0.0 0.0 0.0
H 0.0 0.0 0.7820009666841207
3

H 0.0 0.0 -1.258423423951183
H 0.0 0.0 0.0
H 0.0 0.0 0.7821574011491609
3

H 0.0 0.0 -1.2574386161981703
H 0.0 0.0 0.0
H 0.0 0.0 0.7823310493268278
3

H 0.0 0.0 -1.2564538084451584
H 0.0 0.0 0.0
H 0.0 0.0 0.7825046975044948
3

H 0.0 0.0 -1.2554690006921465
H 0.0 0.0 0.0
H 0.0 0.0 0.7826783456821618
3

H 0.0 0.0 -1.2544841929391342
H 0.0 0.0 0.0
H 0.0 0.0 0.7828519938598287
3

H 0.0 0.0 -1.253499385186122
H 0.0 0.0 0.0
H 0.0 0.0 0.7830256420374957
3

H 0.0 0.0 -1.25251457743311
H 0.0 0.0 0.0
H 0.0 0.0 0.7831992902151627
3

H 0.0 0.0 -1.2515297696800978
H 0.0 0.0 0.0
H 0.0 0.0 0.7833729383928296
3

H 0.0 0.0 -1.2505449619270856
H 0.0 0.0 0.0
H 0.0 0.0 0.7835465865704966
3

H 0.0 0.0 -1.2495601541740735
H 0.0 0.0 0.0
H 0.0 0.0 0.7837202347481635
3

H 0.0 0.0 -1.2485753464210614
H 0.0 0.0 0.0
H 0.0 0.0 0.7838938829258305
3

H 0.0 0.0 -1.2475905386680493
H 0.0 0.0 0.0
H 0.0 0.0 0.7840675311034975
3

H 0.0 0.0 -1.2466057309150371
H 0.0 0.0 0.0
H 0.0 0.0 0.7842411792811644
3

H 0.0 0.0 -1.245620923162025
H 0.0 0.0 0.0
H 0.0 0.0 0.7844148274588314
3

H 0.0 0.0 -1.2446361154090129
H 0.0 0.0 0.0
H 0.0 0.0 0.7845884756364984
3

H 0.0 0.0 -1.2436513076560007
H 0.0 0.0 0.0
H 0.0 0.0 0.7847621238141653
3

H 0.0 0.0 -1.2426664999029886
H 0.0 0.0 0.0
H 0.0 0.0 0.7849357719918323
3

H 0.0 0.0 -1.2416816921499765
H 0.0 0.0 0.0
H 0.0 0.0 0.7851094201694993
3

H 0.0 0.0 -1.2406968843969644
H 0.0 0.0 0.0
H 0.0 0.0 0.7852830683471662
3

H 0.0 0.0 -1.2397120766439522
H 0.0 0.0 0.0
H 0.0 0.0 0.7854567165248332
3

H 0.0 0.0 -1.23872726889094
H 0.0 0.0 0.0
H 0.0 0.0 0.7856303647025001
3

H 0.0 0.0 -1.237742461137928
H 0.0 0.0 0.0
H 0.0 0.0 0.7858040128801671
3

H 0.0 0.0 -1.2367576533849158
H 0.0 0.0 0.0
H 0.0 0.0 0.7859776610578341
3

H 0.0 0.0 -1.235776026201468
H 0.0 0.0 0.0
H 0.0 0.0 0.7861684700532106
3

H 0.0 0.0 -1.2347943990180203
H 0.0 0.0 0.0
H 0.0 0.0 0.786359279048587
3

H 0.0 0.0 -1.2338127718345726
H 0.0 0.0 0.0
H 0.0 0.0 0.7865500880439635
3

H 0.0 0.0 -1.2328311446511249
H 0.0 0.0 0.0
H 0.0 0.0 0.78674089703934
3

H 0.0 0.0 -1.2318495174676771
H 0.0 0.0 0.0
H 0.0 0.0 0.7869317060347165
3

H 0.0 0.0 -1.2308678902842294
H 0.0 0.0 0.0
H 0.0 0.0 0.787122515030093
3

H 0.0 0.0 -1.2298862631007816
H 0.0 0.0 0.0
H 0.0 0.0 0.7873133240254695
3

H 0.0 0.0 -1.228904635917334
H 0.0 0.0 0.0
H 0.0 0.0 0.787504133020846
3

H 0.0 0.0 -1.2279230087338862
H 0.0 0.0 0.0
H 0.0 0.0 0.7876949420162225
3

H 0.0 0.0 -1.2269413815504384
H 0.0 0.0 0.0
H 0.0 0.0 0.787885751011599
3

H 0.0 0.0 -1.225959754366991
H 0.0 0.0 0.0
H 0.0 0.0 0.7880765600069755
3

H 0.0 0.0 -1.224978127183543
H 0.0 0.0 0.0
H 0.0 0.0 0.788267369002352
3

H 0.0 0.0 -1.2239965000000952
H 0.0 0.0 0.0
H 0.0 0.0 0.7884581779977284
3

H 0.0 0.0 -1.2230148728166474
H 0.0 0.0 0.0
H 0.0 0.0 0.7886489869931049
3

H 0.0 0.0 -1.2220332456331997
H 0.0 0.0 0.0
H 0.0 0.0 0.7888397959884814
3

H 0.0 0.0 -1.221051618449752
H 0.0 0.0 0.0
H 0.0 0.0 0.7890306049838579
3

H 0.0 0.0 -1.2200699912663042
H 0.0 0.0 0.0
H 0.0 0.0 0.7892214139792344
3

H 0.0 0.0 -1.2190883640828565
H 0.0 0.0 0.0
H 0.0 0.0 0.7894122229746109
3

H 0.0 0.0 -1.2181067368994087
H 0.0 0.0 0.0
H 0.0 0.0 0.7896030319699874
3

H 0.0 0.0 -1.217125109715961
H 0.0 0.0 0.0
H 0.0 0.0 0.7897938409653639
3

H 0.0 0.0 -1.2161469621152272
H 0.0 0.0 0.0
H 0.0 0.0 0.7900017526561817
3

H 0.0 0.0 -1.2151688145144934
H 0.0 0.0 0.0
H 0.0 0.0 0.7902096643469995
3

H 0.0 0.0 -1.2141906669137597
H 0.0 0.0 0.0
H 0.0 0.0 0.7904175760378173
3

H 0.0 0.0 -1.213212519313026
H 0.0 0.0 0.0
H 0.0 0.0 0.7906254877286351
3

H 0.0 0.0 -1.212234371712292
H 0.0 0.0 0.0
H 0.0 0.0 0.7908333994194529
3

H 0.0 0.0 -1.2112562241115583
H 0.0 0.0 0.0
H 0.0 0.0 0.7910413111102707
3

H 0.0 0.0 -1.2102780765108243
H 0.0 0.0 0.0
H 0.0 0.0 0.7912492228010884
3

H 0.0 0.0 -1.2092999289100907
H 0.0 0.0 0.0
H 0.0 0.0 0.7914571344919062
3

H 0.0 0.0 -1.208321781309357
H 0.0 0.0 0.0
H 0.0 0.0 0.791665046182724
3

H 0.0 0.0 -1.2073436337086232
H 0.0 0.0 0.0
H 0.0 0.0 0.7918729578735418
3

H 0.0 0.0 -1.2063654861078894
H 0.0 0.0 0.0
H 0.0 0.0 0.7920808695643596
3

H 0.0 0.0 -1.2053873385071556
H 0.0 0.0 0.0
H 0.0 0.0 0.7922887812551774
3

H 0.0 0.0 -1.2044091909064218
H 0.0 0.0 0.0
H 0.0 0.0 0.7924966929459952
3

H 0.0 0.0 -1.203431043305688
H 0.0 0.0 0.0
H 0.0 0.0 0.792704604636813
3

H 0.0 0.0 -1.2024528957049545
H 0.0 0.0 0.0
H 0.0 0.0 0.7929125163276308
3

H 0.0 0.0 -1.2014747481042205
H 0.0 0.0 0.0
H 0.0 0.0 0.7931204280184486
3

H 0.0 0.0 -1.2004966005034867
H 0.0 0.0 0.0
H 0.0 0.0 0.7933283397092664
3

H 0.0 0.0 -1.199518452902753
H 0.0 0.0 0.0
H 0.0 0.0 0.7935362514000842
3

H 0.0 0.0 -1.1985403053020192
H 0.0 0.0 0.0
H 0.0 0.0 0.793744163090902
3

H 0.0 0.0 -1.1975621577012854
H 0.0 0.0 0.0
H 0.0 0.0 0.7939520747817198
3

H 0.0 0.0 -1.1965877876365
H 0.0 0.0 0.0
H 0.0 0.0 0.7941770258360636
3

H 0.0 0.0 -1.1956134175717148
H 0.0 0.0 0.0
H 0.0 0.0 0.7944019768904075
3

H 0.0 0.0 -1.1946390475069295
H 0.0 0.0 0.0
H 0.0 0.0 0.7946269279447513
3

H 0.0 0.0 -1.1936646774421442
H 0.0 0.0 0.0
H 0.0 0.0 0.7948518789990952
3

H 0.0 0.0 -1.192690307377359
H 0.0 0.0 0.0
H 0.0 0.0 0.795076830053439
3

H 0.0 0.0 -1.1917159373125736
H 0.0 0.0 0.0
H 0.0 0.0 0.7953017811077828
3

H 0.0 0.0 -1.1907415672477883
H 0.0 0.0 0.0
H 0.0 0.0 0.7955267321621267
3

H 0.0 0.0 -1.189767197183003
H 0.0 0.0 0.0
H 0.0 0.0 0.7957516832164705
3

H 0.0 0.0 -1.1887928271182178
H 0.0 0.0 0.0
H 0.0 0.0 0.7959766342708143
3

H 0.0 0.0 -1.1878184570534325
H 0.0 0.0 0.0
H 0.0 0.0 0.7962015853251582
3

H 0.0 0.0 -1.1868440869886472
H 0.0 0.0 0.0
H 0.0 0.0 0.796426536379502
3

H 0.0 0.0 -1.185869716923862
H 0.0 0.0 0.0
H 0.0 0.0 0.7966514874338458
3

H 0.0 0.0 -1.1848953468590766
H 0.0 0.0 0.0
H 0.0 0.0 0.7968764384881897
3

H 0.0 0.0 -1.183920976794291
H 0.0 0.0 0.0
H 0.0 0.0 0.7971013895425335
3

H 0.0 0.0 -1.182946606729506
H 0.0 0.0 0.0
H 0.0 0.0 0.7973263405968773
3

H 0.0 0.0 -1.1819722366647207
H 0.0 0.0 0.0
H 0.0 0.0 0.7975512916512212
3

H 0.0 0.0 -1.1809978665999354
H 0.0 0.0 0.0
H 0.0 0.0 0.797776242705565
3

H 0.0 0.0 -1.1800275708736594
H 0.0 0.0 0.0
H 0.0 0.0 0.7980181646011647
3

H 0.0 0.0 -1.1790572751473831
H 0.0 0.0 0.0
H 0.0 0.0 0.7982600864967644
3

H 0.0 0.0 -1.1780869794211073
H 0.0 0.0 0.0
H 0.0 0.0 0.7985020083923641
3

H 0.0 0.0 -1.1771166836948312
H 0.0 0.0 0.0
H 0.0 0.0 0.7987439302879638
3

H 0.0 0.0 -1.1761463879685552
H 0.0 0.0 0.0
H 0.0 0.0 0.7989858521835634
3

H 0.0 0.0 -1.1751760922422791
H 0.0 0.0 0.0
H 0.0 0.0 0.7992277740791631
3

H 0.0 0.0 -1.174205796516003
H 0.0 0.0 0.0
H 0.0 0.0 0.7994696959747628
3

H 0.0 0.0 -1.173235500789727
H 0.0 0.0 0.0
H 0.0 0.0 0.7997116178703625
3

H 0.0 0.0 -1.172265205063451
H 0.0 0.0 0.0
H 0.0 0.0 0.7999535397659622
3

H 0.0 0.0 -1.171294909337175
H 0.0 0.0 0.0
H 0.0 0.0 0.8001954616615619
3

H 0.0 0.0 -1.170324613610899
H 0.0 0.0 0.0
H 0.0 0.0 0.8004373835571615
3

H 0.0 0.0 -1.1693543178846229
H 0.0 0.0 0.0
H 0.0 0.0 0.8006793054527612
3

H 0.0 0.0 -1.1683840221583468
H 0.0 0.0 0.0
H 0.0 0.0 0.8009212273483609
3

H 0.0 0.0 -1.1674137264320708
H 0.0 0.0 0.0
H 0.0 0.0 0.8011631492439606
3

H 0.0 0.0 -1.1664434307057947
H 0.0 0.0 0.0
H 0.0 0.0 0.8014050711395603
3

H 0.0 0.0 -1.1654731349795189
H 0.0 0.0 0.0
H 0.0 0.0 0.80164699303516
3

H 0.0 0.0 -1.1645072091532296
H 0.0 0.0 0.0
H 0.0 0.0 0.8019058120802625
3

H 0.0 0.0 -1.1635412833269403
H 0.0 0.0 0.0
H 0.0 0.0 0.802164631125365
3

H 0.0 0.0 -1.1625753575006514
H 0.0 0.0 0.0
H 0.0 0.0 0.8024234501704675
3

H 0.0 0.0 -1.1616094316743624
H 0.0 0.0 0.0
H 0.0 0.0 0.80268226921557
3

H 0.0 0.0 -1.1606435058480733
H 0.0 0.0 0.0
H 0.0 0.0 0.8029410882606725
3

H 0.0 0.0 -1.1596775800217842
H 0.0 0.0 0.0
H 0.0 0.0 0.803199907305775
3

H 0.0 0.0 -1.1587116541954952
H 0.0 0.0 0.0
H 0.0 0.0 0.8034587263508775
3

H 0.0 0.0 -1.157745728369206
H 0.0 0.0 0.0
H 0.0 0.0 0.80371754539598
3

H 0.0 0.0 -1.156779802542917
H 0.0 0.0 0.0
H 0.0 0.0 0.8039763644410824
3

H 0.0 0.0 -1.155813876716628
H 0.0 0.0 0.0
H 0.0 0.0 0.804235183486185
3

H 0.0 0.0 -1.1548479508903389
H 0.0 0.0 0.0
H 0.0 0.0 0.8044940025312874
3

H 0.0 0.0 -1.1538820250640498
H 0.0 0.0 0.0
H 0.0 0.0 0.8047528215763899
3

H 0.0 0.0 -1.1529160992377607
H 0.0 0.0 0.0
H 0.0 0.0 0.8050116406214924
3

H 0.0 0.0 -1.1519501734114717
H 0.0 0.0 0.0
H 0.0 0.0 0.8052704596665949
3

H 0.0 0.0 -1.1509842475851826
H 0.0 0.0 0.0
H 0.0 0.0 0.8055292787116974
3

H 0.0 0.0 -1.1500183217588935
H 0.0 0.0 0.0
H 0.0 0.0 0.8057880977567999
3

H 0.0 0.0 -1.1490570600629553
H 0.0 0.0 0.0
H 0.0 0.0 0.806063735112617
3

H 0.0 0.0 -1.148095798367017
H 0.0 0.0 0.0
H 0.0 0.0 0.806339372468434
3

H 0.0 0.0 -1.1471345366710788
H 0.0 0.0 0.0
H 0.0 0.0 0.806615009824251
3

H 0.0 0.0 -1.1461732749751403
H 0.0 0.0 0.0
H 0.0 0.0 0.8068906471800681
3

H 0.0 0.0 -1.1452120132792023
H 0.0 0.0 0.0
H 0.0 0.0 0.8071662845358851
3

H 0.0 0.0 -1.144250751583264
H 0.0 0.0 0.0
H 0.0 0.0 0.8074419218917022
3

H 0.0 0.0 -1.1432894898873258
H 0.0 0.0 0.0
H 0.0 0.0 0.8077175592475192
3

H 0.0 0.0 -1.1423282281913876
H 0.0 0.0 0.0
H 0.0 0.0 0.8079931966033362
3

H 0.0 0.0 -1.141366966495449
H 0.0 0.0 0.0
H 0.0 0.0 0.8082688339591533
3

H 0.0 0.0 -1.140405704799511
H 0.0 0.0 0.0
H 0.0 0.0 0.8085444713149703
3

H 0.0 0.0 -1.1394444431035728
H 0.0 0.0 0.0
H 0.0 0.0 0.8088201086707874
3

H 0.0 0.0 -1.1384831814076346
H 0.0 0.0 0.0
H 0.0 0.0 0.8090957460266044
3

H 0.0 0.0 -1.1375219197116964
H 0.0 0.0 0.0
H 0.0 0.0 0.8093713833824214
3

H 0.0 0.0 -1.1365656149557333
H 0.0 0.0 0.0
H 0.0 0.0 0.8096637550871442
3

H 0.0 0.0 -1.1356093101997702
H 0.0 0.0 0.0
H 0.0 0.0 0.8099561267918669
3

H 0.0 0.0 -1.134653005443807
H 0.0 0.0 0.0
H 0.0 0.0 0.8102484984965896
3

H 0.0 0.0 -1.133696700687844
H 0.0 0.0 0.0
H 0.0 0.0 0.8105408702013124
3

H 0.0 0.0 -1.132740395931881
H 0.0 0.0 0.0
H 0.0 0.0 0.8108332419060351
3

H 0.0 0.0 -1.1317840911759178
H 0.0 0.0 0.0
H 0.0 0.0 0.8111256136107579
3

H 0.0 0.0 -1.1308277864199547
H 0.0 0.0 0.0
H 0.0 0.0 0.8114179853154806
3

H 0.0 0.0 -1.1298714816639917
H 0.0 0.0 0.0
H 0.0 0.0 0.8117103570202033
3

H 0.0 0.0 -1.1289151769080286
H 0.0 0.0 0.0
H 0.0 0.0 0.8120027287249261
3

H 0.0 0.0 -1.1279588721520657
H 0.0 0.0 0.0
H 0.0 0.0 0.8122951004296488
3

H 0.0 0.0 -1.1270025673961024
H 0.0 0.0 0.0
H 0.0 0.0 0.8125874721343715
3

H 0.0 0.0 -1.1260462626401393
H 0.0 0.0 0.0
H 0.0 0.0 0.8128798438390943
3

H 0.0 0.0 -1.1250899578841762
H 0.0 0.0 0.0
H 0.0 0.0 0.813172215543817
3

H 0.0 0.0 -1.1241336531282131
H 0.0 0.0 0.0
H 0.0 0.0 0.8134645872485398
3

H 0.0 0.0 -1.123182596611918
H 0.0 0.0 0.0
H 0.0 0.0 0.8137736042429147
3

H 0.0 0.0 -1.1222315400956229
H 0.0 0.0 0.0
H 0.0 0.0 0.8140826212372896
3

H 0.0 0.0 -1.1212804835793275
H 0.0 0.0 0.0
H 0.0 0.0 0.8143916382316645
3

H 0.0 0.0 -1.1203294270630326
H 0.0 0.0 0.0
H 0.0 0.0 0.8147006552260394
3

H 0.0 0.0 -1.1193783705467375
H 0.0 0.0 0.0
H 0.0 0.0 0.8150096722204143
3

H 0.0 0.0 -1.1184273140304424
H 0.0 0.0 0.0
H 0.0 0.0 0.8153186892147892
3

H 0.0 0.0 -1.1174762575141473
H 0.0 0.0 0.0
H 0.0 0.0 0.8156277062091641
3

H 0.0 0.0 -1.116525200997852
H 0.0 0.0 0.0
H 0.0 0.0 0.815936723203539
3

H 0.0 0.0 -1.115574144481557
H 0.0 0.0 0.0
H 0.0 0.0 0.816245740197914
3

H 0.0 0.0 -1.114623087965262
H 0.0 0.0 0.0
H 0.0 0.0 0.8165547571922889
3

H 0.0 0.0 -1.1136720314489668
H 0.0 0.0 0.0
H 0.0 0.0 0.8168637741866638
3

H 0.0 0.0 -1.1127209749326716
H 0.0 0.0 0.0
H 0.0 0.0 0.8171727911810387
3

H 0.0 0.0 -1.1117754563570723
H 0.0 0.0 0.0
H 0.0 0.0 0.8174983593354959
3

H 0.0 0.0 -1.110829937781473
H 0.0 0.0 0.0
H 0.0 0.0 0.817823927489953
3

H 0.0 0.0 -1.1098844192058737
H 0.0 0.0 0.0
H 0.0 0.0 0.8181494956444102
3

H 0.0 0.0 -1.1089389006302743
H 0.0 0.0 0.0
H 0.0 0.0 0.8184750637988674
3

H 0.0 0.0 -1.107993382054675
H 0.0 0.0 0.0
H 0.0 0.0 0.8188006319533245
3

H 0.0 0.0 -1.1070478634790757
H 0.0 0.0 0.0
H 0.0 0.0 0.8191262001077817
3

H 0.0 0.0 -1.1061023449034764
H 0.0 0.0 0.0
H 0.0 0.0 0.8194517682622389
3

H 0.0 0.0 -1.105156826327877
H 0.0 0.0 0.0
H 0.0 0.0 0.819777336416696
3

H 0.0 0.0 -1.1042113077522775
H 0.0 0.0 0.0
H 0.0 0.0 0.8201029045711532
3

H 0.0 0.0 -1.1032657891766784
H 0.0 0.0 0.0
H 0.0 0.0 0.8204284727256104
3

H 0.0 0.0 -1.102320270601079
H 0.0 0.0 0.0
H 0.0 0.0 0.8207540408800675
3

H 0.0 0.0 -1.1013747520254795
H 0.0 0.0 0.0
H 0.0 0.0 0.8210796090345247
3

H 0.0 0.0 -1.100435059404694
H 0.0 0.0 0.0
H 0.0 0.0 0.8214216291778503
3

H 0.0 0.0 -1.099495366783908
H 0.0 0.0 0.0
H 0.0 0.0 0.821763649321176
3

H 0.0 0.0 -1.0985556741631222
H 0.0 0.0 0.0
H 0.0 0.0 0.8221056694645016
3

H 0.0 0.0 -1.0976159815423363
H 0.0 0.0 0.0
H 0.0 0.0 0.8224476896078272
3

H 0.0 0.0 -1.0966762889215504
H 0.0 0.0 0.0
H 0.0 0.0 0.8227897097511528
3

H 0.0 0.0 -1.0957365963007646
H 0.0 0.0 0.0
H 0.0 0.0 0.8231317298944785
3

H 0.0 0.0 -1.0947969036799787
H 0.0 0.0 0.0
H 0.0 0.0 0.8234737500378041
3

H 0.0 0.0 -1.0938572110591929
H 0.0 0.0 0.0
H 0.0 0.0 0.8238157701811297
3

H 0.0 0.0 -1.092917518438407
H 0.0 0.0 0.0
H 0.0 0.0 0.8241577903244554
3

H 0.0 0.0 -1.0919778258176212
H 0.0 0.0 0.0
H 0.0 0.0 0.824499810467781
3

H 0.0 0.0 -1.0910381331968353
H 0.0 0.0 0.0
H 0.0 0.0 0.8248418306111066
3

H 0.0 0.0 -1.0900984405760494
H 0.0 0.0 0.0
H 0.0 0.0 0.8251838507544322
3

H 0.0 0.0 -1.0891648601495525
H 0.0 0.0 0.0
H 0.0 0.0 0.8255422187039775
3

H 0.0 0.0 -1.0882312797230551
H 0.0 0.0 0.0
H 0.0 0.0 0.8259005866535227
3

H 0.0 0.0 -1.087297699296558
H 0.0 0.0 0.0
H 0.0 0.0 0.826258954603068
3

H 0.0 0.0 -1.0863641188700608
H 0.0 0.0 0.0
H 0.0 0.0 0.8266173225526132
3

H 0.0 0.0 -1.0854305384435636
H 0.0 0.0 0.0
H 0.0 0.0 0.8269756905021585
3

H 0.0 0.0 -1.0844969580170665
H 0.0 0.0 0.0
H 0.0 0.0 0.8273340584517037
3

H 0.0 0.0 -1.0835633775905693
H 0.0 0.0 0.0
H 0.0 0.0 0.827692426401249
3

H 0.0 0.0 -1.082629797164072
H 0.0 0.0 0.0
H 0.0 0.0 0.8280507943507942
3

H 0.0 0.0 -1.081696216737575
H 0.0 0.0 0.0
H 0.0 0.0 0.8284091623003395
3

H 0.0 0.0 -1.0807626363110778
H 0.0 0.0 0.0
H 0.0 0.0 0.8287675302498847
3

H 0.0 0.0 -1.079835452456511
H 0.0 0.0 0.0
H 0.0 0.0 0.8291421368433006
3

H 0.0 0.0 -1.0789082686019442
H 0.0 0.0 0.0
H 0.0 0.0 0.8295167434367166
3

H 0.0 0.0 -1.0779810847473774
H 0.0 0.0 0.0
H 0.0 0.0 0.8298913500301325
3

H 0.0 0.0 -1.0770539008928106
H 0.0 0.0 0.0
H 0.0 0.0 0.8302659566235484
3

H 0.0 0.0 -1.0761267170382438
H 0.0 0.0 0.0
H 0.0 0.0 0.8306405632169643
3

H 0.0 0.0 -1.075199533183677
H 0.0 0.0 0.0
H 0.0 0.0 0.8310151698103803
3

H 0.0 0.0 -1.0742723493291102
H 0.0 0.0 0.0
H 0.0 0.0 0.8313897764037962
3

H 0.0 0.0 -1.0733451654745434
H 0.0 0.0 0.0
H 0.0 0.0 0.8317643829972121
3

H 0.0 0.0 -1.0724179816199766
H 0.0 0.0 0.0
H 0.0 0.0 0.832138989590628
3

H 0.0 0.0 -1.0714907977654098
H 0.0 0.0 0.0
H 0.0 0.0 0.832513596184044
3

H 0.0 0.0 -1.070563613910843
H 0.0 0.0 0.0
H 0.0 0.0 0.8328882027774599
3

H 0.0 0.0 -1.0696431090573906
H 0.0 0.0 0.0
H 0.0 0.0 0.8332789339059492
3

H 0.0 0.0 -1.0687226042039382
H 0.0 0.0 0.0
H 0.0 0.0 0.8336696650344385
3

H 0.0 0.0 -1.0678020993504858
H 0.0 0.0 0.0
H 0.0 0.0 0.8340603961629278
3

H 0.0 0.0 -1.0668815944970331
H 0.0 0.0 0.0
H 0.0 0.0 0.8344511272914171
3

H 0.0 0.0 -1.065961089643581
H 0.0 0.0 0.0
H 0.0 0.0 0.8348418584199064
3

H 0.0 0.0 -1.0650405847901283
H 0.0 0.0 0.0
H 0.0 0.0 0.8352325895483957
3

H 0.0 0.0 -1.064120079936676
H 0.0 0.0 0.0
H 0.0 0.0 0.835623320676885
3

H 0.0 0.0 -1.0631995750832235
H 0.0 0.0 0.0
H 0.0 0.0 0.8360140518053744
3

H 0.0 0.0 -1.0622790702297713
H 0.0 0.0 0.0
H 0.0 0.0 0.8364047829338637
3

H 0.0 0.0 -1.061358565376319
H 0.0 0.0 0.0
H 0.0 0.0 0.836795514062353
3

H 0.0 0.0 -1.0604450199186763
H 0.0 0.0 0.0
H 0.0 0.0 0.8372022507054288
3

H 0.0 0.0 -1.0595314744610338
H 0.0 0.0 0.0
H 0.0 0.0 0.8376089873485045
3

H 0.0 0.0 -1.0586179290033912
H 0.0 0.0 0.0
H 0.0 0.0 0.8380157239915803
3

H 0.0 0.0 -1.0577043835457487
H 0.0 0.0 0.0
H 0.0 0.0 0.8384224606346561
3

H 0.0 0.0 -1.056790838088106
H 0.0 0.0 0.0
H 0.0 0.0 0.8388291972777319
3

H 0.0 0.0 -1.0558772926304636
H 0.0 0.0 0.0
H 0.0 0.0 0.8392359339208076
3

H 0.0 0.0 -1.054963747172821
H 0.0 0.0 0.0
H 0.0 0.0 0.8396426705638834
3

H 0.0 0.0 -1.0540502017151785
H 0.0 0.0 0.0
H 0.0 0.0 0.8400494072069592
3

H 0.0 0.0 -1.053136656257536
H 0.0 0.0 0.0
H 0.0 0.0 0.840456143850035
3

H 0.0 0.0 -1.0522303484704991
H 0.0 0.0 0.0
H 0.0 0.0 0.8408787621117757
3

H 0.0 0.0 -1.0513240406834627
H 0.0 0.0 0.0
H 0.0 0.0 0.8413013803735164
3

H 0.0 0.0 -1.050417732896426
H 0.0 0.0 0.0
H 0.0 0.0 0.8417239986352572
3

H 0.0 0.0 -1.0495114251093896
H 0.0 0.0 0.0
H 0.0 0.0 0.8421466168969979
3

H 0.0 0.0 -1.048605117322353
H 0.0 0.0 0.0
H 0.0 0.0 0.8425692351587386
3

H 0.0 0.0 -1.0476988095353164
H 0.0 0.0 0.0
H 0.0 0.0 0.8429918534204793
3

H 0.0 0.0 -1.0467925017482798
H 0.0 0.0 0.0
H 0.0 0.0 0.8434144716822201
3

H 0.0 0.0 -1.0458861939612432
H 0.0 0.0 0.0
H 0.0 0.0 0.8438370899439608
3

H 0.0 0.0 -1.0449798861742066
H 0.0 0.0 0.0
H 0.0 0.0 0.8442597082057015
3

H 0.0 0.0 -1.04407357838717
H 0.0 0.0 0.0
H 0.0 0.0 0.8446823264674422
3

H 0.0 0.0 -1.0431747843408707
H 0.0 0.0 0.0
H 0.0 0.0 0.8451206976142314
3

H 0.0 0.0 -1.0422759902945715
H 0.0 0.0 0.0
H 0.0 0.0 0.8455590687610205
3

H 0.0 0.0 -1.0413771962482723
H 0.0 0.0 0.0
H 0.0 0.0 0.8459974399078096
3

H 0.0 0.0 -1.040478402201973
H 0.0 0.0 0.0
H 0.0 0.0 0.8464358110545988
3

H 0.0 0.0 -1.039579608155674
H 0.0 0.0 0.0
H 0.0 0.0 0.8468741822013879
3

H 0.0 0.0 -1.0386808141093746
H 0.0 0.0 0.0
H 0.0 0.0 0.847312553348177
3

H 0.0 0.0 -1.0377820200630754
H 0.0 0.0 0.0
H 0.0 0.0 0.8477509244949661
3

H 0.0 0.0 -1.0368832260167762
H 0.0 0.0 0.0
H 0.0 0.0 0.8481892956417553
3

H 0.0 0.0 -1.035984431970477
H 0.0 0.0 0.0
H 0.0 0.0 0.8486276667885444
3

H 0.0 0.0 -1.035093425446289
H 0.0 0.0 0.0
H 0.0 0.0 0.849081657288284
3

H 0.0 0.0 -1.0342024189221004
H 0.0 0.0 0.0
H 0.0 0.0 0.8495356477880236
3

H 0.0 0.0 -1.033311412397912
H 0.0 0.0 0.0
H 0.0 0.0 0.8499896382877632
3

H 0.0 0.0 -1.032420405873724
H 0.0 0.0 0.0
H 0.0 0.0 0.8504436287875028
3

H 0.0 0.0 -1.0315293993495356
H 0.0 0.0 0.0
H 0.0 0.0 0.8508976192872424
3

H 0.0 0.0 -1.0306383928253473
H 0.0 0.0 0.0
H 0.0 0.0 0.851351609786982
3

H 0.0 0.0 -1.029747386301159
H 0.0 0.0 0.0
H 0.0 0.0 0.8518056002867216
3

H 0.0 0.0 -1.0288563797769708
H 0.0 0.0 0.0
H 0.0 0.0 0.8522595907864612
3

H 0.0 0.0 -1.0279653732527825
H 0.0 0.0 0.0
H 0.0 0.0 0.8527135812862008
3

H 0.0 0.0 -1.0270824256599236
H 0.0 0.0 0.0
H 0.0 0.0 0.8531830528489867
3

H 0.0 0.0 -1.026199478067065
H 0.0 0.0 0.0
H 0.0 0.0 0.8536525244117725
3

H 0.0 0.0 -1.0253165304742058
H 0.0 0.0 0.0
H 0.0 0.0 0.8541219959745584
3

H 0.0 0.0 -1.024433582881347
H 0.0 0.0 0.0
H 0.0 0.0 0.8545914675373443
3

H 0.0 0.0 -1.023550635288488
H 0.0 0.0 0.0
H 0.0 0.0 0.8550609391001301
3

H 0.0 0.0 -1.022667687695629
H 0.0 0.0 0.0
H 0.0 0.0 0.855530410662916
3

H 0.0 0.0 -1.0217847401027702
H 0.0 0.0 0.0
H 0.0 0.0 0.8559998822257019
3

H 0.0 0.0 -1.0209017925099113
H 0.0 0.0 0.0
H 0.0 0.0 0.8564693537884878
3

H 0.0 0.0 -1.020027172802772
H 0.0 0.0 0.0
H 0.0 0.0 0.8569541634087341
3

H 0.0 0.0 -1.0191525530956325
H 0.0 0.0 0.0
H 0.0 0.0 0.8574389730289804
3

H 0.0 0.0 -1.018277933388493
H 0.0 0.0 0.0
H 0.0 0.0 0.8579237826492268
3

H 0.0 0.0 -1.0174033136813536
H 0.0 0.0 0.0
H 0.0 0.0 0.8584085922694731
3

H 0.0 0.0 -1.0165286939742142
H 0.0 0.0 0.0
H 0.0 0.0 0.8588934018897194
3

H 0.0 0.0 -1.0156540742670748
H 0.0 0.0 0.0
H 0.0 0.0 0.8593782115099657
3

H 0.0 0.0 -1.0147794545599351
H 0.0 0.0 0.0
H 0.0 0.0 0.8598630211302121
3

H 0.0 0.0 -1.013904834852796
H 0.0 0.0 0.0
H 0.0 0.0 0.8603478307504584
3

H 0.0 0.0 -1.0130388094490117
H 0.0 0.0 0.0
H 0.0 0.0 0.8608478307504583
3

H 0.0 0.0 -1.012172784045227
H 0.0 0.0 0.0
H 0.0 0.0 0.8613478307504583
3

H 0.0 0.0 -1.0113067586414426
H 0.0 0.0 0.0
H 0.0 0.0 0.8618478307504582
3

H 0.0 0.0 -1.0104407332376582
H 0.0 0.0 0.0
H 0.0 0.0 0.8623478307504582
3

H 0.0 0.0 -1.0095747078338737
H 0.0 0.0 0.0
H 0.0 0.0 0.8628478307504581
3

H 0.0 0.0 -1.0087086824300893
H 0.0 0.0 0.0
H 0.0 0.0 0.8633478307504581
3

H 0.0 0.0 -1.0078426570263048
H 0.0 0.0 0.0
H 0.0 0.0 0.863847830750458
3

H 0.0 0.0 -1.0069766316225204
H 0.0 0.0 0.0
H 0.0 0.0 0.8643478307504581
3

H 0.0 0.0 -1.0061194643218183
H 0.0 0.0 0.0
H 0.0 0.0 0.8648628688253681
3

H 0.0 0.0 -1.0052622970211162
H 0.0 0.0 0.0
H 0.0 0.0 0.8653779069002782
3

H 0.0 0.0 -1.0044051297204142
H 0.0 0.0 0.0
H 0.0 0.0 0.8658929449751882
3

H 0.0 0.0 -1.003547962419712
H 0.0 0.0 0.0
H 0.0 0.0 0.8664079830500983
3

H 0.0 0.0 -1.00269079511901
H 0.0 0.0 0.0
H 0.0 0.0 0.8669230211250083
3

H 0.0 0.0 -1.001833627818308
H 0.0 0.0 0.0
H 0.0 0.0 0.8674380591999183
3

H 0.0 0.0 -1.000976460517606
H 0.0 0.0 0.0
H 0.0 0.0 0.8679530972748284
3

H 0.0 0.0 -1.0001192932169038
H 0.0 0.0 0.0
H 0.0 0.0 0.8684681353497384
3

H 0.0 0.0 -0.9992712451207476
H 0.0 0.0 0.0
H 0.0 0.0 0.8689980546139716
3

H 0.0 0.0 -0.998423197024591
H 0.0 0.0 0.0
H 0.0 0.0 0.8695279738782048
3

H 0.0 0.0 -0.9975751489284346
H 0.0 0.0 0.0
H 0.0 0.0 0.870057893142438
3

H 0.0 0.0 -0.996727100832278
H 0.0 0.0 0.0
H 0.0 0.0 0.8705878124066712
3

H 0.0 0.0 -0.9958790527361217
H 0.0 0.0 0.0
H 0.0 0.0 0.8711177316709043
3

H 0.0 0.0 -0.9950310046399652
H 0.0 0.0 0.0
H 0.0 0.0 0.8716476509351375
3

H 0.0 0.0 -0.9941829565438088
H 0.0 0.0 0.0
H 0.0 0.0 0.8721775701993707
3

H 0.0 0.0 -0.9933442859758632
H 0.0 0.0 0.0
H 0.0 0.0 0.8727222092343857
3

H 0.0 0.0 -0.992505615407918
H 0.0 0.0 0.0
H 0.0 0.0 0.8732668482694007
3

H 0.0 0.0 -0.9916669448399724
H 0.0 0.0 0.0
H 0.0 0.0 0.8738114873044157
3

H 0.0 0.0 -0.9908282742720272
H 0.0 0.0 0.0
H 0.0 0.0 0.8743561263394307
3

H 0.0 0.0 -0.9899896037040816
H 0.0 0.0 0.0
H 0.0 0.0 0.8749007653744457
3

H 0.0 0.0 -0.9891509331361364
H 0.0 0.0 0.0
H 0.0 0.0 0.8754454044094607
3

H 0.0 0.0 -0.9883122625681908
H 0.0 0.0 0.0
H 0.0 0.0 0.8759900434444757
3

H 0.0 0.0 -0.9874735920002456
H 0.0 0.0 0.0
H 0.0 0.0 0.8765346824794907
3

H 0.0 0.0 -0.9866445544276904
H 0.0 0.0 0.0
H 0.0 0.0 0.8770938753829615
3

H 0.0 0.0 -0.9858155168551356
H 0.0 0.0 0.0
H 0.0 0.0 0.8776530682864322
3

H 0.0 0.0 -0.9849864792825804
H 0.0 0.0 0.0
H 0.0 0.0 0.8782122611899029
3

H 0.0 0.0 -0.9841574417100254
H 0.0 0.0 0.0
H 0.0 0.0 0.8787714540933736
3

H 0.0 0.0 -0.9833284041374704
H 0.0 0.0 0.0
H 0.0 0.0 0.8793306469968444
3

H 0.0 0.0 -0.9824993665649152
H 0.0 0.0 0.0
H 0.0 0.0 0.8798898399003151
3

H 0.0 0.0 -0.9816703289923604
H 0.0 0.0 0.0
H 0.0 0.0 0.8804490328037858
3

H 0.0 0.0 -0.9808412914198053
H 0.0 0.0 0.0
H 0.0 0.0 0.8810082257072566
3

H 0.0 0.0 -0.9800221393755164
H 0.0 0.0 0.0
H 0.0 0.0 0.8815818021436076
3

H 0.0 0.0 -0.9792029873312272
H 0.0 0.0 0.0
H 0.0 0.0 0.8821553785799586
3

H 0.0 0.0 -0.9783838352869384
H 0.0 0.0 0.0
H 0.0 0.0 0.8827289550163097
3

H 0.0 0.0 -0.9775646832426494
H 0.0 0.0 0.0
H 0.0 0.0 0.8833025314526607
3

H 0.0 0.0 -0.9767455311983604
H 0.0 0.0 0.0
H 0.0 0.0 0.8838761078890117
3

H 0.0 0.0 -0.9759263791540717
H 0.0 0.0 0.0
H 0.0 0.0 0.8844496843253628
3

H 0.0 0.0 -0.9751173621596966
H 0.0 0.0 0.0
H 0.0 0.0 0.8850374695776553
3

H 0.0 0.0 -0.9743083451653216
H 0.0 0.0 0.0
H 0.0 0.0 0.8856252548299478
3

H 0.0 0.0 -0.9734993281709466
H 0.0 0.0 0.0
H 0.0 0.0 0.8862130400822403
3

H 0.0 0.0 -0.9726903111765716
H 0.0 0.0 0.0
H 0.0 0.0 0.8868008253345329
3

H 0.0 0.0 -0.9718812941821968
H 0.0 0.0 0.0
H 0.0 0.0 0.8873886105868254
3

H 0.0 0.0 -0.9710722771878216
H 0.0 0.0 0.0
H 0.0 0.0 0.8879763958391179
3

H 0.0 0.0 -0.9702632601934468
H 0.0 0.0 0.0
H 0.0 0.0 0.8885641810914104
3

H 0.0 0.0 -0.9694646246833994
H 0.0 0.0 0.0
H 0.0 0.0 0.8891659961145625
3

H 0.0 0.0 -0.968665989173352
H 0.0 0.0 0.0
H 0.0 0.0 0.8897678111377145
3

H 0.0 0.0 -0.9678673536633048
H 0.0 0.0 0.0
H 0.0 0.0 0.8903696261608666
3

H 0.0 0.0 -0.9670687181532576
H 0.0 0.0 0.0
H 0.0 0.0 0.8909714411840186
3

H 0.0 0.0 -0.96627008264321
H 0.0 0.0 0.0
H 0.0 0.0 0.8915732562071707
3

H 0.0 0.0 -0.9654714471331628
H 0.0 0.0 0.0
H 0.0 0.0 0.8921750712303227
3

H 0.0 0.0 -0.9646728116231156
H 0.0 0.0 0.0
H 0.0 0.0 0.8927768862534747
3

H 0.0 0.0 -0.963874176113068
H 0.0 0.0 0.0
H 0.0 0.0 0.8933787012766268
3

H 0.0 0.0 -0.9630861653594616
H 0.0 0.0 0.0
H 0.0 0.0 0.8939943627519524
3

H 0.0 0.0 -0.9622981546058548
H 0.0 0.0 0.0
H 0.0 0.0 0.8946100242272781
3

H 0.0 0.0 -0.961510143852248
H 0.0 0.0 0.0
H 0.0 0.0 0.8952256857026037
3

H 0.0 0.0 -0.9607221330986414
H 0.0 0.0 0.0
H 0.0 0.0 0.8958413471779294
3

H 0.0 0.0 -0.9599341223450348
H 0.0 0.0 0.0
H 0.0 0.0 0.8964570086532551
3

H 0.0 0.0 -0.959146111591428
H 0.0 0.0 0.0
H 0.0 0.0 0.8970726701285807
3

H 0.0 0.0 -0.9583581008378214
H 0.0 0.0 0.0
H 0.0 0.0 0.8976883316039064
3

H 0.0 0.0 -0.9575809548763644
H 0.0 0.0 0.0
H 0.0 0.0 0.8983176519949562
3

H 0.0 0.0 -0.9568038089149076
H 0.0 0.0 0.0
H 0.0 0.0 0.898946972386006
3

H 0.0 0.0 -0.9560266629534504
H 0.0 0.0 0.0
H 0.0 0.0 0.8995762927770558
3

H 0.0 0.0 -0.9552495169919936
H 0.0 0.0 0.0
H 0.0 0.0 0.9002056131681055
3

H 0.0 0.0 -0.9544723710305366
H 0.0 0.0 0.0
H 0.0 0.0 0.9008349335591552
3

H 0.0 0.0 -0.9536952250690796
H 0.0 0.0 0.0
H 0.0 0.0 0.9014642539502052
3

H 0.0 0.0 -0.9529291806259608
H 0.0 0.0 0.0
H 0.0 0.0 0.9021070415598916
3

H 0.0 0.0 -0.9521631361828417
H 0.0 0.0 0.0
H 0.0 0.0 0.902749829169578
3

H 0.0 0.0 -0.9513970917397226
H 0.0 0.0 0.0
H 0.0 0.0 0.9033926167792646
3

H 0.0 0.0 -0.9506310472966036
H 0.0 0.0 0.0
H 0.0 0.0 0.9040354043889512
3

H 0.0 0.0 -0.9498650028534846
H 0.0 0.0 0.0
H 0.0 0.0 0.9046781919986376
3

H 0.0 0.0 -0.9490989584103656
H 0.0 0.0 0.0
H 0.0 0.0 0.905320979608324
3

H 0.0 0.0 -0.9483329139672466
H 0.0 0.0 0.0
H 0.0 0.0 0.9059637672180106
3

H 0.0 0.0 -0.947578204387024
H 0.0 0.0 0.0
H 0.0 0.0 0.9066198262470012
3

H 0.0 0.0 -0.9468234948068012
H 0.0 0.0 0.0
H 0.0 0.0 0.9072758852759916
3

H 0.0 0.0 -0.9460687852265784
H 0.0 0.0 0.0
H 0.0 0.0 0.907931944304982
3

H 0.0 0.0 -0.9453140756463556
H 0.0 0.0 0.0
H 0.0 0.0 0.9085880033339724
3

H 0.0 0.0 -0.944559366066133
H 0.0 0.0 0.0
H 0.0 0.0 0.909244062362963
3

H 0.0 0.0 -0.9438046564859104
H 0.0 0.0 0.0
H 0.0 0.0 0.9099001213919534
3

H 0.0 0.0 -0.9430499469056876
H 0.0 0.0 0.0
H 0.0 0.0 0.910556180420944
3

H 0.0 0.0 -0.94230680208021
H 0.0 0.0 0.0
H 0.0 0.0 0.9112253110273028
3

H 0.0 0.0 -0.9415636572547328
H 0.0 0.0 0.0
H 0.0 0.0 0.9118944416336616
3

H 0.0 0.0 -0.9408205124292552
H 0.0 0.0 0.0
H 0.0 0.0 0.9125635722400204
3

H 0.0 0.0 -0.9400773676037778
H 0.0 0.0 0.0
H 0.0 0.0 0.9132327028463794
3

H 0.0 0.0 -0.9393342227783004
H 0.0 0.0 0.0
H 0.0 0.0 0.9139018334527382
3

H 0.0 0.0 -0.9386028690766812
H 0.0 0.0 0.0
H 0.0 0.0 0.9145838318128008
3

H 0.0 0.0 -0.9378597242512038
H 0.0 0.0 0.0
H 0.0 0.0 0.9152529624191597
3

H 0.0 0.0 -0.9371283705495846
H 0.0 0.0 0.0
H 0.0 0.0 0.9159349607792222
3

H 0.0 0.0 -0.9363970168479656
H 0.0 0.0 0.0
H 0.0 0.0 0.9166169591392848
3

H 0.0 0.0 -0.9356656631463464
H 0.0 0.0 0.0
H 0.0 0.0 0.9172989574993472
3

H 0.0 0.0 -0.9349343094447272
H 0.0 0.0 0.0
H 0.0 0.0 0.91798095585941
3

H 0.0 0.0 -0.934202955743108
H 0.0 0.0 0.0
H 0.0 0.0 0.9186629542194724
3

H 0.0 0.0 -0.9334716020414888
H 0.0 0.0 0.0
H 0.0 0.0 0.919344952579535
3

H 0.0 0.0 -0.9327522622411504
H 0.0 0.0 0.0
H 0.0 0.0 0.920039610949994
3

H 0.0 0.0 -0.9320329224408116
H 0.0 0.0 0.0
H 0.0 0.0 0.920734269320453
3

H 0.0 0.0 -0.9313135826404728
H 0.0 0.0 0.0
H 0.0 0.0 0.921428927690912
3

H 0.0 0.0 -0.9305942428401344
H 0.0 0.0 0.0
H 0.0 0.0 0.922123586061371
3

H 0.0 0.0 -0.9298749030397956
H 0.0 0.0 0.0
H 0.0 0.0 0.92281824443183
3

H 0.0 0.0 -0.9291555632394568
H 0.0 0.0 0.0
H 0.0 0.0 0.923512902802289
3

H 0.0 0.0 -0.9284362234391182
H 0.0 0.0 0.0
H 0.0 0.0 0.924207561172748
3

H 0.0 0.0 -0.9277291166579316
H 0.0 0.0 0.0
H 0.0 0.0 0.9249146679539346
3

H 0.0 0.0 -0.9270344582874728
H 0.0 0.0 0.0
H 0.0 0.0 0.9256340077542732
3

H 0.0 0.0 -0.9264326432643206
H 0.0 0.0 0.0
H 0.0 0.0 0.9264326432643206
3

H 0.0 0.0 -0.9264326432643206
H 0.0 0.0 0.0
H 0.0 0.0 0.9264326432643206
3

H 0.0 0.0 -0.9256340077542732
H 0.0 0.0 0.0
H 0.0 0.0 0.9270344582874728
3

H 0.0 0.0 -0.9249146679539346
H 0.0 0.0 0.0
H 0.0 0.0 0.9277291166579316
3

H 0.0 0.0 -0.9242200095834756
H 0.0 0.0 0.0
H 0.0 0.0 0.9284484564582705
3

H 0.0 0.0 -0.923512902802289
H 0.0 0.0 0.0
H 0.0 0.0 0.9291555632394568
3

H 0.0 0.0 -0.92281824443183
H 0.0 0.0 0.0
H 0.0 0.0 0.9298749030397956
3

H 0.0 0.0 -0.922123586061371
H 0.0 0.0 0.0
H 0.0 0.0 0.9305942428401344
3

H 0.0 0.0 -0.921428927690912
H 0.0 0.0 0.0
H 0.0 0.0 0.9313135826404728
3

H 0.0 0.0 -0.920734269320453
H 0.0 0.0 0.0
H 0.0 0.0 0.9320329224408116
3

H 0.0 0.0 -0.920039610949994
H 0.0 0.0 0.0
H 0.0 0.0 0.9327522622411504
3

H 0.0 0.0 -0.919344952579535
H 0.0 0.0 0.0
H 0.0 0.0 0.9334716020414888
3

H 0.0 0.0 -0.9186629542194724
H 0.0 0.0 0.0
H 0.0 0.0 0.934202955743108
3

H 0.0 0.0 -0.91798095585941
H 0.0 0.0 0.0
H 0.0 0.0 0.9349343094447272
3

H 0.0 0.0 -0.9172989574993472
H 0.0 0.0 0.0
H 0.0 0.0 0.9356656631463464
3

H 0.0 0.0 -0.9166169591392848
H 0.0 0.0 0.0
H 0.0 0.0 0.9363970168479656
3

H 0.0 0.0 -0.9159349607792222
H 0.0 0.0 0.0
H 0.0 0.0 0.9371283705495846
3

H 0.0 0.0 -0.9152529624191597
H 0.0 0.0 0.0
H 0.0 0.0 0.9378597242512038
3

H 0.0 0.0 -0.9145709640590972
H 0.0 0.0 0.0
H 0.0 0.0 0.9385910779528228
3

H 0.0 0.0 -0.9139018334527382
H 0.0 0.0 0.0
H 0.0 0.0 0.9393342227783004
3

H 0.0 0.0 -0.9132327028463794
H 0.0 0.0 0.0
H 0.0 0.0 0.9400773676037778
3

H 0.0 0.0 -0.9125635722400204
H 0.0 0.0 0.0
H 0.0 0.0 0.9408205124292552
3

H 0.0 0.0 -0.9118944416336616
H 0.0 0.0 0.0
H 0.0 0.0 0.9415636572547328
3

H 0.0 0.0 -0.9112253110273028
H 0.0 0.0 0.0
H 0.0 0.0 0.94230680208021
3

H 0.0 0.0 -0.910556180420944
H 0.0 0.0 0.0
H 0.0 0.0 0.9430499469056876
3

H 0.0 0.0 -0.9099001213919534
H 0.0 0.0 0.0
H 0.0 0.0 0.9438046564859104
3

H 0.0 0.0 -0.909244062362963
H 0.0 0.0 0.0
H 0.0 0.0 0.944559366066133
3

H 0.0 0.0 -0.9085880033339724
H 0.0 0.0 0.0
H 0.0 0.0 0.9453140756463556
3

H 0.0 0.0 -0.907931944304982
H 0.0 0.0 0.0
H 0.0 0.0 0.9460687852265784
3

H 0.0 0.0 -0.9072758852759916
H 0.0 0.0 0.0
H 0.0 0.0 0.9468234948068012
3

H 0.0 0.0 -0.9066198262470012
H 0.0 0.0 0.0
H 0.0 0.0 0.947578204387024
3

H 0.0 0.0 -0.9059637672180106
H 0.0 0.0 0.0
H 0.0 0.0 0.9483329139672466
3

H 0.0 0.0 -0.905320979608324
H 0.0 0.0 0.0
H 0.0 0.0 0.9490989584103656
3

H 0.0 0.0 -0.9046781919986376
H 0.0 0.0 0.0
H 0.0 0.0 0.9498650028534846
3

H 0.0 0.0 -0.9040354043889512
H 0.0 0.0 0.0
H 0.0 0.0 0.9506310472966036
3

H 0.0 0.0 -0.9033926167792646
H 0.0 0.0 0.0
H 0.0 0.0 0.9513970917397226
3

H 0.0 0.0 -0.902749829169578
H 0.0 0.0 0.0
H 0.0 0.0 0.9521631361828417
3

H 0.0 0.0 -0.9021070415598916
H 0.0 0.0 0.0
H 0.0 0.0 0.9529291806259608
3

H 0.0 0.0 -0.9014777211688418
H 0.0 0.0 0.0
H 0.0 0.0 0.9537063265874176
3

H 0.0 0.0 -0.900848400777792
H 0.0 0.0 0.0
H 0.0 0.0 0.9544834725488746
3

H 0.0 0.0 -0.9002190803867423
H 0.0 0.0 0.0
H 0.0 0.0 0.9552606185103316
3

H 0.0 0.0 -0.8995897599956925
H 0.0 0.0 0.0
H 0.0 0.0 0.9560377644717885
3

H 0.0 0.0 -0.8989604396046427
H 0.0 0.0 0.0
H 0.0 0.0 0.9568149104332454
3

H 0.0 0.0 -0.8983311192135929
H 0.0 0.0 0.0
H 0.0 0.0 0.9575920563947024
3

H 0.0 0.0 -0.8977017988225431
H 0.0 0.0 0.0
H 0.0 0.0 0.9583692023561592
3

H 0.0 0.0 -0.8970724784314933
H 0.0 0.0 0.0
H 0.0 0.0 0.9591463483176162
3

H 0.0 0.0 -0.8964568169561676
H 0.0 0.0 0.0
H 0.0 0.0 0.9599343590712228
3

H 0.0 0.0 -0.895841155480842
H 0.0 0.0 0.0
H 0.0 0.0 0.9607223698248296
3

H 0.0 0.0 -0.8952254940055163
H 0.0 0.0 0.0
H 0.0 0.0 0.9615103805784364
3

H 0.0 0.0 -0.8946098325301907
H 0.0 0.0 0.0
H 0.0 0.0 0.962298391332043
3

H 0.0 0.0 -0.893994171054865
H 0.0 0.0 0.0
H 0.0 0.0 0.9630864020856496
3

H 0.0 0.0 -0.8933785095795393
H 0.0 0.0 0.0
H 0.0 0.0 0.9638744128392563
3

H 0.0 0.0 -0.8927766945563873
H 0.0 0.0 0.0
H 0.0 0.0 0.9646730483493036
3

H 0.0 0.0 -0.8921748795332353
H 0.0 0.0 0.0
H 0.0 0.0 0.965471683859351
3

H 0.0 0.0 -0.8915730645100832
H 0.0 0.0 0.0
H 0.0 0.0 0.9662703193693984
3

H 0.0 0.0 -0.8909712494869312
H 0.0 0.0 0.0
H 0.0 0.0 0.9670689548794456
3

H 0.0 0.0 -0.8903694344637791
H 0.0 0.0 0.0
H 0.0 0.0 0.967867590389493
3

H 0.0 0.0 -0.8897676194406271
H 0.0 0.0 0.0
H 0.0 0.0 0.9686662258995404
3

H 0.0 0.0 -0.8891658044174751
H 0.0 0.0 0.0
H 0.0 0.0 0.9694648614095877
3

H 0.0 0.0 -0.888563989394323
H 0.0 0.0 0.0
H 0.0 0.0 0.970263496919635
3

H 0.0 0.0 -0.8879762041420305
H 0.0 0.0 0.0
H 0.0 0.0 0.97107251391401
3

H 0.0 0.0 -0.887388418889738
H 0.0 0.0 0.0
H 0.0 0.0 0.9718815309083848
3

H 0.0 0.0 -0.8868006336374454
H 0.0 0.0 0.0
H 0.0 0.0 0.97269054790276
3

H 0.0 0.0 -0.8862128483851529
H 0.0 0.0 0.0
H 0.0 0.0 0.9734995648971349
3

H 0.0 0.0 -0.8856250631328604
H 0.0 0.0 0.0
H 0.0 0.0 0.9743085818915098
3

H 0.0 0.0 -0.8850372778805679
H 0.0 0.0 0.0
H 0.0 0.0 0.9751175988858848
3

H 0.0 0.0 -0.8844637014442168
H 0.0 0.0 0.0
H 0.0 0.0 0.9759367509301736
3

H 0.0 0.0 -0.8838901250078658
H 0.0 0.0 0.0
H 0.0 0.0 0.9767559029744628
3

H 0.0 0.0 -0.8833165485715148
H 0.0 0.0 0.0
H 0.0 0.0 0.9775750550187516
3

H 0.0 0.0 -0.8827429721351637
H 0.0 0.0 0.0
H 0.0 0.0 0.9783942070630406
3

H 0.0 0.0 -0.8821693956988127
H 0.0 0.0 0.0
H 0.0 0.0 0.9792133591073297
3

H 0.0 0.0 -0.8815958192624617
H 0.0 0.0 0.0
H 0.0 0.0 0.9800325111516184
3

H 0.0 0.0 -0.8810222428261106
H 0.0 0.0 0.0
H 0.0 0.0 0.9808516631959074
3

H 0.0 0.0 -0.8804486663897596
H 0.0 0.0 0.0
H 0.0 0.0 0.9816708152401964
3

H 0.0 0.0 -0.8798894734862889
H 0.0 0.0 0.0
H 0.0 0.0 0.9824998528127514
3

H 0.0 0.0 -0.8793302805828181
H 0.0 0.0 0.0
H 0.0 0.0 0.9833288903853064
3

H 0.0 0.0 -0.8787710876793474
H 0.0 0.0 0.0
H 0.0 0.0 0.9841579279578616
3

H 0.0 0.0 -0.8782118947758767
H 0.0 0.0 0.0
H 0.0 0.0 0.9849869655304164
3

H 0.0 0.0 -0.877652701872406
H 0.0 0.0 0.0
H 0.0 0.0 0.9858160031029716
3

H 0.0 0.0 -0.8770935089689352
H 0.0 0.0 0.0
H 0.0 0.0 0.9866450406755266
3

H 0.0 0.0 -0.8765343160654645
H 0.0 0.0 0.0
H 0.0 0.0 0.9874740782480816
3

H 0.0 0.0 -0.8759896770304495
H 0.0 0.0 0.0
H 0.0 0.0 0.988312748816027
3

H 0.0 0.0 -0.8754450379954345
H 0.0 0.0 0.0
H 0.0 0.0 0.9891514193839724
3

H 0.0 0.0 -0.8749003989604195
H 0.0 0.0 0.0
H 0.0 0.0 0.9899900899519178
3

H 0.0 0.0 -0.8743557599254045
H 0.0 0.0 0.0
H 0.0 0.0 0.9908287605198632
3

H 0.0 0.0 -0.8738111208903895
H 0.0 0.0 0.0
H 0.0 0.0 0.9916674310878086
3

H 0.0 0.0 -0.8732664818553745
H 0.0 0.0 0.0
H 0.0 0.0 0.992506101655754
3

H 0.0 0.0 -0.8727218428203595
H 0.0 0.0 0.0
H 0.0 0.0 0.9933447722236994
3

H 0.0 0.0 -0.8721772037853445
H 0.0 0.0 0.0
H 0.0 0.0 0.9941834427916448
3

H 0.0 0.0 -0.8716472845211113
H 0.0 0.0 0.0
H 0.0 0.0 0.9950314908878012
3

H 0.0 0.0 -0.8711173652568781
H 0.0 0.0 0.0
H 0.0 0.0 0.9958795389839578
3

H 0.0 0.0 -0.8705874459926449
H 0.0 0.0 0.0
H 0.0 0.0 0.9967275870801142
3

H 0.0 0.0 -0.8700575267284117
H 0.0 0.0 0.0
H 0.0 0.0 0.9975756351762708
3

H 0.0 0.0 -0.8695276074641786
H 0.0 0.0 0.0
H 0.0 0.0 0.9984236832724273
3

H 0.0 0.0 -0.8689976881999454
H 0.0 0.0 0.0
H 0.0 0.0 0.9992717313685836
3

H 0.0 0.0 -0.8684677689357122
H 0.0 0.0 0.0
H 0.0 0.0 1.00011977946474
3

H 0.0 0.0 -0.8679527308608022
H 0.0 0.0 0.0
H 0.0 0.0 1.000976946765442
3

H 0.0 0.0 -0.8674376927858921
H 0.0 0.0 0.0
H 0.0 0.0 1.0018341140661442
3

H 0.0 0.0 -0.8669226547109821
H 0.0 0.0 0.0
H 0.0 0.0 1.0026912813668465
3

H 0.0 0.0 -0.866407616636072
H 0.0 0.0 0.0
H 0.0 0.0 1.0035484486675483
3

H 0.0 0.0 -0.865892578561162
H 0.0 0.0 0.0
H 0.0 0.0 1.0044056159682504
3

H 0.0 0.0 -0.8653775404862519
H 0.0 0.0 0.0
H 0.0 0.0 1.0052627832689525
3

H 0.0 0.0 -0.8648625024113419
H 0.0 0.0 0.0
H 0.0 0.0 1.0061199505696543
3

H 0.0 0.0 -0.8643625024113419
H 0.0 0.0 0.0
H 0.0 0.0 1.006985975973439
3

H 0.0 0.0 -0.863862502411342
H 0.0 0.0 0.0
H 0.0 0.0 1.0078520013772234
3

H 0.0 0.0 -0.863362502411342
H 0.0 0.0 0.0
H 0.0 0.0 1.008718026781008
3

H 0.0 0.0 -0.8628625024113421
H 0.0 0.0 0.0
H 0.0 0.0 1.0095840521847923
3

H 0.0 0.0 -0.8623625024113422
H 0.0 0.0 0.0
H 0.0 0.0 1.0104500775885767
3

H 0.0 0.0 -0.8618625024113422
H 0.0 0.0 0.0
H 0.0 0.0 1.0113161029923612
3

H 0.0 0.0 -0.8613625024113423
H 0.0 0.0 0.0
H 0.0 0.0 1.0121821283961456
3

H 0.0 0.0 -0.8608625024113423
H 0.0 0.0 0.0
H 0.0 0.0 1.01304815379993
3

H 0.0 0.0 -0.8603625024113424
H 0.0 0.0 0.0
H 0.0 0.0 1.0139141792037143
3

H 0.0 0.0 -0.859877692791096
H 0.0 0.0 0.0
H 0.0 0.0 1.014788798910854
3

H 0.0 0.0 -0.8593928831708497
H 0.0 0.0 0.0
H 0.0 0.0 1.0156634186179934
3

H 0.0 0.0 -0.8589080735506034
H 0.0 0.0 0.0
H 0.0 0.0 1.0165380383251328
3

H 0.0 0.0 -0.8584232639303571
H 0.0 0.0 0.0
H 0.0 0.0 1.0174126580322722
3

H 0.0 0.0 -0.8579384543101107
H 0.0 0.0 0.0
H 0.0 0.0 1.0182872777394116
3

H 0.0 0.0 -0.8574536446898644
H 0.0 0.0 0.0
H 0.0 0.0 1.019161897446551
3

H 0.0 0.0 -0.8569688350696181
H 0.0 0.0 0.0
H 0.0 0.0 1.0200365171536905
3

H 0.0 0.0 -0.8564840254493717
H 0.0 0.0 0.0
H 0.0 0.0 1.02091113686083
3

H 0.0 0.0 -0.8560145538865859
H 0.0 0.0 0.0
H 0.0 0.0 1.0217940844536888
3

H 0.0 0.0 -0.8555450823238
H 0.0 0.0 0.0
H 0.0 0.0 1.0226770320465477
3

H 0.0 0.0 -0.8550756107610141
H 0.0 0.0 0.0
H 0.0 0.0 1.0235599796394066
3

H 0.0 0.0 -0.8546061391982283
H 0.0 0.0 0.0
H 0.0 0.0 1.0244429272322657
3

H 0.0 0.0 -0.8541366676354424
H 0.0 0.0 0.0
H 0.0 0.0 1.0253258748251244
3

H 0.0 0.0 -0.8536671960726565
H 0.0 0.0 0.0
H 0.0 0.0 1.0262088224179833
3

H 0.0 0.0 -0.8531977245098706
H 0.0 0.0 0.0
H 0.0 0.0 1.0270917700108422
3

H 0.0 0.0 -0.8527282529470848
H 0.0 0.0 0.0
H 0.0 0.0 1.027974717603701
3

H 0.0 0.0 -0.8522587813842989
H 0.0 0.0 0.0
H 0.0 0.0 1.02885766519656
3

H 0.0 0.0 -0.8518047908845593
H 0.0 0.0 0.0
H 0.0 0.0 1.0297486717207482
3

H 0.0 0.0 -0.8513508003848197
H 0.0 0.0 0.0
H 0.0 0.0 1.0306396782449363
3

H 0.0 0.0 -0.8508968098850801
H 0.0 0.0 0.0
H 0.0 0.0 1.0315306847691248
3

H 0.0 0.0 -0.8504428193853405
H 0.0 0.0 0.0
H 0.0 0.0 1.032421691293313
3

H 0.0 0.0 -0.8499888288856009
H 0.0 0.0 0.0
H 0.0 0.0 1.0333126978175011
3

H 0.0 0.0 -0.8495348383858613
H 0.0 0.0 0.0
H 0.0 0.0 1.0342037043416896
3

H 0.0 0.0 -0.8490808478861217
H 0.0 0.0 0.0
H 0.0 0.0 1.035094710865878
3

H 0.0 0.0 -0.8486268573863821
H 0.0 0.0 0.0
H 0.0 0.0 1.0359857173900662
3

H 0.0 0.0 -0.848188486239593
H 0.0 0.0 0.0
H 0.0 0.0 1.0368845114363654
3

H 0.0 0.0 -0.8477501150928038
H 0.0 0.0 0.0
H 0.0 0.0 1.0377833054826646
3

H 0.0 0.0 -0.8473117439460147
H 0.0 0.0 0.0
H 0.0 0.0 1.0386820995289638
3

H 0.0 0.0 -0.8468733727992256
H 0.0 0.0 0.0
H 0.0 0.0 1.039580893575263
3

H 0.0 0.0 -0.8464350016524365
H 0.0 0.0 0.0
H 0.0 0.0 1.0404796876215625
3

H 0.0 0.0 -0.8459966305056473
H 0.0 0.0 0.0
H 0.0 0.0 1.0413784816678615
3

H 0.0 0.0 -0.8455582593588582
H 0.0 0.0 0.0
H 0.0 0.0 1.0422772757141607
3

H 0.0 0.0 -0.8451198882120691
H 0.0 0.0 0.0
H 0.0 0.0 1.04317606976046
3

H 0.0 0.0 -0.8446815170652799
H 0.0 0.0 0.0
H 0.0 0.0 1.0440748638067592
3

H 0.0 0.0 -0.8442588988035392
H 0.0 0.0 0.0
H 0.0 0.0 1.0449811715937958
3

H 0.0 0.0 -0.8438362805417985
H 0.0 0.0 0.0
H 0.0 0.0 1.0458874793808324
3

H 0.0 0.0 -0.8434136622800578
H 0.0 0.0 0.0
H 0.0 0.0 1.046793787167869
3

H 0.0 0.0 -0.842991044018317
H 0.0 0.0 0.0
H 0.0 0.0 1.0477000949549056
3

H 0.0 0.0 -0.8425684257565763
H 0.0 0.0 0.0
H 0.0 0.0 1.0486064027419422
3

H 0.0 0.0 -0.8421458074948356
H 0.0 0.0 0.0
H 0.0 0.0 1.0495127105289788
3

H 0.0 0.0 -0.8417231892330949
H 0.0 0.0 0.0
H 0.0 0.0 1.0504190183160154
3

H 0.0 0.0 -0.8413005709713541
H 0.0 0.0 0.0
H 0.0 0.0 1.051325326103052
3

H 0.0 0.0 -0.8408779527096134
H 0.0 0.0 0.0
H 0.0 0.0 1.0522316338900886
3

H 0.0 0.0 -0.8404553344478727
H 0.0 0.0 0.0
H 0.0 0.0 1.0531379416771252
3

H 0.0 0.0 -0.8400485978047969
H 0.0 0.0 0.0
H 0.0 0.0 1.0540514871347677
3

H 0.0 0.0 -0.8396418611617211
H 0.0 0.0 0.0
H 0.0 0.0 1.0549650325924105
3

H 0.0 0.0 -0.8392351245186453
H 0.0 0.0 0.0
H 0.0 0.0 1.0558785780500528
3

H 0.0 0.0 -0.8388283878755696
H 0.0 0.0 0.0
H 0.0 0.0 1.0567921235076954
3

H 0.0 0.0 -0.8384216512324938
H 0.0 0.0 0.0
H 0.0 0.0 1.057705668965338
3

H 0.0 0.0 -0.838014914589418
H 0.0 0.0 0.0
H 0.0 0.0 1.0586192144229805
3

H 0.0 0.0 -0.8376081779463422
H 0.0 0.0 0.0
H 0.0 0.0 1.059532759880623
3

H 0.0 0.0 -0.8372014413032665
H 0.0 0.0 0.0
H 0.0 0.0 1.0604463053382656
3

H 0.0 0.0 -0.8367947046601907
H 0.0 0.0 0.0
H 0.0 0.0 1.061359850795908
3

H 0.0 0.0 -0.8364039735317014
H 0.0 0.0 0.0
H 0.0 0.0 1.0622803556493603
3

H 0.0 0.0 -0.8360132424032121
H 0.0 0.0 0.0
H 0.0 0.0 1.063200860502813
3

H 0.0 0.0 -0.8356225112747228
H 0.0 0.0 0.0
H 0.0 0.0 1.0641213653562651
3

H 0.0 0.0 -0.8352317801462334
H 0.0 0.0 0.0
H 0.0 0.0 1.0650418702097175
3

H 0.0 0.0 -0.8348410490177441
H 0.0 0.0 0.0
H 0.0 0.0 1.0659623750631702
3

H 0.0 0.0 -0.8344503178892548
H 0.0 0.0 0.0
H 0.0 0.0 1.0668828799166226
3

H 0.0 0.0 -0.8340595867607655
H 0.0 0.0 0.0
H 0.0 0.0 1.067803384770075
3

H 0.0 0.0 -0.8336688556322762
H 0.0 0.0 0.0
H 0.0 0.0 1.0687238896235274
3

H 0.0 0.0 -0.8332781245037869
H 0.0 0.0 0.0
H 0.0 0.0 1.0696443944769798
3

H 0.0 0.0 -0.8328873933752976
H 0.0 0.0 0.0
H 0.0 0.0 1.0705648993304322
3

H 0.0 0.0 -0.8325127867818817
H 0.0 0.0 0.0
H 0.0 0.0 1.071492083184999
3

H 0.0 0.0 -0.8321381801884657
H 0.0 0.0 0.0
H 0.0 0.0 1.0724192670395658
3

H 0.0 0.0 -0.8317635735950498
H 0.0 0.0 0.0
H 0.0 0.0 1.0733464508941326
3

H 0.0 0.0 -0.8313889670016339
H 0.0 0.0 0.0
H 0.0 0.0 1.0742736347486994
3

H 0.0 0.0 -0.831014360408218
H 0.0 0.0 0.0
H 0.0 0.0 1.0752008186032662
3

H 0.0 0.0 -0.830639753814802
H 0.0 0.0 0.0
H 0.0 0.0 1.076128002457833
3

H 0.0 0.0 -0.8302651472213861
H 0.0 0.0 0.0
H 0.0 0.0 1.0770551863123998
3

H 0.0 0.0 -0.8298905406279702
H 0.0 0.0 0.0
H 0.0 0.0 1.0779823701669666
3

H 0.0 0.0 -0.8295159340345543
H 0.0 0.0 0.0
H 0.0 0.0 1.0789095540215334
3

H 0.0 0.0 -0.8291413274411383
H 0.0 0.0 0.0
H 0.0 0.0 1.0798367378761002
3

H 0.0 0.0 -0.8287667208477224
H 0.0 0.0 0.0
H 0.0 0.0 1.080763921730667
3

H 0.0 0.0 -0.8284083528981772
H 0.0 0.0 0.0
H 0.0 0.0 1.0816975021571642
3

H 0.0 0.0 -0.8280499849486319
H 0.0 0.0 0.0
H 0.0 0.0 1.0826310825836614
3

H 0.0 0.0 -0.8276916169990867
H 0.0 0.0 0.0
H 0.0 0.0 1.0835646630101583
3

H 0.0 0.0 -0.8273332490495414
H 0.0 0.0 0.0
H 0.0 0.0 1.0844982434366557
3

H 0.0 0.0 -0.8269748810999962
H 0.0 0.0 0.0
H 0.0 0.0 1.0854318238631528
3

H 0.0 0.0 -0.8266165131504509
H 0.0 0.0 0.0
H 0.0 0.0 1.08636540428965
3

H 0.0 0.0 -0.8262581452009057
H 0.0 0.0 0.0
H 0.0 0.0 1.0872989847161472
3

H 0.0 0.0 -0.8258997772513604
H 0.0 0.0 0.0
H 0.0 0.0 1.0882325651426443
3

H 0.0 0.0 -0.8255414093018152
H 0.0 0.0 0.0
H 0.0 0.0 1.0891661455691417
3

H 0.0 0.0 -0.8251830413522699
H 0.0 0.0 0.0
H 0.0 0.0 1.0900997259956386
3

H 0.0 0.0 -0.8248410212089443
H 0.0 0.0 0.0
H 0.0 0.0 1.0910394186164245
3

H 0.0 0.0 -0.8244990010656187
H 0.0 0.0 0.0
H 0.0 0.0 1.0919791112372104
3

H 0.0 0.0 -0.8241569809222931
H 0.0 0.0 0.0
H 0.0 0.0 1.0929188038579962
3

H 0.0 0.0 -0.8238149607789674
H 0.0 0.0 0.0
H 0.0 0.0 1.093858496478782
3

H 0.0 0.0 -0.8234729406356418
H 0.0 0.0 0.0
H 0.0 0.0 1.094798189099568
3

H 0.0 0.0 -0.8231309204923162
H 0.0 0.0 0.0
H 0.0 0.0 1.0957378817203538
3

H 0.0 0.0 -0.8227889003489905
H 0.0 0.0 0.0
H 0.0 0.0 1.0966775743411397
3

H 0.0 0.0 -0.8224468802056649
H 0.0 0.0 0.0
H 0.0 0.0 1.0976172669619255
3

H 0.0 0.0 -0.8221048600623393
H 0.0 0.0 0.0
H 0.0 0.0 1.0985569595827114
3

H 0.0 0.0 -0.8217628399190137
H 0.0 0.0 0.0
H 0.0 0.0 1.0994966522034972
3

H 0.0 0.0 -0.821420819775688
H 0.0 0.0 0.0
H 0.0 0.0 1.100436344824283
3

H 0.0 0.0 -0.8210787996323624
H 0.0 0.0 0.0
H 0.0 0.0 1.101376037445069
3

H 0.0 0.0 -0.8207532314779052
H 0.0 0.0 0.0
H 0.0 0.0 1.1023215560206685
3

H 0.0 0.0 -0.8204276633234481
H 0.0 0.0 0.0
H 0.0 0.0 1.1032670745962676
3

H 0.0 0.0 -0.8201020951689909
H 0.0 0.0 0.0
H 0.0 0.0 1.104212593171867
3

H 0.0 0.0 -0.8197765270145337
H 0.0 0.0 0.0
H 0.0 0.0 1.1051581117474665
3

H 0.0 0.0 -0.8194509588600766
H 0.0 0.0 0.0
H 0.0 0.0 1.1061036303230656
3

H 0.0 0.0 -0.8191253907056194
H 0.0 0.0 0.0
H 0.0 0.0 1.107049148898665
3

H 0.0 0.0 -0.8187998225511622
H 0.0 0.0 0.0
H 0.0 0.0 1.1079946674742642
3

H 0.0 0.0 -0.8184742543967051
H 0.0 0.0 0.0
H 0.0 0.0 1.1089401860498636
3

H 0.0 0.0 -0.8181486862422479
H 0.0 0.0 0.0
H 0.0 0.0 1.1098857046254629
3

H 0.0 0.0 -0.8178231180877907
H 0.0 0.0 0.0
H 0.0 0.0 1.1108312232010622
3

H 0.0 0.0 -0.8174975499333336
H 0.0 0.0 0.0
H 0.0 0.0 1.1117767417766615
3

H 0.0 0.0 -0.8171885329389587
H 0.0 0.0 0.0
H 0.0 0.0 1.1127277982929566
3

H 0.0 0.0 -0.8168795159445837
H 0.0 0.0 0.0
H 0.0 0.0 1.1136788548092518
3

H 0.0 0.0 -0.8165704989502088
H 0.0 0.0 0.0
H 0.0 0.0 1.114629911325547
3

H 0.0 0.0 -0.8162614819558339
H 0.0 0.0 0.0
H 0.0 0.0 1.115580967841842
3

H 0.0 0.0 -0.815952464961459
H 0.0 0.0 0.0
H 0.0 0.0 1.1165320243581371
3

H 0.0 0.0 -0.8156434479670841
H 0.0 0.0 0.0
H 0.0 0.0 1.1174830808744325
3

H 0.0 0.0 -0.8153344309727092
H 0.0 0.0 0.0
H 0.0 0.0 1.1184341373907274
3

H 0.0 0.0 -0.8150254139783343
H 0.0 0.0 0.0
H 0.0 0.0 1.1193851939070223
3

H 0.0 0.0 -0.8147163969839594
H 0.0 0.0 0.0
H 0.0 0.0 1.1203362504233176
3

H 0.0 0.0 -0.8144073799895845
H 0.0 0.0 0.0
H 0.0 0.0 1.1212873069396128
3

H 0.0 0.0 -0.8140983629952095
H 0.0 0.0 0.0
H 0.0 0.0 1.122238363455908
3

H 0.0 0.0 -0.8137893460008346
H 0.0 0.0 0.0
H 0.0 0.0 1.123189419972203
3

H 0.0 0.0 -0.8134803290064597
H 0.0 0.0 0.0
H 0.0 0.0 1.124140476488498
3

H 0.0 0.0 -0.8131713120120848
H 0.0 0.0 0.0
H 0.0 0.0 1.1250915330047933
3

H 0.0 0.0 -0.8128789403073621
H 0.0 0.0 0.0
H 0.0 0.0 1.1260478377607563
3

H 0.0 0.0 -0.8125865686026393
H 0.0 0.0 0.0
H 0.0 0.0 1.1270041425167194
3

H 0.0 0.0 -0.8122941968979166
H 0.0 0.0 0.0
H 0.0 0.0 1.1279604472726823
3

H 0.0 0.0 -0.8120018251931939
H 0.0 0.0 0.0
H 0.0 0.0 1.1289167520286456
3

H 0.0 0.0 -0.8117094534884711
H 0.0 0.0 0.0
H 0.0 0.0 1.1298730567846087
3

H 0.0 0.0 -0.8114170817837484
H 0.0 0.0 0.0
H 0.0 0.0 1.1308293615405718
3

H 0.0 0.0 -0.8111247100790256
H 0.0 0.0 0.0
H 0.0 0.0 1.1317856662965349
3

H 0.0 0.0 -0.8108323383743029
H 0.0 0.0 0.0
H 0.0 0.0 1.132741971052498
3

H 0.0 0.0 -0.8105399666695802
H 0.0 0.0 0.0
H 0.0 0.0 1.133698275808461
3

H 0.0 0.0 -0.8102475949648574
H 0.0 0.0 0.0
H 0.0 0.0 1.134654580564424
3

H 0.0 0.0 -0.8099552232601347
H 0.0 0.0 0.0
H 0.0 0.0 1.1356108853203872
3

H 0.0 0.0 -0.809662851555412
H 0.0 0.0 0.0
H 0.0 0.0 1.1365671900763503
3

H 0.0 0.0 -0.8093704798506892
H 0.0 0.0 0.0
H 0.0 0.0 1.1375234948323134
3

H 0.0 0.0 -0.8090948424948722
H 0.0 0.0 0.0
H 0.0 0.0 1.1384847565282517
3

H 0.0 0.0 -0.8088192051390551
H 0.0 0.0 0.0
H 0.0 0.0 1.13944601822419
3

H 0.0 0.0 -0.8085435677832381
H 0.0 0.0 0.0
H 0.0 0.0 1.140407279920128
3

H 0.0 0.0 -0.8082679304274211
H 0.0 0.0 0.0
H 0.0 0.0 1.1413685416160664
3

H 0.0 0.0 -0.807992293071604
H 0.0 0.0 0.0
H 0.0 0.0 1.1423298033120046
3

H 0.0 0.0 -0.807716655715787
H 0.0 0.0 0.0
H 0.0 0.0 1.1432910650079429
3

H 0.0 0.0 -0.80744101835997
H 0.0 0.0 0.0
H 0.0 0.0 1.144252326703881
3

H 0.0 0.0 -0.8071653810041529
H 0.0 0.0 0.0
H 0.0 0.0 1.1452135883998191
3

H 0.0 0.0 -0.8068897436483359
H 0.0 0.0 0.0
H 0.0 0.0 1.1461748500957576
3

H 0.0 0.0 -0.8066141062925188
H 0.0 0.0 0.0
H 0.0 0.0 1.1471361117916958
3

H 0.0 0.0 -0.8063384689367018
H 0.0 0.0 0.0
H 0.0 0.0 1.148097373487634
3

H 0.0 0.0 -0.8060628315808848
H 0.0 0.0 0.0
H 0.0 0.0 1.1490586351835723
3

H 0.0 0.0 -0.8057871942250677
H 0.0 0.0 0.0
H 0.0 0.0 1.1500198968795106
3

H 0.0 0.0 -0.8055283751799652
H 0.0 0.0 0.0
H 0.0 0.0 1.1509858227057996
3

H 0.0 0.0 -0.8052695561348627
H 0.0 0.0 0.0
H 0.0 0.0 1.1519517485320887
3

H 0.0 0.0 -0.8050107370897602
H 0.0 0.0 0.0
H 0.0 0.0 1.1529176743583778
3

H 0.0 0.0 -0.8047519180446577
H 0.0 0.0 0.0
H 0.0 0.0 1.1538836001846668
3

H 0.0 0.0 -0.8044930989995552
H 0.0 0.0 0.0
H 0.0 0.0 1.154849526010956
3

H 0.0 0.0 -0.8042342799544527
H 0.0 0.0 0.0
H 0.0 0.0 1.155815451837245
3

H 0.0 0.0 -0.8039754609093502
H 0.0 0.0 0.0
H 0.0 0.0 1.156781377663534
3

H 0.0 0.0 -0.8037166418642477
H 0.0 0.0 0.0
H 0.0 0.0 1.1577473034898231
3

H 0.0 0.0 -0.8034578228191452
H 0.0 0.0 0.0
H 0.0 0.0 1.1587132293161122
3

H 0.0 0.0 -0.8031990037740427
H 0.0 0.0 0.0
H 0.0 0.0 1.1596791551424013
3

H 0.0 0.0 -0.8029401847289402
H 0.0 0.0 0.0
H 0.0 0.0 1.1606450809686903
3

H 0.0 0.0 -0.8026813656838377
H 0.0 0.0 0.0
H 0.0 0.0 1.1616110067949794
3

H 0.0 0.0 -0.8024225466387352
H 0.0 0.0 0.0
H 0.0 0.0 1.1625769326212685
3

H 0.0 0.0 -0.8021637275936327
H 0.0 0.0 0.0
H 0.0 0.0 1.1635428584475576
3

H 0.0 0.0 -0.8019049085485302
H 0.0 0.0 0.0
H 0.0 0.0 1.1645087842738466
3

H 0.0 0.0 -0.8016460895034278
H 0.0 0.0 0.0
H 0.0 0.0 1.1654747101001357
3

H 0.0 0.0 -0.8014041676078281
H 0.0 0.0 0.0
H 0.0 0.0 1.1664450058264118
3

H 0.0 0.0 -0.8011622457122284
H 0.0 0.0 0.0
H 0.0 0.0 1.1674153015526878
3

H 0.0 0.0 -0.8009203238166287
H 0.0 0.0 0.0
H 0.0 0.0 1.1683855972789638
3

H 0.0 0.0 -0.800678401921029
H 0.0 0.0 0.0
H 0.0 0.0 1.16935589300524
3

H 0.0 0.0 -0.8004364800254293
H 0.0 0.0 0.0
H 0.0 0.0 1.170326188731516
3

H 0.0 0.0 -0.8001945581298296
H 0.0 0.0 0.0
H 0.0 0.0 1.171296484457792
3

H 0.0 0.0 -0.79995263623423
H 0.0 0.0 0.0
H 0.0 0.0 1.172266780184068
3

H 0.0 0.0 -0.7997107143386303
H 0.0 0.0 0.0
H 0.0 0.0 1.173237075910344
3

H 0.0 0.0 -0.7994687924430306
H 0.0 0.0 0.0
H 0.0 0.0 1.17420737163662
3

H 0.0 0.0 -0.7992268705474309
H 0.0 0.0 0.0
H 0.0 0.0 1.1751776673628962
3

H 0.0 0.0 -0.7989849486518312
H 0.0 0.0 0.0
H 0.0 0.0 1.1761479630891722
3

H 0.0 0.0 -0.7987430267562315
H 0.0 0.0 0.0
H 0.0 0.0 1.1771182588154483
3

H 0.0 0.0 -0.7985011048606319
H 0.0 0.0 0.0
H 0.0 0.0 1.1780885545417243
3

H 0.0 0.0 -0.7982591829650322
H 0.0 0.0 0.0
H 0.0 0.0 1.1790588502680004
3

H 0.0 0.0 -0.7980172610694325
H 0.0 0.0 0.0
H 0.0 0.0 1.1800291459942764
3

H 0.0 0.0 -0.7977753391738328
H 0.0 0.0 0.0
H 0.0 0.0 1.1809994417205525
3

H 0.0 0.0 -0.797550388119489
H 0.0 0.0 0.0
H 0.0 0.0 1.1819738117853378
3

H 0.0 0.0 -0.7973254370651451
H 0.0 0.0 0.0
H 0.0 0.0 1.182948181850123
3

H 0.0 0.0 -0.7971004860108013
H 0.0 0.0 0.0
H 0.0 0.0 1.1839225519149084
3

H 0.0 0.0 -0.7968755349564575
H 0.0 0.0 0.0
H 0.0 0.0 1.1848969219796937
3

H 0.0 0.0 -0.7966505839021136
H 0.0 0.0 0.0
H 0.0 0.0 1.185871292044479
3

H 0.0 0.0 -0.7964256328477698
H 0.0 0.0 0.0
H 0.0 0.0 1.1868456621092642
3

H 0.0 0.0 -0.796200681793426
H 0.0 0.0 0.0
H 0.0 0.0 1.1878200321740495
3

H 0.0 0.0 -0.7959757307390821
H 0.0 0.0 0.0
H 0.0 0.0 1.1887944022388348
3

H 0.0 0.0 -0.7957507796847383
H 0.0 0.0 0.0
H 0.0 0.0 1.18976877230362
3

H 0.0 0.0 -0.7955258286303944
H 0.0 0.0 0.0
H 0.0 0.0 1.1907431423684054
3

H 0.0 0.0 -0.7953008775760506
H 0.0 0.0 0.0
H 0.0 0.0 1.191717512433191
3

H 0.0 0.0 -0.7950759265217068
H 0.0 0.0 0.0
H 0.0 0.0 1.192691882497976
3

H 0.0 0.0 -0.7948509754673629
H 0.0 0.0 0.0
H 0.0 0.0 1.1936662525627613
3

H 0.0 0.0 -0.7946260244130191
H 0.0 0.0 0.0
H 0.0 0.0 1.1946406226275466
3

H 0.0 0.0 -0.7944010733586753
H 0.0 0.0 0.0
H 0.0 0.0 1.1956149926923318
3

H 0.0 0.0 -0.7941761223043314
H 0.0 0.0 0.0
H 0.0 0.0 1.1965893627571171
3

H 0.0 0.0 -0.7939511712499876
H 0.0 0.0 0.0
H 0.0 0.0 1.1975637328219024
3

H 0.0 0.0 -0.7937432595591698
H 0.0 0.0 0.0
H 0.0 0.0 1.1985418804226362
3

H 0.0 0.0 -0.793535347868352
H 0.0 0.0 0.0
H 0.0 0.0 1.19952002802337
3

H 0.0 0.0 -0.7933274361775342
H 0.0 0.0 0.0
H 0.0 0.0 1.2004981756241038
3

H 0.0 0.0 -0.7931195244867164
H 0.0 0.0 0.0
H 0.0 0.0 1.2014763232248376
3

H 0.0 0.0 -0.7929116127958986
H 0.0 0.0 0.0
H 0.0 0.0 1.202454470825571
3

H 0.0 0.0 -0.7927037011050808
H 0.0 0.0 0.0
H 0.0 0.0 1.2034326184263051
3

H 0.0 0.0 -0.792495789414263
H 0.0 0.0 0.0
H 0.0 0.0 1.204410766027039
3

H 0.0 0.0 -0.7922878777234452
H 0.0 0.0 0.0
H 0.0 0.0 1.205388913627773
3

H 0.0 0.0 -0.7920799660326274
H 0.0 0.0 0.0
H 0.0 0.0 1.2063670612285065
3

H 0.0 0.0 -0.7918720543418096
H 0.0 0.0 0.0
H 0.0 0.0 1.2073452088292402
3

H 0.0 0.0 -0.7916641426509918
H 0.0 0.0 0.0
H 0.0 0.0 1.208323356429974
3

H 0.0 0.0 -0.791456230960174
H 0.0 0.0 0.0
H 0.0 0.0 1.2093015040307078
3

H 0.0 0.0 -0.7912483192693562
H 0.0 0.0 0.0
H 0.0 0.0 1.2102796516314416
3

H 0.0 0.0 -0.7910404075785384
H 0.0 0.0 0.0
H 0.0 0.0 1.2112577992321754
3

H 0.0 0.0 -0.7908324958877206
H 0.0 0.0 0.0
H 0.0 0.0 1.2122359468329091
3

H 0.0 0.0 -0.7906245841969028
H 0.0 0.0 0.0
H 0.0 0.0 1.213214094433643
3

H 0.0 0.0 -0.790416672506085
H 0.0 0.0 0.0
H 0.0 0.0 1.2141922420343767
3

H 0.0 0.0 -0.7902087608152673
H 0.0 0.0 0.0
H 0.0 0.0 1.2151703896351105
3

H 0.0 0.0 -0.7900008491244495
H 0.0 0.0 0.0
H 0.0 0.0 1.2161485372358445
3

H 0.0 0.0 -0.7897929374336317
H 0.0 0.0 0.0
H 0.0 0.0 1.217126684836578
3

H 0.0 0.0 -0.7896021284382552
H 0.0 0.0 0.0
H 0.0 0.0 1.2181083120200258
3

H 0.0 0.0 -0.7894113194428787
H 0.0 0.0 0.0
H 0.0 0.0 1.2190899392034735
3

H 0.0 0.0 -0.7892205104475022
H 0.0 0.0 0.0
H 0.0 0.0 1.2200715663869213
3

H 0.0 0.0 -0.7890297014521257
H 0.0 0.0 0.0
H 0.0 0.0 1.221053193570369
3

H 0.0 0.0 -0.7888388924567492
H 0.0 0.0 0.0
H 0.0 0.0 1.2220348207538168
3

H 0.0 0.0 -0.7886480834613727
H 0.0 0.0 0.0
H 0.0 0.0 1.2230164479372645
3

H 0.0 0.0 -0.7884572744659962
H 0.0 0.0 0.0
H 0.0 0.0 1.2239980751207122
3

H 0.0 0.0 -0.7882664654706197
H 0.0 0.0 0.0
H 0.0 0.0 1.22497970230416
3

H 0.0 0.0 -0.7880756564752432
H 0.0 0.0 0.0
H 0.0 0.0 1.2259613294876075
3

H 0.0 0.0 -0.7878848474798668
H 0.0 0.0 0.0
H 0.0 0.0 1.2269429566710557
3

H 0.0 0.0 -0.7876940384844903
H 0.0 0.0 0.0
H 0.0 0.0 1.2279245838545032
3

H 0.0 0.0 -0.7875032294891138
H 0.0 0.0 0.0
H 0.0 0.0 1.228906211037951
3

H 0.0 0.0 -0.7873124204937373
H 0.0 0.0 0.0
H 0.0 0.0 1.229887838221399
3

H 0.0 0.0 -0.7871216114983608
H 0.0 0.0 0.0
H 0.0 0.0 1.2308694654048464
3

H 0.0 0.0 -0.7869308025029843
H 0.0 0.0 0.0
H 0.0 0.0 1.2318510925882942
3

H 0.0 0.0 -0.7867399935076078
H 0.0 0.0 0.0
H 0.0 0.0 1.232832719771742
3

H 0.0 0.0 -0.7865491845122313
H 0.0 0.0 0.0
H 0.0 0.0 1.2338143469551897
3

H 0.0 0.0 -0.7863583755168548
H 0.0 0.0 0.0
H 0.0 0.0 1.2347959741386374
3

H 0.0 0.0 -0.7861675665214783
H 0.0 0.0 0.0
H 0.0 0.0 1.2357776013220851
3

H 0.0 0.0 -0.7859767575261019
H 0.0 0.0 0.0
H 0.0 0.0 1.2367592285055329
3

H 0.0 0.0 -0.7858031093484349
H 0.0 0.0 0.0
H 0.0 0.0 1.237744036258545
3

H 0.0 0.0 -0.7856294611707679
H 0.0 0.0 0.0
H 0.0 0.0 1.2387288440115571
3

H 0.0 0.0 -0.785455812993101
H 0.0 0.0 0.0
H 0.0 0.0 1.2397136517645693
3

H 0.0 0.0 -0.785282164815434
H 0.0 0.0 0.0
H 0.0 0.0 1.2406984595175814
3

H 0.0 0.0 -0.785108516637767
H 0.0 0.0 0.0
H 0.0 0.0 1.2416832672705935
3

H 0.0 0.0 -0.7849348684601001
H 0.0 0.0 0.0
H 0.0 0.0 1.2426680750236057
3

H 0.0 0.0 -0.7847612202824331
H 0.0 0.0 0.0
H 0.0 0.0 1.2436528827766178
3

H 0.0 0.0 -0.7845875721047662
H 0.0 0.0 0.0
H 0.0 0.0 1.24463769052963
3

H 0.0 0.0 -0.7844139239270992
H 0.0 0.0 0.0
H 0.0 0.0 1.245622498282642
3

H 0.0 0.0 -0.7842402757494322
H 0.0 0.0 0.0
H 0.0 0.0 1.2466073060356542
3

H 0.0 0.0 -0.7840666275717653
H 0.0 0.0 0.0
H 0.0 0.0 1.2475921137886663
3

H 0.0 0.0 -0.7838929793940983
H 0.0 0.0 0.0
H 0.0 0.0 1.2485769215416784
3

H 0.0 0.0 -0.7837193312164313
H 0.0 0.0 0.0
H 0.0 0.0 1.2495617292946906
3

H 0.0 0.0 -0.7835456830387644
H 0.0 0.0 0.0
H 0.0 0.0 1.250546537047703
3

H 0.0 0.0 -0.7833720348610974
H 0.0 0.0 0.0
H 0.0 0.0 1.2515313448007148
3

H 0.0 0.0 -0.7831983866834304
H 0.0 0.0 0.0
H 0.0 0.0 1.252516152553727
3

H 0.0 0.0 -0.7830247385057635
H 0.0 0.0 0.0
H 0.0 0.0 1.253500960306739
3

H 0.0 0.0 -0.7828510903280965
H 0.0 0.0 0.0
H 0.0 0.0 1.2544857680597512
3

H 0.0 0.0 -0.7826774421504296
H 0.0 0.0 0.0
H 0.0 0.0 1.2554705758127631
3

H 0.0 0.0 -0.7825037939727626
H 0.0 0.0 0.0
H 0.0 0.0 1.2564553835657757
3

H 0.0 0.0 -0.7823301457950956
H 0.0 0.0 0.0
H 0.0 0.0 1.2574401913187876
3

H 0.0 0.0 -0.7821564976174287
H 0.0 0.0 0.0
H 0.0 0.0 1.2584249990717995
3

H 0.0 0.0 -0.7820000631523885
H 0.0 0.0 0.0
H 0.0 0.0 1.2594126874123948
3

H 0.0 0.0 -0.7818436286873482
H 0.0 0.0 0.0
H 0.0 0.0 1.2604003757529898
3

H 0.0 0.0 -0.781687194222308
H 0.0 0.0 0.0
H 0.0 0.0 1.2613880640935848
3

H 0.0 0.0 -0.7815307597572678
H 0.0 0.0 0.0
H 0.0 0.0 1.26237575243418
3

H 0.0 0.0 -0.7813743252922276
H 0.0 0.0 0.0
H 0.0 0.0 1.263363440774775
3

H 0.0 0.0 -0.7812178908271874
H 0.0 0.0 0.0
H 0.0 0.0 1.26435112911537
3

H 0.0 0.0 -0.7810614563621472
H 0.0 0.0 0.0
H 0.0 0.0 1.265338817455965
3

H 0.0 0.0 -0.780905021897107
H 0.0 0.0 0.0
H 0.0 0.0 1.26632650579656
3

H 0.0 0.0 -0.7807485874320668
H 0.0 0.0 0.0
H 0.0 0.0 1.267314194137155
3

H 0.0 0.0 -0.7805921529670266
H 0.0 0.0 0.0
H 0.0 0.0 1.26830188247775
3

H 0.0 0.0 -0.7804357185019863
H 0.0 0.0 0.0
H 0.0 0.0 1.2692895708183451
3

H 0.0 0.0 -0.7802792840369461
H 0.0 0.0 0.0
H 0.0 0.0 1.2702772591589402
3

H 0.0 0.0 -0.7801228495719059
H 0.0 0.0 0.0
H 0.0 0.0 1.2712649474995352
3

H 0.0 0.0 -0.7799664151068657
H 0.0 0.0 0.0
H 0.0 0.0 1.2722526358401305
3

H 0.0 0.0 -0.7798099806418255
H 0.0 0.0 0.0
H 0.0 0.0 1.2732403241807253
3

H 0.0 0.0 -0.7796535461767853
H 0.0 0.0 0.0
H 0.0 0.0 1.2742280125213203
3

H 0.0 0.0 -0.7794971117117451
H 0.0 0.0 0.0
H 0.0 0.0 1.2752157008619154
3

H 0.0 0.0 -0.7793406772467049
H 0.0 0.0 0.0
H 0.0 0.0 1.2762033892025104
3

H 0.0 0.0 -0.7791842427816646
H 0.0 0.0 0.0
H 0.0 0.0 1.2771910775431057
3

H 0.0 0.0 -0.7790278083166244
H 0.0 0.0 0.0
H 0.0 0.0 1.2781787658837005
3

H 0.0 0.0 -0.7788713738515842
H 0.0 0.0 0.0
H 0.0 0.0 1.2791664542242955
3

H 0.0 0.0 -0.778714939386544
H 0.0 0.0 0.0
H 0.0 0.0 1.2801541425648906
3

H 0.0 0.0 -0.7785585049215038
H 0.0 0.0 0.0
H 0.0 0.0 1.2811418309054856
3

H 0.0 0.0 -0.7784020704564636
H 0.0 0.0 0.0
H 0.0 0.0 1.2821295192460809
3

H 0.0 0.0 -0.7782456359914234
H 0.0 0.0 0.0
H 0.0 0.0 1.2831172075866757
3

H 0.0 0.0 -0.7780892015263832
H 0.0 0.0 0.0
H 0.0 0.0 1.2841048959272707
3

H 0.0 0.0 -0.7779500284254232
H 0.0 0.0 0.0
H 0.0 0.0 1.2850951639960122
3

H 0.0 0.0 -0.7778108553244631
H 0.0 0.0 0.0
H 0.0 0.0 1.2860854320647537
3

H 0.0 0.0 -0.7776716822235031
H 0.0 0.0 0.0
H 0.0 0.0 1.2870757001334951
3

H 0.0 0.0 -0.7775325091225431
H 0.0 0.0 0.0
H 0.0 0.0 1.2880659682022366
3

H 0.0 0.0 -0.7773933360215831
H 0.0 0.0 0.0
H 0.0 0.0 1.289056236270978
3

H 0.0 0.0 -0.7772541629206231
H 0.0 0.0 0.0
H 0.0 0.0 1.2900465043397196
3

H 0.0 0.0 -0.7771149898196631
H 0.0 0.0 0.0
H 0.0 0.0 1.291036772408461
3

H 0.0 0.0 -0.7769758167187031
H 0.0 0.0 0.0
H 0.0 0.0 1.2920270404772023
3

H 0.0 0.0 -0.7768366436177431
H 0.0 0.0 0.0
H 0.0 0.0 1.293017308545944
3

H 0.0 0.0 -0.7766974705167831
H 0.0 0.0 0.0
H 0.0 0.0 1.2940075766146857
3

H 0.0 0.0 -0.776558297415823
H 0.0 0.0 0.0
H 0.0 0.0 1.294997844683427
3

H 0.0 0.0 -0.776419124314863
H 0.0 0.0 0.0
H 0.0 0.0 1.2959881127521684
3

H 0.0 0.0 -0.776279951213903
H 0.0 0.0 0.0
H 0.0 0.0 1.29697838082091
3

H 0.0 0.0 -0.776140778112943
H 0.0 0.0 0.0
H 0.0 0.0 1.2979686488896514
3

H 0.0 0.0 -0.776001605011983
H 0.0 0.0 0.0
H 0.0 0.0 1.2989589169583928
3

H 0.0 0.0 -0.775862431911023
H 0.0 0.0 0.0
H 0.0 0.0 1.2999491850271343
3

H 0.0 0.0 -0.775723258810063
H 0.0 0.0 0.0
H 0.0 0.0 1.3009394530958758
3

H 0.0 0.0 -0.775584085709103
H 0.0 0.0 0.0
H 0.0 0.0 1.3019297211646172
3

H 0.0 0.0 -0.775444912608143
H 0.0 0.0 0.0
H 0.0 0.0 1.3029199892333587
3

H 0.0 0.0 -0.775305739507183
H 0.0 0.0 0.0
H 0.0 0.0 1.3039102573021002
3

H 0.0 0.0 -0.775166566406223
H 0.0 0.0 0.0
H 0.0 0.0 1.3049005253708417
3

H 0.0 0.0 -0.7750273933052629
H 0.0 0.0 0.0
H 0.0 0.0 1.3058907934395831
3

H 0.0 0.0 -0.7748882202043029
H 0.0 0.0 0.0
H 0.0 0.0 1.3068810615083246
3

H 0.0 0.0 -0.7747490471033429
H 0.0 0.0 0.0
H 0.0 0.0 1.307871329577066
3

H 0.0 0.0 -0.7746098740023829
H 0.0 0.0 0.0
H 0.0 0.0 1.3088615976458076
3

H 0.0 0.0 -0.7744707009014229
H 0.0 0.0 0.0
H 0.0 0.0 1.309851865714549
3

H 0.0 0.0 -0.7743315278004629
H 0.0 0.0 0.0
H 0.0 0.0 1.3108421337832905
3

H 0.0 0.0 -0.7741923546995029
H 0.0 0.0 0.0
H 0.0 0.0 1.311832401852032
3

H 0.0 0.0 -0.7740531815985429
H 0.0 0.0 0.0
H 0.0 0.0 1.3128226699207737
3

H 0.0 0.0 -0.7739313122551377
H 0.0 0.0 0.0
H 0.0 0.0 1.3138152160724148
3

H 0.0 0.0 -0.7738094429117325
H 0.0 0.0 0.0
H 0.0 0.0 1.3148077622240562
3

H 0.0 0.0 -0.7736875735683273
H 0.0 0.0 0.0
H 0.0 0.0 1.3158003083756975
3

H 0.0 0.0 -0.7735657042249221
H 0.0 0.0 0.0
H 0.0 0.0 1.3167928545273389
3

H 0.0 0.0 -0.7734438348815169
H 0.0 0.0 0.0
H 0.0 0.0 1.3177854006789802
3

H 0.0 0.0 -0.7733219655381117
H 0.0 0.0 0.0
H 0.0 0.0 1.3187779468306216
3

H 0.0 0.0 -0.7732000961947065
H 0.0 0.0 0.0
H 0.0 0.0 1.319770492982263
3

H 0.0 0.0 -0.7730782268513013
H 0.0 0.0 0.0
H 0.0 0.0 1.3207630391339042
3

H 0.0 0.0 -0.7729563575078962
H 0.0 0.0 0.0
H 0.0 0.0 1.3217555852855456
3

H 0.0 0.0 -0.772834488164491
H 0.0 0.0 0.0
H 0.0 0.0 1.322748131437187
3

H 0.0 0.0 -0.7727126188210858
H 0.0 0.0 0.0
H 0.0 0.0 1.3237406775888283
3

H 0.0 0.0 -0.7725907494776806
H 0.0 0.0 0.0
H 0.0 0.0 1.3247332237404696
3

H 0.0 0.0 -0.7724688801342754
H 0.0 0.0 0.0
H 0.0 0.0 1.325725769892111
3

H 0.0 0.0 -0.7723470107908702
H 0.0 0.0 0.0
H 0.0 0.0 1.3267183160437523
3

H 0.0 0.0 -0.772225141447465
H 0.0 0.0 0.0
H 0.0 0.0 1.3277108621953937
3

H 0.0 0.0 -0.7721032721040598
H 0.0 0.0 0.0
H 0.0 0.0 1.328703408347035
3

H 0.0 0.0 -0.7719814027606546
H 0.0 0.0 0.0
H 0.0 0.0 1.3296959544986764
3

H 0.0 0.0 -0.7718595334172494
H 0.0 0.0 0.0
H 0.0 0.0 1.3306885006503175
3

H 0.0 0.0 -0.7717376640738443
H 0.0 0.0 0.0
H 0.0 0.0 1.331681046801959
3

H 0.0 0.0 -0.7716157947304391
H 0.0 0.0 0.0
H 0.0 0.0 1.3326735929536004
3

H 0.0 0.0 -0.7714939253870339
H 0.0 0.0 0.0
H 0.0 0.0 1.3336661391052418
3

H 0.0 0.0 -0.7713720560436287
H 0.0 0.0 0.0
H 0.0 0.0 1.3346586852568831
3

H 0.0 0.0 -0.7712501867002235
H 0.0 0.0 0.0
H 0.0 0.0 1.3356512314085245
3

H 0.0 0.0 -0.7711283173568183
H 0.0 0.0 0.0
H 0.0 0.0 1.3366437775601658
3

H 0.0 0.0 -0.7710064480134131
H 0.0 0.0 0.0
H 0.0 0.0 1.3376363237118072
3

H 0.0 0.0 -0.7708845786700079
H 0.0 0.0 0.0
H 0.0 0.0 1.3386288698634483
3

H 0.0 0.0 -0.7707627093266027
H 0.0 0.0 0.0
H 0.0 0.0 1.33962141601509
3

H 0.0 0.0 -0.7706408399831975
H 0.0 0.0 0.0
H 0.0 0.0 1.3406139621667312
3

H 0.0 0.0 -0.7705189706397924
H 0.0 0.0 0.0
H 0.0 0.0 1.3416065083183726
3

H 0.0 0.0 -0.7703971012963872
H 0.0 0.0 0.0
H 0.0 0.0 1.342599054470014
3

H 0.0 0.0 -0.770275231952982
H 0.0 0.0 0.0
H 0.0 0.0 1.3435916006216553
3

H 0.0 0.0 -0.7701533626095768
H 0.0 0.0 0.0
H 0.0 0.0 1.3445841467732966
3

H 0.0 0.0 -0.7700314932661716
H 0.0 0.0 0.0
H 0.0 0.0 1.345576692924938
3

H 0.0 0.0 -0.7699096239227664
H 0.0 0.0 0.0
H 0.0 0.0 1.346569239076579
3

H 0.0 0.0 -0.7698050954594987
H 0.0 0.0 0.0
H 0.0 0.0 1.3475637609719475
3

H 0.0 0.0 -0.769700566996231
H 0.0 0.0 0.0
H 0.0 0.0 1.3485582828673155
3

H 0.0 0.0 -0.7695960385329633
H 0.0 0.0 0.0
H 0.0 0.0 1.349552804762684
3

H 0.0 0.0 -0.7694915100696956
H 0.0 0.0 0.0
H 0.0 0.0 1.350547326658052
3

H 0.0 0.0 -0.7693869816064279
H 0.0 0.0 0.0
H 0.0 0.0 1.3515418485534203
3

H 0.0 0.0 -0.7692824531431602
H 0.0 0.0 0.0
H 0.0 0.0 1.3525363704487885
3

H 0.0 0.0 -0.7691779246798925
H 0.0 0.0 0.0
H 0.0 0.0 1.353530892344157
3

H 0.0 0.0 -0.7690733962166248
H 0.0 0.0 0.0
H 0.0 0.0 1.3545254142395249
3

H 0.0 0.0 -0.7689688677533572
H 0.0 0.0 0.0
H 0.0 0.0 1.355519936134893
3

H 0.0 0.0 -0.7688643392900895
H 0.0 0.0 0.0
H 0.0 0.0 1.3565144580302613
3

H 0.0 0.0 -0.7687598108268218
H 0.0 0.0 0.0
H 0.0 0.0 1.3575089799256297
3

H 0.0 0.0 -0.7686552823635541
H 0.0 0.0 0.0
H 0.0 0.0 1.3585035018209977
3

H 0.0 0.0 -0.7685507539002864
H 0.0 0.0 0.0
H 0.0 0.0 1.359498023716366
3

H 0.0 0.0 -0.7684462254370187
H 0.0 0.0 0.0
H 0.0 0.0 1.360492545611734
3

H 0.0 0.0 -0.768341696973751
H 0.0 0.0 0.0
H 0.0 0.0 1.3614870675071022
3

H 0.0 0.0 -0.7682371685104833
H 0.0 0.0 0.0
H 0.0 0.0 1.3624815894024704
3

H 0.0 0.0 -0.7681326400472156
H 0.0 0.0 0.0
H 0.0 0.0 1.3634761112978386
3

H 0.0 0.0 -0.7680281115839479
H 0.0 0.0 0.0
H 0.0 0.0 1.3644706331932068
3

H 0.0 0.0 -0.7679235831206802
H 0.0 0.0 0.0
H 0.0 0.0 1.365465155088575
3

H 0.0 0.0 -0.7678190546574125
H 0.0 0.0 0.0
H 0.0 0.0 1.3664596769839432
3

H 0.0 0.0 -0.7677145261941448
H 0.0 0.0 0.0
H 0.0 0.0 1.3674541988793114
3

H 0.0 0.0 -0.7676099977308771
H 0.0 0.0 0.0
H 0.0 0.0 1.3684487207746796
3

H 0.0 0.0 -0.7675054692676094
H 0.0 0.0 0.0
H 0.0 0.0 1.3694432426700478
3

H 0.0 0.0 -0.7674009408043417
H 0.0 0.0 0.0
H 0.0 0.0 1.370437764565416
3

H 0.0 0.0 -0.767296412341074
H 0.0 0.0 0.0
H 0.0 0.0 1.3714322864607842
3

H 0.0 0.0 -0.7671918838778063
H 0.0 0.0 0.0
H 0.0 0.0 1.3724268083561524
3

H 0.0 0.0 -0.7670873554145387
H 0.0 0.0 0.0
H 0.0 0.0 1.3734213302515206
3

H 0.0 0.0 -0.766982826951271
H 0.0 0.0 0.0
H 0.0 0.0 1.3744158521468888
3

H 0.0 0.0 -0.7668782984880033
H 0.0 0.0 0.0
H 0.0 0.0 1.375410374042257
3

H 0.0 0.0 -0.7667737700247356
H 0.0 0.0 0.0
H 0.0 0.0 1.3764048959376252
3

H 0.0 0.0 -0.7666692415614679
H 0.0 0.0 0.0
H 0.0 0.0 1.3773994178329934
3

H 0.0 0.0 -0.7665647130982002
H 0.0 0.0 0.0
H 0.0 0.0 1.3783939397283616
3

H 0.0 0.0 -0.7664601846349325
H 0.0 0.0 0.0
H 0.0 0.0 1.3793884616237295
3

H 0.0 0.0 -0.7663556561716648
H 0.0 0.0 0.0
H 0.0 0.0 1.380382983519098
3

H 0.0 0.0 -0.7662511277083971
H 0.0 0.0 0.0
H 0.0 0.0 1.381377505414466
3

H 0.0 0.0 -0.7661465992451294
H 0.0 0.0 0.0
H 0.0 0.0 1.3823720273098343
3

H 0.0 0.0 -0.7660420707818617
H 0.0 0.0 0.0
H 0.0 0.0 1.3833665492052023
3

H 0.0 0.0 -0.765937542318594
H 0.0 0.0 0.0
H 0.0 0.0 1.3843610711005707
3

H 0.0 0.0 -0.7658330138553263
H 0.0 0.0 0.0
H 0.0 0.0 1.385355592995939
3

H 0.0 0.0 -0.7657458581125787
H 0.0 0.0 0.0
H 0.0 0.0 1.3863517876940306
3

H 0.0 0.0 -0.765658702369831
H 0.0 0.0 0.0
H 0.0 0.0 1.3873479823921222
3

H 0.0 0.0 -0.7655715466270834
H 0.0 0.0 0.0
H 0.0 0.0 1.3883441770902138
3

H 0.0 0.0 -0.7654843908843357
H 0.0 0.0 0.0
H 0.0 0.0 1.3893403717883055
3

H 0.0 0.0 -0.765379862421068
H 0.0 0.0 0.0
H 0.0 0.0 1.3903348936836737
3

H 0.0 0.0 -0.7652927066783204
H 0.0 0.0 0.0
H 0.0 0.0 1.3913310883817651
3

H 0.0 0.0 -0.7652055509355727
H 0.0 0.0 0.0
H 0.0 0.0 1.392327283079857
3

H 0.0 0.0 -0.7651183951928251
H 0.0 0.0 0.0
H 0.0 0.0 1.3933234777779486
3

H 0.0 0.0 -0.7650312394500774
H 0.0 0.0 0.0
H 0.0 0.0 1.3943196724760405
3

H 0.0 0.0 -0.7649440837073298
H 0.0 0.0 0.0
H 0.0 0.0 1.395315867174132
3

H 0.0 0.0 -0.7648569279645822
H 0.0 0.0 0.0
H 0.0 0.0 1.3963120618722236
3

H 0.0 0.0 -0.7647697722218345
H 0.0 0.0 0.0
H 0.0 0.0 1.3973082565703152
3

H 0.0 0.0 -0.7646826164790869
H 0.0 0.0 0.0
H 0.0 0.0 1.3983044512684069
3

H 0.0 0.0 -0.7645954607363392
H 0.0 0.0 0.0
H 0.0 0.0 1.3993006459664985
3

H 0.0 0.0 -0.7645083049935916
H 0.0 0.0 0.0
H 0.0 0.0 1.40029684066459
3

H 0.0 0.0 -0.7644211492508439
H 0.0 0.0 0.0
H 0.0 0.0 1.4012930353626818
3

H 0.0 0.0 -0.7643339935080963
H 0.0 0.0 0.0
H 0.0 0.0 1.4022892300607734
3

H 0.0 0.0 -0.7642468377653486
H 0.0 0.0 0.0
H 0.0 0.0 1.403285424758865
3

H 0.0 0.0 -0.764159682022601
H 0.0 0.0 0.0
H 0.0 0.0 1.4042816194569567
3

H 0.0 0.0 -0.7640725262798533
H 0.0 0.0 0.0
H 0.0 0.0 1.4052778141550484
3

H 0.0 0.0 -0.7639853705371057
H 0.0 0.0 0.0
H 0.0 0.0 1.40627400885314
3

H 0.0 0.0 -0.763898214794358
H 0.0 0.0 0.0
H 0.0 0.0 1.4072702035512317
3

H 0.0 0.0 -0.7638110590516104
H 0.0 0.0 0.0
H 0.0 0.0 1.408266398249323
3

H 0.0 0.0 -0.7637239033088628
H 0.0 0.0 0.0
H 0.0 0.0 1.409262592947415
3

H 0.0 0.0 -0.7636367475661151
H 0.0 0.0 0.0
H 0.0 0.0 1.4102587876455066
3

H 0.0 0.0 -0.7635495918233675
H 0.0 0.0 0.0
H 0.0 0.0 1.4112549823435985
3

H 0.0 0.0 -0.7634624360806198
H 0.0 0.0 0.0
H 0.0 0.0 1.41225117704169
3

H 0.0 0.0 -0.7633752803378722
H 0.0 0.0 0.0
H 0.0 0.0 1.4132473717397815
3

H 0.0 0.0 -0.7632881245951245
H 0.0 0.0 0.0
H 0.0 0.0 1.4142435664378732
3

H 0.0 0.0 -0.7632009688523769
H 0.0 0.0 0.0
H 0.0 0.0 1.4152397611359648
3

H 0.0 0.0 -0.7631138131096292
H 0.0 0.0 0.0
H 0.0 0.0 1.4162359558340565
3

H 0.0 0.0 -0.7630266573668816
H 0.0 0.0 0.0
H 0.0 0.0 1.417232150532148
3

H 0.0 0.0 -0.7629395016241339
H 0.0 0.0 0.0
H 0.0 0.0 1.4182283452302398
3

H 0.0 0.0 -0.7628523458813863
H 0.0 0.0 0.0
H 0.0 0.0 1.4192245399283314
3

H 0.0 0.0 -0.7627651901386386
H 0.0 0.0 0.0
H 0.0 0.0 1.420220734626423
3

H 0.0 0.0 -0.762678034395891
H 0.0 0.0 0.0
H 0.0 0.0 1.4212169293245147
3

H 0.0 0.0 -0.7625908786531433
H 0.0 0.0 0.0
H 0.0 0.0 1.4222131240226064
3

H 0.0 0.0 -0.7625037229103957
H 0.0 0.0 0.0
H 0.0 0.0 1.423209318720698
3

H 0.0 0.0 -0.762416567167648
H 0.0 0.0 0.0
H 0.0 0.0 1.4242055134187896
3

H 0.0 0.0 -0.7623294114249004
H 0.0 0.0 0.0
H 0.0 0.0 1.4252017081168813
3

H 0.0 0.0 -0.7622422556821528
H 0.0 0.0 0.0
H 0.0 0.0 1.426197902814973
3

H 0.0 0.0 -0.7621550999394051
H 0.0 0.0 0.0
H 0.0 0.0 1.4271940975130646
3

H 0.0 0.0 -0.7620679441966575
H 0.0 0.0 0.0
H 0.0 0.0 1.4281902922111562
3

H 0.0 0.0 -0.7619807884539098
H 0.0 0.0 0.0
H 0.0 0.0 1.429186486909248
3

H 0.0 0.0 -0.7618936327111622
H 0.0 0.0 0.0
H 0.0 0.0 1.4301826816073395
3

H 0.0 0.0 -0.7618064769684145
H 0.0 0.0 0.0
H 0.0 0.0 1.4311788763054312
3

H 0.0 0.0 -0.7617193212256669
H 0.0 0.0 0.0
H 0.0 0.0 1.4321750710035228
3

H 0.0 0.0 -0.7616495647519228
H 0.0 0.0 0.0
H 0.0 0.0 1.4331726350537826
3

H 0.0 0.0 -0.7615798082781787
H 0.0 0.0 0.0
H 0.0 0.0 1.4341701991040423
3

H 0.0 0.0 -0.7614926525354311
H 0.0 0.0 0.0
H 0.0 0.0 1.435166393802134
3

H 0.0 0.0 -0.761422896061687
H 0.0 0.0 0.0
H 0.0 0.0 1.4361639578523937
3

H 0.0 0.0 -0.7613531395879429
H 0.0 0.0 0.0
H 0.0 0.0 1.4371615219026534
3

H 0.0 0.0 -0.7612833831141989
H 0.0 0.0 0.0
H 0.0 0.0 1.4381590859529132
3

H 0.0 0.0 -0.7611962273714512
H 0.0 0.0 0.0
H 0.0 0.0 1.4391552806510048
3

H 0.0 0.0 -0.7611264708977071
H 0.0 0.0 0.0
H 0.0 0.0 1.4401528447012646
3

H 0.0 0.0 -0.761056714423963
H 0.0 0.0 0.0
H 0.0 0.0 1.4411504087515243
3

H 0.0 0.0 -0.760986957950219
H 0.0 0.0 0.0
H 0.0 0.0 1.442147972801784
3

H 0.0 0.0 -0.7609172014764749
H 0.0 0.0 0.0
H 0.0 0.0 1.4431455368520438
3

H 0.0 0.0 -0.7608300457337273
H 0.0 0.0 0.0
H 0.0 0.0 1.4441417315501357
3

H 0.0 0.0 -0.7607602892599832
H 0.0 0.0 0.0
H 0.0 0.0 1.4451392956003952
3

H 0.0 0.0 -0.7606905327862391
H 0.0 0.0 0.0
H 0.0 0.0 1.446136859650655
3

H 0.0 0.0 -0.760620776312495
H 0.0 0.0 0.0
H 0.0 0.0 1.4471344237009147
3

H 0.0 0.0 -0.760551019838751
H 0.0 0.0 0.0
H 0.0 0.0 1.4481319877511745
3

H 0.0 0.0 -0.7604812633650069
H 0.0 0.0 0.0
H 0.0 0.0 1.4491295518014342
3

H 0.0 0.0 -0.7604115068912628
H 0.0 0.0 0.0
H 0.0 0.0 1.450127115851694
3

H 0.0 0.0 -0.7603417504175187
H 0.0 0.0 0.0
H 0.0 0.0 1.4511246799019537
3

H 0.0 0.0 -0.7602719939437746
H 0.0 0.0 0.0
H 0.0 0.0 1.4521222439522137
3

H 0.0 0.0 -0.7602022374700306
H 0.0 0.0 0.0
H 0.0 0.0 1.4531198080024732
3

H 0.0 0.0 -0.7601324809962865
H 0.0 0.0 0.0
H 0.0 0.0 1.454117372052733
3

H 0.0 0.0 -0.7600627245225424
H 0.0 0.0 0.0
H 0.0 0.0 1.4551149361029927
3

H 0.0 0.0 -0.7599929680487983
H 0.0 0.0 0.0
H 0.0 0.0 1.4561125001532524
3

H 0.0 0.0 -0.7599232115750543
H 0.0 0.0 0.0
H 0.0 0.0 1.4571100642035122
3

H 0.0 0.0 -0.7598534551013102
H 0.0 0.0 0.0
H 0.0 0.0 1.458107628253772
3

H 0.0 0.0 -0.7597836986275661
H 0.0 0.0 0.0
H 0.0 0.0 1.4591051923040317
3

H 0.0 0.0 -0.759713942153822
H 0.0 0.0 0.0
H 0.0 0.0 1.4601027563542914
3

H 0.0 0.0 -0.759644185680078
H 0.0 0.0 0.0
H 0.0 0.0 1.4611003204045512
3

H 0.0 0.0 -0.7595744292063339
H 0.0 0.0 0.0
H 0.0 0.0 1.462097884454811
3

H 0.0 0.0 -0.7595046727325898
H 0.0 0.0 0.0
H 0.0 0.0 1.463095448505071
3

H 0.0 0.0 -0.7594349162588457
H 0.0 0.0 0.0
H 0.0 0.0 1.4640930125553304
3

H 0.0 0.0 -0.7593651597851017
H 0.0 0.0 0.0
H 0.0 0.0 1.4650905766055902
3

H 0.0 0.0 -0.7592954033113576
H 0.0 0.0 0.0
H 0.0 0.0 1.46608814065585
3

H 0.0 0.0 -0.7592256468376135
H 0.0 0.0 0.0
H 0.0 0.0 1.4670857047061097
3

H 0.0 0.0 -0.7591558903638694
H 0.0 0.0 0.0
H 0.0 0.0 1.4680832687563694
3

H 0.0 0.0 -0.7590861338901254
H 0.0 0.0 0.0
H 0.0 0.0 1.4690808328066292
3

H 0.0 0.0 -0.7590163774163813
H 0.0 0.0 0.0
H 0.0 0.0 1.470078396856889
3

H 0.0 0.0 -0.7589466209426372
H 0.0 0.0 0.0
H 0.0 0.0 1.4710759609071486
3

H 0.0 0.0 -0.7588768644688931
H 0.0 0.0 0.0
H 0.0 0.0 1.4720735249574084
3

H 0.0 0.0 -0.758807107995149
H 0.0 0.0 0.0
H 0.0 0.0 1.473071089007668
3

H 0.0 0.0 -0.758737351521405
H 0.0 0.0 0.0
H 0.0 0.0 1.474068653057928
3

H 0.0 0.0 -0.7586675950476609
H 0.0 0.0 0.0
H 0.0 0.0 1.4750662171081876
3

H 0.0 0.0 -0.7585978385739168
H 0.0 0.0 0.0
H 0.0 0.0 1.4760637811584474
3

H 0.0 0.0 -0.7585280821001728
H 0.0 0.0 0.0
H 0.0 0.0 1.4770613452087071
3

H 0.0 0.0 -0.7584583256264287
H 0.0 0.0 0.0
H 0.0 0.0 1.4780589092589669
3

H 0.0 0.0 -0.7583885691526846
H 0.0 0.0 0.0
H 0.0 0.0 1.4790564733092266
3

H 0.0 0.0 -0.7583188126789405
H 0.0 0.0 0.0
H 0.0 0.0 1.4800540373594864
3

H 0.0 0.0 -0.7582490562051964
H 0.0 0.0 0.0
H 0.0 0.0 1.481051601409746
3

H 0.0 0.0 -0.7581792997314524
H 0.0 0.0 0.0
H 0.0 0.0 1.482049165460006
3

H 0.0 0.0 -0.7581095432577083
H 0.0 0.0 0.0
H 0.0 0.0 1.4830467295102656
3

H 0.0 0.0 -0.7580397867839642
H 0.0 0.0 0.0
H 0.0 0.0 1.4840442935605254
3

H 0.0 0.0 -0.7579700303102201
H 0.0 0.0 0.0
H 0.0 0.0 1.485041857610785
3

H 0.0 0.0 -0.7579002738364761
H 0.0 0.0 0.0
H 0.0 0.0 1.4860394216610449
3

H 0.0 0.0 -0.757830517362732
H 0.0 0.0 0.0
H 0.0 0.0 1.4870369857113046
3

H 0.0 0.0 -0.7577607608889879
H 0.0 0.0 0.0
H 0.0 0.0 1.4880345497615644
3

H 0.0 0.0 -0.7576910044152438
H 0.0 0.0 0.0
H 0.0 0.0 1.489032113811824
3

H 0.0 0.0 -0.7576212479414998
H 0.0 0.0 0.0
H 0.0 0.0 1.4900296778620838
3

H 0.0 0.0 -0.7575514914677557
H 0.0 0.0 0.0
H 0.0 0.0 1.4910272419123436
3

H 0.0 0.0 -0.7574991555115127
H 0.0 0.0 0.0
H 0.0 0.0 1.4920258714470982
3

H 0.0 0.0 -0.7574293990377686
H 0.0 0.0 0.0
H 0.0 0.0 1.493023435497358
3

H 0.0 0.0 -0.7573770630815256
H 0.0 0.0 0.0
H 0.0 0.0 1.4940220650321123
3

H 0.0 0.0 -0.7573073066077816
H 0.0 0.0 0.0
H 0.0 0.0 1.4950196290823723
3

H 0.0 0.0 -0.7572549706515386
H 0.0 0.0 0.0
H 0.0 0.0 1.496018258617127
3

H 0.0 0.0 -0.7572026346952956
H 0.0 0.0 0.0
H 0.0 0.0 1.4970168881518815
3

H 0.0 0.0 -0.7571328782215515
H 0.0 0.0 0.0
H 0.0 0.0 1.4980144522021412
3

H 0.0 0.0 -0.7570805422653085
H 0.0 0.0 0.0
H 0.0 0.0 1.4990130817368958
3

H 0.0 0.0 -0.7570282063090655
H 0.0 0.0 0.0
H 0.0 0.0 1.5000117112716504
3

H 0.0 0.0 -0.7569584498353215
H 0.0 0.0 0.0
H 0.0 0.0 1.5010092753219102
3

H 0.0 0.0 -0.7569061138790785
H 0.0 0.0 0.0
H 0.0 0.0 1.5020079048566648
3

H 0.0 0.0 -0.7568537779228355
H 0.0 0.0 0.0
H 0.0 0.0 1.5030065343914194
3

H 0.0 0.0 -0.7568014419665925
H 0.0 0.0 0.0
H 0.0 0.0 1.504005163926174
3

H 0.0 0.0 -0.7567316854928484
H 0.0 0.0 0.0
H 0.0 0.0 1.5050027279764338
3

H 0.0 0.0 -0.7566793495366054
H 0.0 0.0 0.0
H 0.0 0.0 1.5060013575111884
3

H 0.0 0.0 -0.7566270135803624
H 0.0 0.0 0.0
H 0.0 0.0 1.506999987045943
3

H 0.0 0.0 -0.7565746776241195
H 0.0 0.0 0.0
H 0.0 0.0 1.5079986165806976
3

H 0.0 0.0 -0.7565049211503754
H 0.0 0.0 0.0
H 0.0 0.0 1.5089961806309573
3

H 0.0 0.0 -0.7564525851941324
H 0.0 0.0 0.0
H 0.0 0.0 1.509994810165712
3

H 0.0 0.0 -0.7564002492378894
H 0.0 0.0 0.0
H 0.0 0.0 1.5109934397004663
3

H 0.0 0.0 -0.7563479132816464
H 0.0 0.0 0.0
H 0.0 0.0 1.5119920692352211
3

H 0.0 0.0 -0.7562955773254034
H 0.0 0.0 0.0
H 0.0 0.0 1.5129906987699755
3

H 0.0 0.0 -0.7562432413691604
H 0.0 0.0 0.0
H 0.0 0.0 1.5139893283047303
3

H 0.0 0.0 -0.7561909054129174
H 0.0 0.0 0.0
H 0.0 0.0 1.514987957839485
3

H 0.0 0.0 -0.7561211489391734
H 0.0 0.0 0.0
H 0.0 0.0 1.515985521889745
3

H 0.0 0.0 -0.7560688129829304
H 0.0 0.0 0.0
H 0.0 0.0 1.5169841514244993
3

H 0.0 0.0 -0.7560164770266874
H 0.0 0.0 0.0
H 0.0 0.0 1.517982780959254
3

H 0.0 0.0 -0.7559641410704444
H 0.0 0.0 0.0
H 0.0 0.0 1.5189814104940085
3

H 0.0 0.0 -0.7559118051142014
H 0.0 0.0 0.0
H 0.0 0.0 1.519980040028763
3

H 0.0 0.0 -0.7558594691579584
H 0.0 0.0 0.0
H 0.0 0.0 1.5209786695635177
3

H 0.0 0.0 -0.7558071332017154
H 0.0 0.0 0.0
H 0.0 0.0 1.5219772990982725
3

H 0.0 0.0 -0.7557547972454725
H 0.0 0.0 0.0
H 0.0 0.0 1.5229759286330269
3

H 0.0 0.0 -0.7557024612892295
H 0.0 0.0 0.0
H 0.0 0.0 1.5239745581677815
3

H 0.0 0.0 -0.7556501253329865
H 0.0 0.0 0.0
H 0.0 0.0 1.524973187702536
3

H 0.0 0.0 -0.7555977893767435
H 0.0 0.0 0.0
H 0.0 0.0 1.5259718172372907
3

H 0.0 0.0 -0.7555280329029994
H 0.0 0.0 0.0
H 0.0 0.0 1.5269693812875504
3

H 0.0 0.0 -0.7554756969467564
H 0.0 0.0 0.0
H 0.0 0.0 1.527968010822305
3

H 0.0 0.0 -0.7554233609905134
H 0.0 0.0 0.0
H 0.0 0.0 1.5289666403570596
3

H 0.0 0.0 -0.7553710250342704
H 0.0 0.0 0.0
H 0.0 0.0 1.5299652698918145
3

H 0.0 0.0 -0.7553186890780275
H 0.0 0.0 0.0
H 0.0 0.0 1.5309638994265689
3

H 0.0 0.0 -0.7552663531217845
H 0.0 0.0 0.0
H 0.0 0.0 1.5319625289613237
3

H 0.0 0.0 -0.7552140171655415
H 0.0 0.0 0.0
H 0.0 0.0 1.532961158496078
3

H 0.0 0.0 -0.7551616812092985
H 0.0 0.0 0.0
H 0.0 0.0 1.5339597880308329
3

H 0.0 0.0 -0.7551093452530555
H 0.0 0.0 0.0
H 0.0 0.0 1.5349584175655873
3

H 0.0 0.0 -0.7550570092968125
H 0.0 0.0 0.0
H 0.0 0.0 1.535957047100342
3

H 0.0 0.0 -0.7550046733405695
H 0.0 0.0 0.0
H 0.0 0.0 1.5369556766350965
3

H 0.0 0.0 -0.7549523373843265
H 0.0 0.0 0.0
H 0.0 0.0 1.537954306169851
3

H 0.0 0.0 -0.7549000014280836
H 0.0 0.0 0.0
H 0.0 0.0 1.5389529357046057
3

H 0.0 0.0 -0.7548476654718406
H 0.0 0.0 0.0
H 0.0 0.0 1.5399515652393605
3

H 0.0 0.0 -0.7547953295155976
H 0.0 0.0 0.0
H 0.0 0.0 1.5409501947741149
3

H 0.0 0.0 -0.7547429935593546
H 0.0 0.0 0.0
H 0.0 0.0 1.5419488243088697
3

H 0.0 0.0 -0.7546906576031116
H 0.0 0.0 0.0
H 0.0 0.0 1.542947453843624
3

H 0.0 0.0 -0.7546383216468686
H 0.0 0.0 0.0
H 0.0 0.0 1.543946083378379
3

H 0.0 0.0 -0.7545859856906256
H 0.0 0.0 0.0
H 0.0 0.0 1.5449447129131333
3

H 0.0 0.0 -0.7545336497343826
H 0.0 0.0 0.0
H 0.0 0.0 1.545943342447888
3

H 0.0 0.0 -0.7544813137781397
H 0.0 0.0 0.0
H 0.0 0.0 1.5469419719826425
3

H 0.0 0.0 -0.7544289778218967
H 0.0 0.0 0.0
H 0.0 0.0 1.547940601517397
3

H 0.0 0.0 -0.7543766418656537
H 0.0 0.0 0.0
H 0.0 0.0 1.5489392310521517
3

H 0.0 0.0 -0.7543243059094107
H 0.0 0.0 0.0
H 0.0 0.0 1.5499378605869063
3

H 0.0 0.0 -0.7542719699531677
H 0.0 0.0 0.0
H 0.0 0.0 1.550936490121661
3

H 0.0 0.0 -0.7542196339969247
H 0.0 0.0 0.0
H 0.0 0.0 1.5519351196564155
3

H 0.0 0.0 -0.7541672980406817
H 0.0 0.0 0.0
H 0.0 0.0 1.55293374919117
3

H 0.0 0.0 -0.7541149620844387
H 0.0 0.0 0.0
H 0.0 0.0 1.5539323787259247
3

H 0.0 0.0 -0.7540626261281957
H 0.0 0.0 0.0
H 0.0 0.0 1.554931008260679
3

H 0.0 0.0 -0.7540102901719528
H 0.0 0.0 0.0
H 0.0 0.0 1.555929637795434
3

H 0.0 0.0 -0.7539579542157098
H 0.0 0.0 0.0
H 0.0 0.0 1.5569282673301883
3

H 0.0 0.0 -0.7539056182594668
H 0.0 0.0 0.0
H 0.0 0.0 1.5579268968649431
3

H 0.0 0.0 -0.7538532823032238
H 0.0 0.0 0.0
H 0.0 0.0 1.5589255263996975
3

H 0.0 0.0 -0.7538009463469808
H 0.0 0.0 0.0
H 0.0 0.0 1.5599241559344523
3

H 0.0 0.0 -0.7537486103907378
H 0.0 0.0 0.0
H 0.0 0.0 1.560922785469207
3

H 0.0 0.0 -0.7536962744344948
H 0.0 0.0 0.0
H 0.0 0.0 1.5619214150039615
3

H 0.0 0.0 -0.7536439384782518
H 0.0 0.0 0.0
H 0.0 0.0 1.562920044538716
3

H 0.0 0.0 -0.7535916025220089
H 0.0 0.0 0.0
H 0.0 0.0 1.5639186740734707
3

H 0.0 0.0 -0.7535392665657659
H 0.0 0.0 0.0
H 0.0 0.0 1.5649173036082251
3

H 0.0 0.0 -0.7534869306095229
H 0.0 0.0 0.0
H 0.0 0.0 1.56591593314298
3

H 0.0 0.0 -0.7534345946532799
H 0.0 0.0 0.0
H 0.0 0.0 1.5669145626777343
3

H 0.0 0.0 -0.7533822586970369
H 0.0 0.0 0.0
H 0.0 0.0 1.5679131922124891
3

H 0.0 0.0 -0.7533473592003344
H 0.0 0.0 0.0
H 0.0 0.0 1.5689125830395083
3

H 0.0 0.0 -0.7532950232440914
H 0.0 0.0 0.0
H 0.0 0.0 1.569911212574263
3

H 0.0 0.0 -0.7532601237473888
H 0.0 0.0 0.0
H 0.0 0.0 1.570910603401282
3

H 0.0 0.0 -0.7532077877911458
H 0.0 0.0 0.0
H 0.0 0.0 1.571909232936037
3

H 0.0 0.0 -0.7531728882944433
H 0.0 0.0 0.0
H 0.0 0.0 1.5729086237630558
3

H 0.0 0.0 -0.7531205523382003
H 0.0 0.0 0.0
H 0.0 0.0 1.5739072532978104
3

H 0.0 0.0 -0.7530856528414978
H 0.0 0.0 0.0
H 0.0 0.0 1.5749066441248296
3

H 0.0 0.0 -0.7530333168852548
H 0.0 0.0 0.0
H 0.0 0.0 1.5759052736595842
3

H 0.0 0.0 -0.7529984173885522
H 0.0 0.0 0.0
H 0.0 0.0 1.5769046644866034
3

H 0.0 0.0 -0.7529460814323092
H 0.0 0.0 0.0
H 0.0 0.0 1.577903294021358
3

H 0.0 0.0 -0.7529111819356067
H 0.0 0.0 0.0
H 0.0 0.0 1.5789026848483771
3

H 0.0 0.0 -0.7528588459793637
H 0.0 0.0 0.0
H 0.0 0.0 1.5799013143831315
3

H 0.0 0.0 -0.7528239464826612
H 0.0 0.0 0.0
H 0.0 0.0 1.580900705210151
3

H 0.0 0.0 -0.7527716105264182
H 0.0 0.0 0.0
H 0.0 0.0 1.5818993347449055
3

H 0.0 0.0 -0.7527367110297156
H 0.0 0.0 0.0
H 0.0 0.0 1.582898725571925
3

H 0.0 0.0 -0.7527018115330131
H 0.0 0.0 0.0
H 0.0 0.0 1.5838981163989438
3

H 0.0 0.0 -0.7526494755767701
H 0.0 0.0 0.0
H 0.0 0.0 1.5848967459336984
3

H 0.0 0.0 -0.7526145760800675
H 0.0 0.0 0.0
H 0.0 0.0 1.5858961367607176
3

H 0.0 0.0 -0.7525622401238246
H 0.0 0.0 0.0
H 0.0 0.0 1.5868947662954722
3

H 0.0 0.0 -0.752527340627122
H 0.0 0.0 0.0
H 0.0 0.0 1.5878941571224914
3

H 0.0 0.0 -0.7524924411304195
H 0.0 0.0 0.0
H 0.0 0.0 1.5888935479495103
3

H 0.0 0.0 -0.7524401051741765
H 0.0 0.0 0.0
H 0.0 0.0 1.5898921774842651
3

H 0.0 0.0 -0.7524052056774739
H 0.0 0.0 0.0
H 0.0 0.0 1.5908915683112843
3

H 0.0 0.0 -0.7523703061807714
H 0.0 0.0 0.0
H 0.0 0.0 1.5918909591383037
3

H 0.0 0.0 -0.7523179702245284
H 0.0 0.0 0.0
H 0.0 0.0 1.592889588673058
3

H 0.0 0.0 -0.7522830707278259
H 0.0 0.0 0.0
H 0.0 0.0 1.5938889795000772
3

H 0.0 0.0 -0.7522307347715829
H 0.0 0.0 0.0
H 0.0 0.0 1.5948876090348318
3

H 0.0 0.0 -0.7521958352748803
H 0.0 0.0 0.0
H 0.0 0.0 1.595886999861851
3

H 0.0 0.0 -0.7521609357781778
H 0.0 0.0 0.0
H 0.0 0.0 1.5968863906888702
3

H 0.0 0.0 -0.7521260362814752
H 0.0 0.0 0.0
H 0.0 0.0 1.5978857815158891
3

H 0.0 0.0 -0.7520737003252322
H 0.0 0.0 0.0
H 0.0 0.0 1.598884411050644
3

H 0.0 0.0 -0.7520388008285297
H 0.0 0.0 0.0
H 0.0 0.0 1.599883801877663
3

H 0.0 0.0 -0.7520039013318272
H 0.0 0.0 0.0
H 0.0 0.0 1.6008831927046825
3

H 0.0 0.0 -0.7519690018351246
H 0.0 0.0 0.0
H 0.0 0.0 1.6018825835317014
3

H 0.0 0.0 -0.7519166658788816
H 0.0 0.0 0.0
H 0.0 0.0 1.602881213066456
3

H 0.0 0.0 -0.7518817663821791
H 0.0 0.0 0.0
H 0.0 0.0 1.6038806038934752
3

H 0.0 0.0 -0.7518468668854765
H 0.0 0.0 0.0
H 0.0 0.0 1.6048799947204944
3

H 0.0 0.0 -0.751811967388774
H 0.0 0.0 0.0
H 0.0 0.0 1.6058793855475135
3

H 0.0 0.0 -0.751759631432531
H 0.0 0.0 0.0
H 0.0 0.0 1.606878015082268
3

H 0.0 0.0 -0.7517247319358284
H 0.0 0.0 0.0
H 0.0 0.0 1.6078774059092873
3

H 0.0 0.0 -0.7516898324391259
H 0.0 0.0 0.0
H 0.0 0.0 1.6088767967363065
3

H 0.0 0.0 -0.7516549329424234
H 0.0 0.0 0.0
H 0.0 0.0 1.6098761875633256
3

H 0.0 0.0 -0.7516200334457208
H 0.0 0.0 0.0
H 0.0 0.0 1.6108755783903448
3

H 0.0 0.0 -0.7515851339490183
H 0.0 0.0 0.0
H 0.0 0.0 1.611874969217364
3

H 0.0 0.0 -0.7515327979927753
H 0.0 0.0 0.0
H 0.0 0.0 1.6128735987521186
3

H 0.0 0.0 -0.7514978984960727
H 0.0 0.0 0.0
H 0.0 0.0 1.6138729895791375
3

H 0.0 0.0 -0.7514629989993702
H 0.0 0.0 0.0
H 0.0 0.0 1.6148723804061569
3

H 0.0 0.0 -0.7514280995026676
H 0.0 0.0 0.0
H 0.0 0.0 1.615871771233176
3

H 0.0 0.0 -0.7513932000059651
H 0.0 0.0 0.0
H 0.0 0.0 1.6168711620601952
3

H 0.0 0.0 -0.7513583005092626
H 0.0 0.0 0.0
H 0.0 0.0 1.6178705528872144
3

H 0.0 0.0 -0.75132340101256
H 0.0 0.0 0.0
H 0.0 0.0 1.6188699437142335
3

H 0.0 0.0 -0.751271065056317
H 0.0 0.0 0.0
H 0.0 0.0 1.619868573248988
3

H 0.0 0.0 -0.7512361655596145
H 0.0 0.0 0.0
H 0.0 0.0 1.6208679640760073
3

H 0.0 0.0 -0.7512012660629119
H 0.0 0.0 0.0
H 0.0 0.0 1.6218673549030265
3

H 0.0 0.0 -0.7511663665662094
H 0.0 0.0 0.0
H 0.0 0.0 1.6228667457300456
3

H 0.0 0.0 -0.7511314670695068
H 0.0 0.0 0.0
H 0.0 0.0 1.6238661365570648
3

H 0.0 0.0 -0.7510965675728043
H 0.0 0.0 0.0
H 0.0 0.0 1.624865527384084
3

H 0.0 0.0 -0.7510616680761018
H 0.0 0.0 0.0
H 0.0 0.0 1.6258649182111031
3

H 0.0 0.0 -0.7510267685793992
H 0.0 0.0 0.0
H 0.0 0.0 1.6268643090381223
3

H 0.0 0.0 -0.7509918690826967
H 0.0 0.0 0.0
H 0.0 0.0 1.6278636998651417
3

H 0.0 0.0 -0.7509569695859941
H 0.0 0.0 0.0
H 0.0 0.0 1.6288630906921606
3

H 0.0 0.0 -0.7509220700892916
H 0.0 0.0 0.0
H 0.0 0.0 1.6298624815191798
3

H 0.0 0.0 -0.750887170592589
H 0.0 0.0 0.0
H 0.0 0.0 1.630861872346199
3

H 0.0 0.0 -0.7508522710958865
H 0.0 0.0 0.0
H 0.0 0.0 1.631861263173218
3

H 0.0 0.0 -0.7508173715991839
H 0.0 0.0 0.0
H 0.0 0.0 1.6328606540002373
3

H 0.0 0.0 -0.7507824721024814
H 0.0 0.0 0.0
H 0.0 0.0 1.6338600448272564
3

H 0.0 0.0 -0.7507475726057788
H 0.0 0.0 0.0
H 0.0 0.0 1.6348594356542756
3

H 0.0 0.0 -0.7507126731090763
H 0.0 0.0 0.0
H 0.0 0.0 1.6358588264812948
3

H 0.0 0.0 -0.7506777736123738
H 0.0 0.0 0.0
H 0.0 0.0 1.636858217308314
3

H 0.0 0.0 -0.7506428741156712
H 0.0 0.0 0.0
H 0.0 0.0 1.637857608135333
3

H 0.0 0.0 -0.7506079746189687
H 0.0 0.0 0.0
H 0.0 0.0 1.6388569989623525
3

H 0.0 0.0 -0.7505730751222661
H 0.0 0.0 0.0
H 0.0 0.0 1.6398563897893714
3

H 0.0 0.0 -0.7505381756255636
H 0.0 0.0 0.0
H 0.0 0.0 1.6408557806163906
3

H 0.0 0.0 -0.750503276128861
H 0.0 0.0 0.0
H 0.0 0.0 1.6418551714434098
3

H 0.0 0.0 -0.7504683766321585
H 0.0 0.0 0.0
H 0.0 0.0 1.642854562270429
3

H 0.0 0.0 -0.7504334771354559
H 0.0 0.0 0.0
H 0.0 0.0 1.643853953097448
3

H 0.0 0.0 -0.7503985776387534
H 0.0 0.0 0.0
H 0.0 0.0 1.6448533439244672
3

H 0.0 0.0 -0.7503636781420508
H 0.0 0.0 0.0
H 0.0 0.0 1.6458527347514864
3

H 0.0 0.0 -0.7503287786453483
H 0.0 0.0 0.0
H 0.0 0.0 1.6468521255785056
3

H 0.0 0.0 -0.7502938791486458
H 0.0 0.0 0.0
H 0.0 0.0 1.6478515164055247
3

H 0.0 0.0 -0.7502589796519432
H 0.0 0.0 0.0
H 0.0 0.0 1.648850907232544
3

H 0.0 0.0 -0.7502240801552407
H 0.0 0.0 0.0
H 0.0 0.0 1.649850298059563
3

H 0.0 0.0 -0.7501891806585381
H 0.0 0.0 0.0
H 0.0 0.0 1.6508496888865822
3

H 0.0 0.0 -0.7501542811618356
H 0.0 0.0 0.0
H 0.0 0.0 1.6518490797136014
3

H 0.0 0.0 -0.750119381665133
H 0.0 0.0 0.0
H 0.0 0.0 1.6528484705406206
3

H 0.0 0.0 -0.7500844821684305
H 0.0 0.0 0.0
H 0.0 0.0 1.6538478613676395
3

H 0.0 0.0 -0.7500495826717279
H 0.0 0.0 0.0
H 0.0 0.0 1.654847252194659
3

H 0.0 0.0 -0.7500146831750254
H 0.0 0.0 0.0
H 0.0 0.0 1.655846643021678
3

H 0.0 0.0 -0.7499797836783229
H 0.0 0.0 0.0
H 0.0 0.0 1.6568460338486972
3

H 0.0 0.0 -0.7499448841816203
H 0.0 0.0 0.0
H 0.0 0.0 1.6578454246757164
3

H 0.0 0.0 -0.7499099846849178
H 0.0 0.0 0.0
H 0.0 0.0 1.6588448155027355
3

H 0.0 0.0 -0.7498750851882152
H 0.0 0.0 0.0
H 0.0 0.0 1.6598442063297547
3

H 0.0 0.0 -0.7498401856915127
H 0.0 0.0 0.0
H 0.0 0.0 1.660843597156774
3

H 0.0 0.0 -0.7498052861948101
H 0.0 0.0 0.0
H 0.0 0.0 1.661842987983793
3

H 0.0 0.0 -0.7497703866981076
H 0.0 0.0 0.0
H 0.0 0.0 1.6628423788108122
3

H 0.0 0.0 -0.749735487201405
H 0.0 0.0 0.0
H 0.0 0.0 1.6638417696378314
3

H 0.0 0.0 -0.7497005877047025
H 0.0 0.0 0.0
H 0.0 0.0 1.6648411604648503
3

H 0.0 0.0 -0.749665688208
H 0.0 0.0 0.0
H 0.0 0.0 1.6658405512918697
3

H 0.0 0.0 -0.7496307887112974
H 0.0 0.0 0.0
H 0.0 0.0 1.6668399421188889
3

H 0.0 0.0 -0.7495958892145949
H 0.0 0.0 0.0
H 0.0 0.0 1.667839332945908
3

H 0.0 0.0 -0.7495609897178923
H 0.0 0.0 0.0
H 0.0 0.0 1.6688387237729272
3

H 0.0 0.0 -0.7495260902211898
H 0.0 0.0 0.0
H 0.0 0.0 1.6698381145999464
3

H 0.0 0.0 -0.7494911907244872
H 0.0 0.0 0.0
H 0.0 0.0 1.6708375054269655
3

H 0.0 0.0 -0.7494562912277847
H 0.0 0.0 0.0
H 0.0 0.0 1.671836896253985
3

H 0.0 0.0 -0.7494213917310821
H 0.0 0.0 0.0
H 0.0 0.0 1.6728362870810038
3

H 0.0 0.0 -0.7493864922343796
H 0.0 0.0 0.0
H 0.0 0.0 1.673835677908023
3

H 0.0 0.0 -0.749351592737677
H 0.0 0.0 0.0
H 0.0 0.0 1.6748350687350422
3

H 0.0 0.0 -0.7493166932409745
H 0.0 0.0 0.0
H 0.0 0.0 1.6758344595620611
3

H 0.0 0.0 -0.749281793744272
H 0.0 0.0 0.0
H 0.0 0.0 1.6768338503890805
3

H 0.0 0.0 -0.7492468942475694
H 0.0 0.0 0.0
H 0.0 0.0 1.6778332412160997
3

H 0.0 0.0 -0.7492119947508669
H 0.0 0.0 0.0
H 0.0 0.0 1.6788326320431188
3

H 0.0 0.0 -0.7491770952541643
H 0.0 0.0 0.0
H 0.0 0.0 1.679832022870138
3

H 0.0 0.0 -0.7491421957574618
H 0.0 0.0 0.0
H 0.0 0.0 1.6808314136971572
3

H 0.0 0.0 -0.7491072962607592
H 0.0 0.0 0.0
H 0.0 0.0 1.6818308045241763
3

H 0.0 0.0 -0.7490723967640567
H 0.0 0.0 0.0
H 0.0 0.0 1.6828301953511955
3

H 0.0 0.0 -0.7490374972673541
H 0.0 0.0 0.0
H 0.0 0.0 1.6838295861782149
3

H 0.0 0.0 -0.7490200448609169
H 0.0 0.0 0.0
H 0.0 0.0 1.6848294338733711
3

H 0.0 0.0 -0.7489851453642143
H 0.0 0.0 0.0
H 0.0 0.0 1.6858288247003903
3

H 0.0 0.0 -0.7489502458675118
H 0.0 0.0 0.0
H 0.0 0.0 1.6868282155274097
3

H 0.0 0.0 -0.7489153463708093
H 0.0 0.0 0.0
H 0.0 0.0 1.6878276063544286
3

H 0.0 0.0 -0.748897893964372
H 0.0 0.0 0.0
H 0.0 0.0 1.6888274540495851
3

H 0.0 0.0 -0.7488629944676695
H 0.0 0.0 0.0
H 0.0 0.0 1.6898268448766045
3

H 0.0 0.0 -0.7488455420612322
H 0.0 0.0 0.0
H 0.0 0.0 1.6908266925717608
3

H 0.0 0.0 -0.7488106425645297
H 0.0 0.0 0.0
H 0.0 0.0 1.69182608339878
3

H 0.0 0.0 -0.7487757430678271
H 0.0 0.0 0.0
H 0.0 0.0 1.692825474225799
3

H 0.0 0.0 -0.7487582906613899
H 0.0 0.0 0.0
H 0.0 0.0 1.6938253219209556
3

H 0.0 0.0 -0.7487233911646873
H 0.0 0.0 0.0
H 0.0 0.0 1.6948247127479747
3

H 0.0 0.0 -0.7487059387582501
H 0.0 0.0 0.0
H 0.0 0.0 1.6958245604431312
3

H 0.0 0.0 -0.7486710392615475
H 0.0 0.0 0.0
H 0.0 0.0 1.6968239512701504
3

H 0.0 0.0 -0.748636139764845
H 0.0 0.0 0.0
H 0.0 0.0 1.6978233420971696
3

H 0.0 0.0 -0.7486186873584078
H 0.0 0.0 0.0
H 0.0 0.0 1.698823189792326
3

H 0.0 0.0 -0.7485837878617052
H 0.0 0.0 0.0
H 0.0 0.0 1.6998225806193452
3

H 0.0 0.0 -0.748566335455268
H 0.0 0.0 0.0
H 0.0 0.0 1.7008224283145017
3

H 0.0 0.0 -0.7485314359585654
H 0.0 0.0 0.0
H 0.0 0.0 1.7018218191415209
3

H 0.0 0.0 -0.7485139835521282
H 0.0 0.0 0.0
H 0.0 0.0 1.7028216668366774
3

H 0.0 0.0 -0.7484790840554256
H 0.0 0.0 0.0
H 0.0 0.0 1.7038210576636963
3

H 0.0 0.0 -0.7484616316489884
H 0.0 0.0 0.0
H 0.0 0.0 1.704820905358853
3

H 0.0 0.0 -0.7484267321522858
H 0.0 0.0 0.0
H 0.0 0.0 1.7058202961858722
3

H 0.0 0.0 -0.7484092797458486
H 0.0 0.0 0.0
H 0.0 0.0 1.7068201438810289
3

H 0.0 0.0 -0.748374380249146
H 0.0 0.0 0.0
H 0.0 0.0 1.7078195347080478
3

H 0.0 0.0 -0.7483394807524435
H 0.0 0.0 0.0
H 0.0 0.0 1.708818925535067
3

H 0.0 0.0 -0.7483220283460063
H 0.0 0.0 0.0
H 0.0 0.0 1.7098187732302237
3

H 0.0 0.0 -0.7482871288493037
H 0.0 0.0 0.0
H 0.0 0.0 1.7108181640572426
3

H 0.0 0.0 -0.7482696764428665
H 0.0 0.0 0.0
H 0.0 0.0 1.7118180117523991
3

H 0.0 0.0 -0.7482347769461639
H 0.0 0.0 0.0
H 0.0 0.0 1.7128174025794185
3

H 0.0 0.0 -0.7482173245397267
H 0.0 0.0 0.0
H 0.0 0.0 1.7138172502745748
3

H 0.0 0.0 -0.7481824250430241
H 0.0 0.0 0.0
H 0.0 0.0 1.714816641101594
3

H 0.0 0.0 -0.7481649726365869
H 0.0 0.0 0.0
H 0.0 0.0 1.7158164887967504
3

H 0.0 0.0 -0.7481300731398843
H 0.0 0.0 0.0
H 0.0 0.0 1.7168158796237696
3

H 0.0 0.0 -0.7481126207334471
H 0.0 0.0 0.0
H 0.0 0.0 1.717815727318926
3

H 0.0 0.0 -0.7480951683270098
H 0.0 0.0 0.0
H 0.0 0.0 1.7188155750140826
3

H 0.0 0.0 -0.7480602688303073
H 0.0 0.0 0.0
H 0.0 0.0 1.7198149658411015
3

H 0.0 0.0 -0.74804281642387
H 0.0 0.0 0.0
H 0.0 0.0 1.7208148135362582
3

H 0.0 0.0 -0.7480079169271675
H 0.0 0.0 0.0
H 0.0 0.0 1.7218142043632774
3

H 0.0 0.0 -0.7479904645207303
H 0.0 0.0 0.0
H 0.0 0.0 1.722814052058434
3

H 0.0 0.0 -0.7479555650240277
H 0.0 0.0 0.0
H 0.0 0.0 1.723813442885453
3

H 0.0 0.0 -0.7479381126175905
H 0.0 0.0 0.0
H 0.0 0.0 1.7248132905806095
3

H 0.0 0.0 -0.7479032131208879
H 0.0 0.0 0.0
H 0.0 0.0 1.725812681407629
3

H 0.0 0.0 -0.7478857607144507
H 0.0 0.0 0.0
H 0.0 0.0 1.7268125291027852
3

H 0.0 0.0 -0.7478683083080134
H 0.0 0.0 0.0
H 0.0 0.0 1.7278123767979416
3

H 0.0 0.0 -0.7478334088113109
H 0.0 0.0 0.0
H 0.0 0.0 1.7288117676249608
3

H 0.0 0.0 -0.7478159564048736
H 0.0 0.0 0.0
H 0.0 0.0 1.7298116153201173
3

H 0.0 0.0 -0.7477810569081711
H 0.0 0.0 0.0
H 0.0 0.0 1.7308110061471365
3

H 0.0 0.0 -0.7477636045017338
H 0.0 0.0 0.0
H 0.0 0.0 1.731810853842293
3

H 0.0 0.0 -0.7477461520952966
H 0.0 0.0 0.0
H 0.0 0.0 1.7328107015374494
3

H 0.0 0.0 -0.7477112525985941
H 0.0 0.0 0.0
H 0.0 0.0 1.7338100923644686
3

H 0.0 0.0 -0.7476938001921568
H 0.0 0.0 0.0
H 0.0 0.0 1.734809940059625
3

H 0.0 0.0 -0.7476589006954543
H 0.0 0.0 0.0
H 0.0 0.0 1.7358093308866442
3

H 0.0 0.0 -0.747641448289017
H 0.0 0.0 0.0
H 0.0 0.0 1.7368091785818007
3

H 0.0 0.0 -0.7476239958825798
H 0.0 0.0 0.0
H 0.0 0.0 1.7378090262769572
3

H 0.0 0.0 -0.7475890963858772
H 0.0 0.0 0.0
H 0.0 0.0 1.7388084171039764
3

H 0.0 0.0 -0.74757164397944
H 0.0 0.0 0.0
H 0.0 0.0 1.7398082647991329
3

H 0.0 0.0 -0.7475541915730027
H 0.0 0.0 0.0
H 0.0 0.0 1.7408081124942894
3

H 0.0 0.0 -0.7475192920763002
H 0.0 0.0 0.0
H 0.0 0.0 1.7418075033213083
3

H 0.0 0.0 -0.7475018396698629
H 0.0 0.0 0.0
H 0.0 0.0 1.742807351016465
3

H 0.0 0.0 -0.7474843872634257
H 0.0 0.0 0.0
H 0.0 0.0 1.7438071987116217
3

H 0.0 0.0 -0.7474494877667232
H 0.0 0.0 0.0
H 0.0 0.0 1.7448065895386409
3

H 0.0 0.0 -0.7474320353602859
H 0.0 0.0 0.0
H 0.0 0.0 1.7458064372337971
3

H 0.0 0.0 -0.7474145829538487
H 0.0 0.0 0.0
H 0.0 0.0 1.7468062849289536
3

H 0.0 0.0 -0.7473796834571461
H 0.0 0.0 0.0
H 0.0 0.0 1.7478056757559728
3

H 0.0 0.0 -0.7473622310507089
H 0.0 0.0 0.0
H 0.0 0.0 1.7488055234511293
3

H 0.0 0.0 -0.7473447786442716
H 0.0 0.0 0.0
H 0.0 0.0 1.7498053711462858
3

H 0.0 0.0 -0.7473098791475691
H 0.0 0.0 0.0
H 0.0 0.0 1.750804761973305
3

H 0.0 0.0 -0.7472924267411318
H 0.0 0.0 0.0
H 0.0 0.0 1.7518046096684614
3

H 0.0 0.0 -0.7472749743346946
H 0.0 0.0 0.0
H 0.0 0.0 1.752804457363618
3

H 0.0 0.0 -0.747240074837992
H 0.0 0.0 0.0
H 0.0 0.0 1.753803848190637
3

H 0.0 0.0 -0.7472226224315548
H 0.0 0.0 0.0
H 0.0 0.0 1.7548036958857935
3

H 0.0 0.0 -0.7472051700251175
H 0.0 0.0 0.0
H 0.0 0.0 1.75580354358095
3

H 0.0 0.0 -0.7471877176186803
H 0.0 0.0 0.0
H 0.0 0.0 1.7568033912761063
3

H 0.0 0.0 -0.7471528181219778
H 0.0 0.0 0.0
H 0.0 0.0 1.7578027821031257
3

H 0.0 0.0 -0.7471353657155405
H 0.0 0.0 0.0
H 0.0 0.0 1.7588026297982822
3

H 0.0 0.0 -0.7471179133091033
H 0.0 0.0 0.0
H 0.0 0.0 1.7598024774934389
3

H 0.0 0.0 -0.747100460902666
H 0.0 0.0 0.0
H 0.0 0.0 1.7608023251885951
3

H 0.0 0.0 -0.7470655614059635
H 0.0 0.0 0.0
H 0.0 0.0 1.7618017160156143
3

H 0.0 0.0 -0.7470481089995262
H 0.0 0.0 0.0
H 0.0 0.0 1.7628015637107708
3

H 0.0 0.0 -0.747030656593089
H 0.0 0.0 0.0
H 0.0 0.0 1.7638014114059273
3

H 0.0 0.0 -0.7469957570963864
H 0.0 0.0 0.0
H 0.0 0.0 1.7648008022329464
3

H 0.0 0.0 -0.7469783046899492
H 0.0 0.0 0.0
H 0.0 0.0 1.765800649928103
3

H 0.0 0.0 -0.746960852283512
H 0.0 0.0 0.0
H 0.0 0.0 1.7668004976232594
3

H 0.0 0.0 -0.7469433998770747
H 0.0 0.0 0.0
H 0.0 0.0 1.767800345318416
3

H 0.0 0.0 -0.7469085003803722
H 0.0 0.0 0.0
H 0.0 0.0 1.768799736145435
3

H 0.0 0.0 -0.7468910479739349
H 0.0 0.0 0.0
H 0.0 0.0 1.7697995838405916
3

H 0.0 0.0 -0.7468735955674977
H 0.0 0.0 0.0
H 0.0 0.0 1.770799431535748
3

H 0.0 0.0 -0.7468561431610604
H 0.0 0.0 0.0
H 0.0 0.0 1.7717992792309043
3

H 0.0 0.0 -0.7468386907546232
H 0.0 0.0 0.0
H 0.0 0.0 1.772799126926061
3

H 0.0 0.0 -0.7468037912579206
H 0.0 0.0 0.0
H 0.0 0.0 1.7737985177530802
3

H 0.0 0.0 -0.7467863388514834
H 0.0 0.0 0.0
H 0.0 0.0 1.7747983654482369
3

H 0.0 0.0 -0.7467688864450461
H 0.0 0.0 0.0
H 0.0 0.0 1.7757982131433931
3

H 0.0 0.0 -0.7467514340386089
H 0.0 0.0 0.0
H 0.0 0.0 1.7767980608385496
3

H 0.0 0.0 -0.7467339816321716
H 0.0 0.0 0.0
H 0.0 0.0 1.777797908533706
3

H 0.0 0.0 -0.7467165292257344
H 0.0 0.0 0.0
H 0.0 0.0 1.7787977562288626
3

H 0.0 0.0 -0.7466816297290318
H 0.0 0.0 0.0
H 0.0 0.0 1.7797971470558818
3

H 0.0 0.0 -0.7466641773225946
H 0.0 0.0 0.0
H 0.0 0.0 1.7807969947510385
3

H 0.0 0.0 -0.7466467249161574
H 0.0 0.0 0.0
H 0.0 0.0 1.7817968424461947
3

H 0.0 0.0 -0.7466292725097201
H 0.0 0.0 0.0
H 0.0 0.0 1.7827966901413512
3

H 0.0 0.0 -0.7466118201032829
H 0.0 0.0 0.0
H 0.0 0.0 1.7837965378365075
3

H 0.0 0.0 -0.7465943676968456
H 0.0 0.0 0.0
H 0.0 0.0 1.7847963855316642
3

H 0.0 0.0 -0.7465594682001431
H 0.0 0.0 0.0
H 0.0 0.0 1.7857957763586834
3

H 0.0 0.0 -0.7465420157937058
H 0.0 0.0 0.0
H 0.0 0.0 1.7867956240538398
3

H 0.0 0.0 -0.7465245633872686
H 0.0 0.0 0.0
H 0.0 0.0 1.7877954717489963
3

H 0.0 0.0 -0.7465071109808313
H 0.0 0.0 0.0
H 0.0 0.0 1.7887953194441528
3

H 0.0 0.0 -0.7464896585743941
H 0.0 0.0 0.0
H 0.0 0.0 1.7897951671393093
3

H 0.0 0.0 -0.7464722061679568
H 0.0 0.0 0.0
H 0.0 0.0 1.7907950148344658
3

H 0.0 0.0 -0.7464547537615196
H 0.0 0.0 0.0
H 0.0 0.0 1.7917948625296225
3

H 0.0 0.0 -0.746419854264817
H 0.0 0.0 0.0
H 0.0 0.0 1.7927942533566414
3

H 0.0 0.0 -0.7464024018583798
H 0.0 0.0 0.0
H 0.0 0.0 1.793794101051798
3

H 0.0 0.0 -0.7463849494519426
H 0.0 0.0 0.0
H 0.0 0.0 1.7947939487469544
3

H 0.0 0.0 -0.7463674970455053
H 0.0 0.0 0.0
H 0.0 0.0 1.795793796442111
3

H 0.0 0.0 -0.7463500446390681
H 0.0 0.0 0.0
H 0.0 0.0 1.7967936441372674
3

H 0.0 0.0 -0.7463325922326308
H 0.0 0.0 0.0
H 0.0 0.0 1.797793491832424
3

H 0.0 0.0 -0.7463151398261936
H 0.0 0.0 0.0
H 0.0 0.0 1.7987933395275804
3

H 0.0 0.0 -0.7462976874197563
H 0.0 0.0 0.0
H 0.0 0.0 1.7997931872227368
3

H 0.0 0.0 -0.7462627879230538
H 0.0 0.0 0.0
H 0.0 0.0 1.800792578049756
3

H 0.0 0.0 -0.7462453355166165
H 0.0 0.0 0.0
H 0.0 0.0 1.8017924257449125
3

H 0.0 0.0 -0.7462278831101793
H 0.0 0.0 0.0
H 0.0 0.0 1.802792273440069
3

H 0.0 0.0 -0.746210430703742
H 0.0 0.0 0.0
H 0.0 0.0 1.8037921211352252
3

H 0.0 0.0 -0.7461929782973048
H 0.0 0.0 0.0
H 0.0 0.0 1.804791968830382
3

H 0.0 0.0 -0.7461755258908676
H 0.0 0.0 0.0
H 0.0 0.0 1.8057918165255384
3

H 0.0 0.0 -0.7461580734844303
H 0.0 0.0 0.0
H 0.0 0.0 1.806791664220695
3

H 0.0 0.0 -0.7461406210779931
H 0.0 0.0 0.0
H 0.0 0.0 1.8077915119158516
3

H 0.0 0.0 -0.7461231686715558
H 0.0 0.0 0.0
H 0.0 0.0 1.808791359611008
3

H 0.0 0.0 -0.7461057162651186
H 0.0 0.0 0.0
H 0.0 0.0 1.8097912073061644
3

H 0.0 0.0 -0.7460882638586813
H 0.0 0.0 0.0
H 0.0 0.0 1.8107910550013209
3

H 0.0 0.0 -0.7460708114522441
H 0.0 0.0 0.0
H 0.0 0.0 1.8117909026964771
3

H 0.0 0.0 -0.7460533590458068
H 0.0 0.0 0.0
H 0.0 0.0 1.8127907503916336
3

H 0.0 0.0 -0.7460359066393696
H 0.0 0.0 0.0
H 0.0 0.0 1.8137905980867903
3

H 0.0 0.0 -0.746001007142667
H 0.0 0.0 0.0
H 0.0 0.0 1.8147899889138093
3

H 0.0 0.0 -0.7459835547362298
H 0.0 0.0 0.0
H 0.0 0.0 1.815789836608966
3

H 0.0 0.0 -0.7459661023297925
H 0.0 0.0 0.0
H 0.0 0.0 1.8167896843041225
3

H 0.0 0.0 -0.7459486499233553
H 0.0 0.0 0.0
H 0.0 0.0 1.817789531999279
3

H 0.0 0.0 -0.745931197516918
H 0.0 0.0 0.0
H 0.0 0.0 1.8187893796944357
3

H 0.0 0.0 -0.7459137451104808
H 0.0 0.0 0.0
H 0.0 0.0 1.819789227389592
3

H 0.0 0.0 -0.7458962927040436
H 0.0 0.0 0.0
H 0.0 0.0 1.8207890750847484
3

H 0.0 0.0 -0.7458788402976063
H 0.0 0.0 0.0
H 0.0 0.0 1.821788922779905
3

H 0.0 0.0 -0.7458613878911691
H 0.0 0.0 0.0
H 0.0 0.0 1.8227887704750612
3

H 0.0 0.0 -0.7458439354847318
H 0.0 0.0 0.0
H 0.0 0.0 1.8237886181702176
3

H 0.0 0.0 -0.7458264830782946
H 0.0 0.0 0.0
H 0.0 0.0 1.8247884658653744
3

H 0.0 0.0 -0.7458090306718573
H 0.0 0.0 0.0
H 0.0 0.0 1.8257883135605308
3

H 0.0 0.0 -0.7457915782654201
H 0.0 0.0 0.0
H 0.0 0.0 1.8267881612556875
3

H 0.0 0.0 -0.7457741258589828
H 0.0 0.0 0.0
H 0.0 0.0 1.827788008950844
3

H 0.0 0.0 -0.7457566734525456
H 0.0 0.0 0.0
H 0.0 0.0 1.8287878566460003
3

H 0.0 0.0 -0.7457392210461083
H 0.0 0.0 0.0
H 0.0 0.0 1.8297877043411568
3

H 0.0 0.0 -0.7457217686396711
H 0.0 0.0 0.0
H 0.0 0.0 1.8307875520363133
3

H 0.0 0.0 -0.7457043162332339
H 0.0 0.0 0.0
H 0.0 0.0 1.8317873997314695
3

H 0.0 0.0 -0.7456868638267966
H 0.0 0.0 0.0
H 0.0 0.0 1.8327872474266265
3

H 0.0 0.0 -0.7456694114203594
H 0.0 0.0 0.0
H 0.0 0.0 1.8337870951217827
3

H 0.0 0.0 -0.7456519590139221
H 0.0 0.0 0.0
H 0.0 0.0 1.8347869428169392
3

H 0.0 0.0 -0.7456345066074849
H 0.0 0.0 0.0
H 0.0 0.0 1.835786790512096
3

H 0.0 0.0 -0.7456170542010476
H 0.0 0.0 0.0
H 0.0 0.0 1.836786638207252
3

H 0.0 0.0 -0.7455996017946104
H 0.0 0.0 0.0
H 0.0 0.0 1.837786485902409
3

H 0.0 0.0 -0.7455821493881731
H 0.0 0.0 0.0
H 0.0 0.0 1.8387863335975647
3

H 0.0 0.0 -0.7455646969817359
H 0.0 0.0 0.0
H 0.0 0.0 1.8397861812927216
3

H 0.0 0.0 -0.7455472445752986
H 0.0 0.0 0.0
H 0.0 0.0 1.840786028987878
3

H 0.0 0.0 -0.7455297921688614
H 0.0 0.0 0.0
H 0.0 0.0 1.8417858766830344
3

H 0.0 0.0 -0.7455123397624241
H 0.0 0.0 0.0
H 0.0 0.0 1.842785724378191
3

H 0.0 0.0 -0.7454948873559869
H 0.0 0.0 0.0
H 0.0 0.0 1.843785572073348
3

H 0.0 0.0 -0.7454774349495497
H 0.0 0.0 0.0
H 0.0 0.0 1.844785419768504
3

H 0.0 0.0 -0.7454599825431124
H 0.0 0.0 0.0
H 0.0 0.0 1.8457852674636608
3

H 0.0 0.0 -0.7454425301366752
H 0.0 0.0 0.0
H 0.0 0.0 1.846785115158817
3

H 0.0 0.0 -0.7454250777302379
H 0.0 0.0 0.0
H 0.0 0.0 1.847784962853973
3

H 0.0 0.0 -0.7454076253238007
H 0.0 0.0 0.0
H 0.0 0.0 1.84878481054913
3

H 0.0 0.0 -0.7453901729173634
H 0.0 0.0 0.0
H 0.0 0.0 1.8497846582442865
3

H 0.0 0.0 -0.7453727205109262
H 0.0 0.0 0.0
H 0.0 0.0 1.850784505939443
3

H 0.0 0.0 -0.7453552681044889
H 0.0 0.0 0.0
H 0.0 0.0 1.8517843536345997
3

H 0.0 0.0 -0.7453378156980517
H 0.0 0.0 0.0
H 0.0 0.0 1.852784201329756
3

H 0.0 0.0 -0.7453203632916144
H 0.0 0.0 0.0
H 0.0 0.0 1.8537840490249125
3

H 0.0 0.0 -0.7453029108851772
H 0.0 0.0 0.0
H 0.0 0.0 1.854783896720069
3

H 0.0 0.0 -0.74528545847874
H 0.0 0.0 0.0
H 0.0 0.0 1.8557837444152252
3

H 0.0 0.0 -0.7452680060723027
H 0.0 0.0 0.0
H 0.0 0.0 1.856783592110382
3

H 0.0 0.0 -0.7452505536658655
H 0.0 0.0 0.0
H 0.0 0.0 1.8577834398055384
3

H 0.0 0.0 -0.7452331012594282
H 0.0 0.0 0.0
H 0.0 0.0 1.8587832875006949
3

H 0.0 0.0 -0.745215648852991
H 0.0 0.0 0.0
H 0.0 0.0 1.8597831351958516
3

H 0.0 0.0 -0.7451981964465537
H 0.0 0.0 0.0
H 0.0 0.0 1.860782982891008
3

H 0.0 0.0 -0.7451807440401165
H 0.0 0.0 0.0
H 0.0 0.0 1.8617828305861643
3

H 0.0 0.0 -0.7451632916336792
H 0.0 0.0 0.0
H 0.0 0.0 1.8627826782813208
3

H 0.0 0.0 -0.745145839227242
H 0.0 0.0 0.0
H 0.0 0.0 1.863782525976477
3

H 0.0 0.0 -0.7451283868208047
H 0.0 0.0 0.0
H 0.0 0.0 1.8647823736716336
3

H 0.0 0.0 -0.7451109344143675
H 0.0 0.0 0.0
H 0.0 0.0 1.8657822213667905
3

H 0.0 0.0 -0.7450934820079302
H 0.0 0.0 0.0
H 0.0 0.0 1.8667820690619468
3

H 0.0 0.0 -0.745076029601493
H 0.0 0.0 0.0
H 0.0 0.0 1.8677819167571037
3

H 0.0 0.0 -0.7450585771950557
H 0.0 0.0 0.0
H 0.0 0.0 1.86878176445226
3

H 0.0 0.0 -0.7450411247886185
H 0.0 0.0 0.0
H 0.0 0.0 1.869781612147416
3

H 0.0 0.0 -0.7450236723821813
H 0.0 0.0 0.0
H 0.0 0.0 1.8707814598425727
3

H 0.0 0.0 -0.745006219975744
H 0.0 0.0 0.0
H 0.0 0.0 1.8717813075377288
3

H 0.0 0.0 -0.7449887675693068
H 0.0 0.0 0.0
H 0.0 0.0 1.8727811552328857
3

H 0.0 0.0 -0.7449713151628695
H 0.0 0.0 0.0
H 0.0 0.0 1.8737810029280424
3

H 0.0 0.0 -0.7449538627564323
H 0.0 0.0 0.0
H 0.0 0.0 1.8747808506231989
3

H 0.0 0.0 -0.744936410349995
H 0.0 0.0 0.0
H 0.0 0.0 1.8757806983183551
3

H 0.0 0.0 -0.7449189579435578
H 0.0 0.0 0.0
H 0.0 0.0 1.876780546013512
3

H 0.0 0.0 -0.7449015055371205
H 0.0 0.0 0.0
H 0.0 0.0 1.877780393708668
3

H 0.0 0.0 -0.7448840531306833
H 0.0 0.0 0.0
H 0.0 0.0 1.8787802414038248
3

H 0.0 0.0 -0.744866600724246
H 0.0 0.0 0.0
H 0.0 0.0 1.879780089098981
3

H 0.0 0.0 -0.7448491483178088
H 0.0 0.0 0.0
H 0.0 0.0 1.8807799367941376
3

H 0.0 0.0 -0.7448316959113715
H 0.0 0.0 0.0
H 0.0 0.0 1.881779784489294
3

H 0.0 0.0 -0.7448142435049343
H 0.0 0.0 0.0
H 0.0 0.0 1.8827796321844503
3

H 0.0 0.0 -0.7447967910984971
H 0.0 0.0 0.0
H 0.0 0.0 1.883779479879607
3

H 0.0 0.0 -0.7447793386920598
H 0.0 0.0 0.0
H 0.0 0.0 1.8847793275747635
3

H 0.0 0.0 -0.7447618862856226
H 0.0 0.0 0.0
H 0.0 0.0 1.88577917526992
3

H 0.0 0.0 -0.7447444338791853
H 0.0 0.0 0.0
H 0.0 0.0 1.8867790229650765
3

H 0.0 0.0 -0.7447269814727481
H 0.0 0.0 0.0
H 0.0 0.0 1.887778870660233
3

H 0.0 0.0 -0.7447269814727481
H 0.0 0.0 0.0
H 0.0 0.0 1.8887788706602329
3

H 0.0 0.0 -0.7447095290663108
H 0.0 0.0 0.0
H 0.0 0.0 1.8897787183553891
3

H 0.0 0.0 -0.7446920766598736
H 0.0 0.0 0.0
H 0.0 0.0 1.8907785660505456
3

H 0.0 0.0 -0.7446746242534363
H 0.0 0.0 0.0
H 0.0 0.0 1.8917784137457023
3

H 0.0 0.0 -0.7446746242534363
H 0.0 0.0 0.0
H 0.0 0.0 1.8927784137457024
3

H 0.0 0.0 -0.7446571718469991
H 0.0 0.0 0.0
H 0.0 0.0 1.8937782614408587
3

H 0.0 0.0 -0.7446397194405618
H 0.0 0.0 0.0
H 0.0 0.0 1.8947781091360152
3

H 0.0 0.0 -0.7446222670341246
H 0.0 0.0 0.0
H 0.0 0.0 1.895777956831172
3

H 0.0 0.0 -0.7446048146276874
H 0.0 0.0 0.0
H 0.0 0.0 1.896777804526328
3

H 0.0 0.0 -0.7446048146276874
H 0.0 0.0 0.0
H 0.0 0.0 1.897777804526328
3

H 0.0 0.0 -0.7445873622212501
H 0.0 0.0 0.0
H 0.0 0.0 1.8987776522214843
3

H 0.0 0.0 -0.7445699098148129
H 0.0 0.0 0.0
H 0.0 0.0 1.899777499916641
3

H 0.0 0.0 -0.7445524574083756
H 0.0 0.0 0.0
H 0.0 0.0 1.9007773476117973
3

H 0.0 0.0 -0.7445524574083756
H 0.0 0.0 0.0
H 0.0 0.0 1.9017773476117972
3

H 0.0 0.0 -0.7445350050019384
H 0.0 0.0 0.0
H 0.0 0.0 1.9027771953069537
3

H 0.0 0.0 -0.7445175525955011
H 0.0 0.0 0.0
H 0.0 0.0 1.9037770430021104
3

H 0.0 0.0 -0.7445001001890639
H 0.0 0.0 0.0
H 0.0 0.0 1.9047768906972669
3

H 0.0 0.0 -0.7445001001890639
H 0.0 0.0 0.0
H 0.0 0.0 1.9057768906972667
3

H 0.0 0.0 -0.7444826477826266
H 0.0 0.0 0.0
H 0.0 0.0 1.9067767383924232
3

H 0.0 0.0 -0.7444651953761894
H 0.0 0.0 0.0
H 0.0 0.0 1.90777658608758
3

H 0.0 0.0 -0.7444477429697521
H 0.0 0.0 0.0
H 0.0 0.0 1.908776433782736
3

H 0.0 0.0 -0.7444477429697521
H 0.0 0.0 0.0
H 0.0 0.0 1.909776433782736
3

H 0.0 0.0 -0.7444302905633149
H 0.0 0.0 0.0
H 0.0 0.0 1.9107762814778928
3

H 0.0 0.0 -0.7444128381568776
H 0.0 0.0 0.0
H 0.0 0.0 1.911776129173049
3

H 0.0 0.0 -0.7443953857504404
H 0.0 0.0 0.0
H 0.0 0.0 1.9127759768682056
3

H 0.0 0.0 -0.7443953857504404
H 0.0 0.0 0.0
H 0.0 0.0 1.9137759768682052
3

H 0.0 0.0 -0.7443779333440032
H 0.0 0.0 0.0
H 0.0 0.0 1.914775824563362
3

H 0.0 0.0 -0.7443604809375659
H 0.0 0.0 0.0
H 0.0 0.0 1.9157756722585184
3

H 0.0 0.0 -0.7443430285311287
H 0.0 0.0 0.0
H 0.0 0.0 1.916775519953675
3

H 0.0 0.0 -0.7443430285311287
H 0.0 0.0 0.0
H 0.0 0.0 1.9177755199536748
3

H 0.0 0.0 -0.7443255761246914
H 0.0 0.0 0.0
H 0.0 0.0 1.9187753676488315
3

H 0.0 0.0 -0.7443081237182542
H 0.0 0.0 0.0
H 0.0 0.0 1.919775215343988
3

H 0.0 0.0 -0.7443081237182542
H 0.0 0.0 0.0
H 0.0 0.0 1.920775215343988
3

H 0.0 0.0 -0.7442906713118169
H 0.0 0.0 0.0
H 0.0 0.0 1.921775063039144
3

H 0.0 0.0 -0.7442732189053797
H 0.0 0.0 0.0
H 0.0 0.0 1.9227749107343008
3

H 0.0 0.0 -0.7442557664989424
H 0.0 0.0 0.0
H 0.0 0.0 1.923774758429457
3

H 0.0 0.0 -0.7442557664989424
H 0.0 0.0 0.0
H 0.0 0.0 1.924774758429457
3

H 0.0 0.0 -0.7442383140925052
H 0.0 0.0 0.0
H 0.0 0.0 1.9257746061246133
3

H 0.0 0.0 -0.7442208616860679
H 0.0 0.0 0.0
H 0.0 0.0 1.92677445381977
3

H 0.0 0.0 -0.7442208616860679
H 0.0 0.0 0.0
H 0.0 0.0 1.9277744538197696
3

H 0.0 0.0 -0.7442034092796307
H 0.0 0.0 0.0
H 0.0 0.0 1.9287743015149263
3

H 0.0 0.0 -0.7441859568731934
H 0.0 0.0 0.0
H 0.0 0.0 1.9297741492100828
3

H 0.0 0.0 -0.7441685044667562
H 0.0 0.0 0.0
H 0.0 0.0 1.9307739969052395
3

H 0.0 0.0 -0.7441685044667562
H 0.0 0.0 0.0
H 0.0 0.0 1.9317739969052392
3

H 0.0 0.0 -0.744151052060319
H 0.0 0.0 0.0
H 0.0 0.0 1.932773844600396
3

H 0.0 0.0 -0.7441335996538817
H 0.0 0.0 0.0
H 0.0 0.0 1.933773692295552
3

H 0.0 0.0 -0.7441335996538817
H 0.0 0.0 0.0
H 0.0 0.0 1.934773692295552
3

H 0.0 0.0 -0.7441161472474445
H 0.0 0.0 0.0
H 0.0 0.0 1.9357735399907088
3

H 0.0 0.0 -0.7440986948410072
H 0.0 0.0 0.0
H 0.0 0.0 1.936773387685865
3

H 0.0 0.0 -0.7440986948410072
H 0.0 0.0 0.0
H 0.0 0.0 1.937773387685865
3

H 0.0 0.0 -0.74408124243457
H 0.0 0.0 0.0
H 0.0 0.0 1.9387732353810212
3

H 0.0 0.0 -0.7440637900281327
H 0.0 0.0 0.0
H 0.0 0.0 1.939773083076178
3

H 0.0 0.0 -0.7440637900281327
H 0.0 0.0 0.0
H 0.0 0.0 1.9407730830761776
3

H 0.0 0.0 -0.7440463376216955
H 0.0 0.0 0.0
H 0.0 0.0 1.9417729307713345
3

H 0.0 0.0 -0.7440288852152582
H 0.0 0.0 0.0
H 0.0 0.0 1.9427727784664908
3

H 0.0 0.0 -0.7440288852152582
H 0.0 0.0 0.0
H 0.0 0.0 1.9437727784664909
3

H 0.0 0.0 -0.744011432808821
H 0.0 0.0 0.0
H 0.0 0.0 1.9447726261616471
3

H 0.0 0.0 -0.7439939804023837
H 0.0 0.0 0.0
H 0.0 0.0 1.945772473856804
3

H 0.0 0.0 -0.7439939804023837
H 0.0 0.0 0.0
H 0.0 0.0 1.9467724738568035
3

H 0.0 0.0 -0.7439765279959465
H 0.0 0.0 0.0
H 0.0 0.0 1.94777232155196
3

H 0.0 0.0 -0.7439590755895092
H 0.0 0.0 0.0
H 0.0 0.0 1.9487721692471165
3

H 0.0 0.0 -0.7439590755895092
H 0.0 0.0 0.0
H 0.0 0.0 1.9497721692471164
3

H 0.0 0.0 -0.743941623183072
H 0.0 0.0 0.0
H 0.0 0.0 1.9507720169422729
3

H 0.0 0.0 -0.7439241707766348
H 0.0 0.0 0.0
H 0.0 0.0 1.9517718646374291
3

H 0.0 0.0 -0.7439241707766348
H 0.0 0.0 0.0
H 0.0 0.0 1.9527718646374288
3

H 0.0 0.0 -0.7439067183701975
H 0.0 0.0 0.0
H 0.0 0.0 1.9537717123325855
3

H 0.0 0.0 -0.7438892659637603
H 0.0 0.0 0.0
H 0.0 0.0 1.9547715600277424
3

H 0.0 0.0 -0.7438892659637603
H 0.0 0.0 0.0
H 0.0 0.0 1.955771560027742
3

H 0.0 0.0 -0.743871813557323
H 0.0 0.0 0.0
H 0.0 0.0 1.9567714077228984
3

H 0.0 0.0 -0.743871813557323
H 0.0 0.0 0.0
H 0.0 0.0 1.9577714077228985
3

H 0.0 0.0 -0.7438543611508858
H 0.0 0.0 0.0
H 0.0 0.0 1.958771255418055
3

H 0.0 0.0 -0.7438369087444485
H 0.0 0.0 0.0
H 0.0 0.0 1.9597711031132117
3

H 0.0 0.0 -0.7438369087444485
H 0.0 0.0 0.0
H 0.0 0.0 1.9607711031132116
3

H 0.0 0.0 -0.7438194563380113
H 0.0 0.0 0.0
H 0.0 0.0 1.961770950808368
3

H 0.0 0.0 -0.743802003931574
H 0.0 0.0 0.0
H 0.0 0.0 1.9627707985035243
3

H 0.0 0.0 -0.743802003931574
H 0.0 0.0 0.0
H 0.0 0.0 1.963770798503524
3

H 0.0 0.0 -0.7437845515251368
H 0.0 0.0 0.0
H 0.0 0.0 1.9647706461986807
3

H 0.0 0.0 -0.7437670991186995
H 0.0 0.0 0.0
H 0.0 0.0 1.9657704938938367
3

H 0.0 0.0 -0.7437670991186995
H 0.0 0.0 0.0
H 0.0 0.0 1.966770493893837
3

H 0.0 0.0 -0.7437496467122623
H 0.0 0.0 0.0
H 0.0 0.0 1.9677703415889936
3

H 0.0 0.0 -0.7437496467122623
H 0.0 0.0 0.0
H 0.0 0.0 1.9687703415889932
3

H 0.0 0.0 -0.743732194305825
H 0.0 0.0 0.0
H 0.0 0.0 1.96977018928415
3

H 0.0 0.0 -0.7437147418993878
H 0.0 0.0 0.0
H 0.0 0.0 1.9707700369793064
3

H 0.0 0.0 -0.7437147418993878
H 0.0 0.0 0.0
H 0.0 0.0 1.9717700369793063
3

H 0.0 0.0 -0.7436972894929506
H 0.0 0.0 0.0
H 0.0 0.0 1.9727698846744628
3

H 0.0 0.0 -0.7436972894929506
H 0.0 0.0 0.0
H 0.0 0.0 1.973769884674463
3

H 0.0 0.0 -0.7436798370865133
H 0.0 0.0 0.0
H 0.0 0.0 1.9747697323696192
3

H 0.0 0.0 -0.7436623846800761
H 0.0 0.0 0.0
H 0.0 0.0 1.975769580064776
3

H 0.0 0.0 -0.7436623846800761
H 0.0 0.0 0.0
H 0.0 0.0 1.9767695800647755
3

H 0.0 0.0 -0.7436449322736388
H 0.0 0.0 0.0
H 0.0 0.0 1.977769427759932
3

H 0.0 0.0 -0.7436274798672016
H 0.0 0.0 0.0
H 0.0 0.0 1.9787692754550883
3

H 0.0 0.0 -0.7436274798672016
H 0.0 0.0 0.0
H 0.0 0.0 1.9797692754550884
3

H 0.0 0.0 -0.7436100274607643
H 0.0 0.0 0.0
H 0.0 0.0 1.980769123150245
3

H 0.0 0.0 -0.7436100274607643
H 0.0 0.0 0.0
H 0.0 0.0 1.9817691231502448
3

H 0.0 0.0 -0.7435925750543271
H 0.0 0.0 0.0
H 0.0 0.0 1.9827689708454013
3

H 0.0 0.0 -0.7435925750543271
H 0.0 0.0 0.0
H 0.0 0.0 1.9837689708454007
3

H 0.0 0.0 -0.7435751226478898
H 0.0 0.0 0.0
H 0.0 0.0 1.9847688185405576
3

H 0.0 0.0 -0.7435751226478898
H 0.0 0.0 0.0
H 0.0 0.0 1.985768818540557
3

H 0.0 0.0 -0.7435576702414526
H 0.0 0.0 0.0
H 0.0 0.0 1.986768666235714
3

H 0.0 0.0 -0.7435402178350153
H 0.0 0.0 0.0
H 0.0 0.0 1.9877685139308705
3

H 0.0 0.0 -0.7435402178350153
H 0.0 0.0 0.0
H 0.0 0.0 1.9887685139308704
3

H 0.0 0.0 -0.7435227654285781
H 0.0 0.0 0.0
H 0.0 0.0 1.9897683616260269
3

H 0.0 0.0 -0.7435227654285781
H 0.0 0.0 0.0
H 0.0 0.0 1.9907683616260268
3

H 0.0 0.0 -0.7435053130221408
H 0.0 0.0 0.0
H 0.0 0.0 1.9917682093211837
3

H 0.0 0.0 -0.7435053130221408
H 0.0 0.0 0.0
H 0.0 0.0 1.9927682093211831
3

H 0.0 0.0 -0.7434878606157036
H 0.0 0.0 0.0
H 0.0 0.0 1.99376805701634
3

H 0.0 0.0 -0.7434704082092664
H 0.0 0.0 0.0
H 0.0 0.0 1.994767904711496
3

H 0.0 0.0 -0.7434704082092664
H 0.0 0.0 0.0
H 0.0 0.0 1.995767904711496
3

H 0.0 0.0 -0.7434529558028291
H 0.0 0.0 0.0
H 0.0 0.0 1.9967677524066525
3

H 0.0 0.0 -0.7434529558028291
H 0.0 0.0 0.0
H 0.0 0.0 1.9977677524066524
3

H 0.0 0.0 -0.7434355033963919
H 0.0 0.0 0.0
H 0.0 0.0 1.9987676001018089
3

H 0.0 0.0 -0.7434355033963919
H 0.0 0.0 0.0
H 0.0 0.0 1.9997676001018088
3

H 0.0 0.0 -0.7434180509899546
H 0.0 0.0 0.0
H 0.0 0.0 2.000767447796965
3

H 0.0 0.0 -0.7434005985835174
H 0.0 0.0 0.0
H 0.0 0.0 2.001767295492121
3

H 0.0 0.0 -0.7434005985835174
H 0.0 0.0 0.0
H 0.0 0.0 2.0027672954921214
3

H 0.0 0.0 -0.7433831461770801
H 0.0 0.0 0.0
H 0.0 0.0 2.003767143187278
3

H 0.0 0.0 -0.7433831461770801
H 0.0 0.0 0.0
H 0.0 0.0 2.004767143187278
3

H 0.0 0.0 -0.7433656937706429
H 0.0 0.0 0.0
H 0.0 0.0 2.0057669908824343
3

H 0.0 0.0 -0.7433656937706429
H 0.0 0.0 0.0
H 0.0 0.0 2.006766990882434
3

H 0.0 0.0 -0.7433482413642056
H 0.0 0.0 0.0
H 0.0 0.0 2.00776683857759
3

H 0.0 0.0 -0.7433482413642056
H 0.0 0.0 0.0
H 0.0 0.0 2.0087668385775905
3

H 0.0 0.0 -0.7433307889577684
H 0.0 0.0 0.0
H 0.0 0.0 2.009766686272747
3

H 0.0 0.0 -0.7433307889577684
H 0.0 0.0 0.0
H 0.0 0.0 2.010766686272747
3

H 0.0 0.0 -0.7433133365513311
H 0.0 0.0 0.0
H 0.0 0.0 2.0117665339679034
3

H 0.0 0.0 -0.7433133365513311
H 0.0 0.0 0.0
H 0.0 0.0 2.0127665339679037
3

H 0.0 0.0 -0.7432958841448939
H 0.0 0.0 0.0
H 0.0 0.0 2.01376638166306
3

H 0.0 0.0 -0.7432958841448939
H 0.0 0.0 0.0
H 0.0 0.0 2.01476638166306
3

H 0.0 0.0 -0.7432784317384566
H 0.0 0.0 0.0
H 0.0 0.0 2.015766229358216
3

H 0.0 0.0 -0.7432784317384566
H 0.0 0.0 0.0
H 0.0 0.0 2.016766229358216
3

H 0.0 0.0 -0.7432609793320194
H 0.0 0.0 0.0
H 0.0 0.0 2.0177660770533725
3

H 0.0 0.0 -0.7432435269255822
H 0.0 0.0 0.0
H 0.0 0.0 2.018765924748529
3

H 0.0 0.0 -0.7432435269255822
H 0.0 0.0 0.0
H 0.0 0.0 2.019765924748529
3

H 0.0 0.0 -0.7432260745191449
H 0.0 0.0 0.0
H 0.0 0.0 2.0207657724436854
3

H 0.0 0.0 -0.7432260745191449
H 0.0 0.0 0.0
H 0.0 0.0 2.0217657724436853
3

H 0.0 0.0 -0.7432086221127077
H 0.0 0.0 0.0
H 0.0 0.0 2.0227656201388418
3

H 0.0 0.0 -0.7432086221127077
H 0.0 0.0 0.0
H 0.0 0.0 2.0237656201388416
3

H 0.0 0.0 -0.7431911697062704
H 0.0 0.0 0.0
H 0.0 0.0 2.024765467833998
3

H 0.0 0.0 -0.7431911697062704
H 0.0 0.0 0.0
H 0.0 0.0 2.025765467833998
3

H 0.0 0.0 -0.7431737172998332
H 0.0 0.0 0.0
H 0.0 0.0 2.0267653155291545
3

H 0.0 0.0 -0.7431737172998332
H 0.0 0.0 0.0
H 0.0 0.0 2.0277653155291544
3

H 0.0 0.0 -0.7431562648933959
H 0.0 0.0 0.0
H 0.0 0.0 2.028765163224311
3

H 0.0 0.0 -0.7431562648933959
H 0.0 0.0 0.0
H 0.0 0.0 2.0297651632243108
3

H 0.0 0.0 -0.7431388124869587
H 0.0 0.0 0.0
H 0.0 0.0 2.0307650109194677
3

H 0.0 0.0 -0.7431388124869587
H 0.0 0.0 0.0
H 0.0 0.0 2.031765010919467
3

H 0.0 0.0 -0.7431213600805214
H 0.0 0.0 0.0
H 0.0 0.0 2.032764858614624
3

H 0.0 0.0 -0.7431213600805214
H 0.0 0.0 0.0
H 0.0 0.0 2.0337648586146235
3

H 0.0 0.0 -0.7431039076740842
H 0.0 0.0 0.0
H 0.0 0.0 2.03476470630978
3

H 0.0 0.0 -0.7431039076740842
H 0.0 0.0 0.0
H 0.0 0.0 2.03576470630978
3

H 0.0 0.0 -0.7430864552676469
H 0.0 0.0 0.0
H 0.0 0.0 2.0367645540049364
3

H 0.0 0.0 -0.7430864552676469
H 0.0 0.0 0.0
H 0.0 0.0 2.0377645540049363
3

H 0.0 0.0 -0.7430864552676469
H 0.0 0.0 0.0
H 0.0 0.0 2.038764554004936
3

H 0.0 0.0 -0.7430690028612097
H 0.0 0.0 0.0
H 0.0 0.0 2.0397644017000927
3

H 0.0 0.0 -0.7430515504547724
H 0.0 0.0 0.0
H 0.0 0.0 2.040764249395249
3

H 0.0 0.0 -0.7430515504547724
H 0.0 0.0 0.0
H 0.0 0.0 2.041764249395249
3

H 0.0 0.0 -0.7430340980483352
H 0.0 0.0 0.0
H 0.0 0.0 2.042764097090405
3

H 0.0 0.0 -0.7430340980483352
H 0.0 0.0 0.0
H 0.0 0.0 2.0437640970904054
3

H 0.0 0.0 -0.743016645641898
H 0.0 0.0 0.0
H 0.0 0.0 2.044763944785562
3

H 0.0 0.0 -0.743016645641898
H 0.0 0.0 0.0
H 0.0 0.0 2.045763944785562
3

H 0.0 0.0 -0.743016645641898
H 0.0 0.0 0.0
H 0.0 0.0 2.0467639447855617
3

H 0.0 0.0 -0.7429991932354607
H 0.0 0.0 0.0
H 0.0 0.0 2.047763792480718
3

H 0.0 0.0 -0.7429991932354607
H 0.0 0.0 0.0
H 0.0 0.0 2.048763792480718
3

H 0.0 0.0 -0.7429817408290235
H 0.0 0.0 0.0
H 0.0 0.0 2.0497636401758745
3

H 0.0 0.0 -0.7429817408290235
H 0.0 0.0 0.0
H 0.0 0.0 2.0507636401758744
3

H 0.0 0.0 -0.7429642884225862
H 0.0 0.0 0.0
H 0.0 0.0 2.051763487871031
3

H 0.0 0.0 -0.7429642884225862
H 0.0 0.0 0.0
H 0.0 0.0 2.052763487871031
3

H 0.0 0.0 -0.742946836016149
H 0.0 0.0 0.0
H 0.0 0.0 2.0537633355661877
3

H 0.0 0.0 -0.742946836016149
H 0.0 0.0 0.0
H 0.0 0.0 2.054763335566187
3

H 0.0 0.0 -0.742946836016149
H 0.0 0.0 0.0
H 0.0 0.0 2.055763335566187
3

H 0.0 0.0 -0.7429293836097117
H 0.0 0.0 0.0
H 0.0 0.0 2.056763183261344
3

H 0.0 0.0 -0.7429293836097117
H 0.0 0.0 0.0
H 0.0 0.0 2.0577631832613434
3

H 0.0 0.0 -0.7429119312032745
H 0.0 0.0 0.0
H 0.0 0.0 2.0587630309565
3

H 0.0 0.0 -0.7429119312032745
H 0.0 0.0 0.0
H 0.0 0.0 2.0597630309565
3

H 0.0 0.0 -0.7428944787968372
H 0.0 0.0 0.0
H 0.0 0.0 2.0607628786516563
3

H 0.0 0.0 -0.7428944787968372
H 0.0 0.0 0.0
H 0.0 0.0 2.061762878651656
3

H 0.0 0.0 -0.7428770263904
H 0.0 0.0 0.0
H 0.0 0.0 2.0627627263468127
3

H 0.0 0.0 -0.7428770263904
H 0.0 0.0 0.0
H 0.0 0.0 2.063762726346813
3

H 0.0 0.0 -0.7428595739839627
H 0.0 0.0 0.0
H 0.0 0.0 2.064762574041969
3

H 0.0 0.0 -0.7428595739839627
H 0.0 0.0 0.0
H 0.0 0.0 2.065762574041969
3

H 0.0 0.0 -0.7428421215775255
H 0.0 0.0 0.0
H 0.0 0.0 2.066762421737125
3

H 0.0 0.0 -0.7428421215775255
H 0.0 0.0 0.0
H 0.0 0.0 2.0677624217371253
3

H 0.0 0.0 -0.7428421215775255
H 0.0 0.0 0.0
H 0.0 0.0 2.068762421737125
3

H 0.0 0.0 -0.7428246691710882
H 0.0 0.0 0.0
H 0.0 0.0 2.0697622694322817
3

H 0.0 0.0 -0.7428246691710882
H 0.0 0.0 0.0
H 0.0 0.0 2.0707622694322816
3

H 0.0 0.0 -0.742807216764651
H 0.0 0.0 0.0
H 0.0 0.0 2.071762117127438
3

H 0.0 0.0 -0.742807216764651
H 0.0 0.0 0.0
H 0.0 0.0 2.072762117127438
3

H 0.0 0.0 -0.7427897643582138
H 0.0 0.0 0.0
H 0.0 0.0 2.0737619648225945
3

H 0.0 0.0 -0.7427897643582138
H 0.0 0.0 0.0
H 0.0 0.0 2.0747619648225943
3

H 0.0 0.0 -0.7427897643582138
H 0.0 0.0 0.0
H 0.0 0.0 2.0757619648225942
3

H 0.0 0.0 -0.7427723119517765
H 0.0 0.0 0.0
H 0.0 0.0 2.0767618125177507
3

H 0.0 0.0 -0.7427723119517765
H 0.0 0.0 0.0
H 0.0 0.0 2.0777618125177506
3

H 0.0 0.0 -0.7427548595453393
H 0.0 0.0 0.0
H 0.0 0.0 2.078761660212907
3

H 0.0 0.0 -0.7427548595453393
H 0.0 0.0 0.0
H 0.0 0.0 2.079761660212907
3

H 0.0 0.0 -0.7427548595453393
H 0.0 0.0 0.0
H 0.0 0.0 2.080761660212907
3

H 0.0 0.0 -0.742737407138902
H 0.0 0.0 0.0
H 0.0 0.0 2.081761507908064
3

H 0.0 0.0 -0.742737407138902
H 0.0 0.0 0.0
H 0.0 0.0 2.0827615079080632
3

H 0.0 0.0 -0.7427199547324648
H 0.0 0.0 0.0
H 0.0 0.0 2.08376135560322
3

H 0.0 0.0 -0.7427199547324648
H 0.0 0.0 0.0
H 0.0 0.0 2.08476135560322
3

H 0.0 0.0 -0.7427025023260275
H 0.0 0.0 0.0
H 0.0 0.0 2.085761203298376
3

H 0.0 0.0 -0.7427025023260275
H 0.0 0.0 0.0
H 0.0 0.0 2.086761203298376
3

H 0.0 0.0 -0.7427025023260275
H 0.0 0.0 0.0
H 0.0 0.0 2.087761203298376
3

H 0.0 0.0 -0.7426850499195903
H 0.0 0.0 0.0
H 0.0 0.0 2.0887610509935324
3

H 0.0 0.0 -0.7426850499195903
H 0.0 0.0 0.0
H 0.0 0.0 2.0897610509935323
3

H 0.0 0.0 -0.742667597513153
H 0.0 0.0 0.0
H 0.0 0.0 2.0907608986886888
3

H 0.0 0.0 -0.742667597513153
H 0.0 0.0 0.0
H 0.0 0.0 2.0917608986886886
3

H 0.0 0.0 -0.742667597513153
H 0.0 0.0 0.0
H 0.0 0.0 2.0927608986886885
3

H 0.0 0.0 -0.7426501451067158
H 0.0 0.0 0.0
H 0.0 0.0 2.093760746383845
3

H 0.0 0.0 -0.7426501451067158
H 0.0 0.0 0.0
H 0.0 0.0 2.094760746383845
3

H 0.0 0.0 -0.7426326927002785
H 0.0 0.0 0.0
H 0.0 0.0 2.0957605940790014
3

H 0.0 0.0 -0.7426326927002785
H 0.0 0.0 0.0
H 0.0 0.0 2.0967605940790013
3

H 0.0 0.0 -0.7426326927002785
H 0.0 0.0 0.0
H 0.0 0.0 2.097760594079001
3

H 0.0 0.0 -0.7426152402938413
H 0.0 0.0 0.0
H 0.0 0.0 2.0987604417741577
3

H 0.0 0.0 -0.7426152402938413
H 0.0 0.0 0.0
H 0.0 0.0 2.099760441774157
3

H 0.0 0.0 -0.742597787887404
H 0.0 0.0 0.0
H 0.0 0.0 2.100760289469314
3

H 0.0 0.0 -0.742597787887404
H 0.0 0.0 0.0
H 0.0 0.0 2.101760289469314
3

H 0.0 0.0 -0.7425803354809668
H 0.0 0.0 0.0
H 0.0 0.0 2.1027601371644704
3

H 0.0 0.0 -0.7425803354809668
H 0.0 0.0 0.0
H 0.0 0.0 2.1037601371644703
3

H 0.0 0.0 -0.7425803354809668
H 0.0 0.0 0.0
H 0.0 0.0 2.10476013716447
3

H 0.0 0.0 -0.7425628830745296
H 0.0 0.0 0.0
H 0.0 0.0 2.1057599848596267
3

H 0.0 0.0 -0.7425628830745296
H 0.0 0.0 0.0
H 0.0 0.0 2.1067599848596266
3

H 0.0 0.0 -0.7425628830745296
H 0.0 0.0 0.0
H 0.0 0.0 2.1077599848596265
3

H 0.0 0.0 -0.7425454306680923
H 0.0 0.0 0.0
H 0.0 0.0 2.108759832554783
3

H 0.0 0.0 -0.7425454306680923
H 0.0 0.0 0.0
H 0.0 0.0 2.109759832554783
3

H 0.0 0.0 -0.7425454306680923
H 0.0 0.0 0.0
H 0.0 0.0 2.1107598325547827
3

H 0.0 0.0 -0.7425279782616551
H 0.0 0.0 0.0
H 0.0 0.0 2.111759680249939
3

H 0.0 0.0 -0.7425279782616551
H 0.0 0.0 0.0
H 0.0 0.0 2.112759680249939
3

H 0.0 0.0 -0.7425105258552178
H 0.0 0.0 0.0
H 0.0 0.0 2.113759527945096
3

H 0.0 0.0 -0.7425105258552178
H 0.0 0.0 0.0
H 0.0 0.0 2.1147595279450955
3

H 0.0 0.0 -0.7425105258552178
H 0.0 0.0 0.0
H 0.0 0.0 2.115759527945096
3

H 0.0 0.0 -0.7424930734487806
H 0.0 0.0 0.0
H 0.0 0.0 2.116759375640252
3

H 0.0 0.0 -0.7424930734487806
H 0.0 0.0 0.0
H 0.0 0.0 2.117759375640252
3

H 0.0 0.0 -0.7424756210423433
H 0.0 0.0 0.0
H 0.0 0.0 2.118759223335408
3

H 0.0 0.0 -0.7424756210423433
H 0.0 0.0 0.0
H 0.0 0.0 2.119759223335408
3

H 0.0 0.0 -0.7424756210423433
H 0.0 0.0 0.0
H 0.0 0.0 2.120759223335408
3

H 0.0 0.0 -0.7424581686359061
H 0.0 0.0 0.0
H 0.0 0.0 2.1217590710305645
3

H 0.0 0.0 -0.7424581686359061
H 0.0 0.0 0.0
H 0.0 0.0 2.1227590710305644
3

H 0.0 0.0 -0.7424581686359061
H 0.0 0.0 0.0
H 0.0 0.0 2.1237590710305643
3

H 0.0 0.0 -0.7424407162294688
H 0.0 0.0 0.0
H 0.0 0.0 2.1247589187257208
3

H 0.0 0.0 -0.7424407162294688
H 0.0 0.0 0.0
H 0.0 0.0 2.1257589187257206
3

H 0.0 0.0 -0.7424232638230316
H 0.0 0.0 0.0
H 0.0 0.0 2.126758766420877
3

H 0.0 0.0 -0.7424232638230316
H 0.0 0.0 0.0
H 0.0 0.0 2.127758766420877
3

H 0.0 0.0 -0.7424232638230316
H 0.0 0.0 0.0
H 0.0 0.0 2.128758766420877
3

H 0.0 0.0 -0.7424058114165943
H 0.0 0.0 0.0
H 0.0 0.0 2.1297586141160334
3

H 0.0 0.0 -0.7424058114165943
H 0.0 0.0 0.0
H 0.0 0.0 2.1307586141160333
3

H 0.0 0.0 -0.7424058114165943
H 0.0 0.0 0.0
H 0.0 0.0 2.131758614116033
3

H 0.0 0.0 -0.7423883590101571
H 0.0 0.0 0.0
H 0.0 0.0 2.1327584618111897
3

H 0.0 0.0 -0.7423883590101571
H 0.0 0.0 0.0
H 0.0 0.0 2.1337584618111896
3

H 0.0 0.0 -0.7423883590101571
H 0.0 0.0 0.0
H 0.0 0.0 2.134758461811189
3

H 0.0 0.0 -0.7423709066037198
H 0.0 0.0 0.0
H 0.0 0.0 2.135758309506346
3

H 0.0 0.0 -0.7423709066037198
H 0.0 0.0 0.0
H 0.0 0.0 2.136758309506346
3

H 0.0 0.0 -0.7423709066037198
H 0.0 0.0 0.0
H 0.0 0.0 2.1377583095063457
3

H 0.0 0.0 -0.7423534541972826
H 0.0 0.0 0.0
H 0.0 0.0 2.138758157201502
3

H 0.0 0.0 -0.7423534541972826
H 0.0 0.0 0.0
H 0.0 0.0 2.139758157201502
3

H 0.0 0.0 -0.7423534541972826
H 0.0 0.0 0.0
H 0.0 0.0 2.140758157201502
3

H 0.0 0.0 -0.7423360017908454
H 0.0 0.0 0.0
H 0.0 0.0 2.1417580048966585
3

H 0.0 0.0 -0.7423360017908454
H 0.0 0.0 0.0
H 0.0 0.0 2.1427580048966584
3

H 0.0 0.0 -0.7423185493844081
H 0.0 0.0 0.0
H 0.0 0.0 2.143757852591815
3

H 0.0 0.0 -0.7423185493844081
H 0.0 0.0 0.0
H 0.0 0.0 2.1447578525918147
3

H 0.0 0.0 -0.7423185493844081
H 0.0 0.0 0.0
H 0.0 0.0 2.1457578525918146
3

H 0.0 0.0 -0.7423185493844081
H 0.0 0.0 0.0
H 0.0 0.0 2.1467578525918145
3

H 0.0 0.0 -0.7423010969779709
H 0.0 0.0 0.0
H 0.0 0.0 2.147757700286971
3

H 0.0 0.0 -0.7423010969779709
H 0.0 0.0 0.0
H 0.0 0.0 2.148757700286971
3

H 0.0 0.0 -0.7422836445715336
H 0.0 0.0 0.0
H 0.0 0.0 2.149757547982128
3

H 0.0 0.0 -0.7422836445715336
H 0.0 0.0 0.0
H 0.0 0.0 2.1507575479821277
3

H 0.0 0.0 -0.7422836445715336
H 0.0 0.0 0.0
H 0.0 0.0 2.151757547982127
3

H 0.0 0.0 -0.7422661921650964
H 0.0 0.0 0.0
H 0.0 0.0 2.152757395677284
3

H 0.0 0.0 -0.7422661921650964
H 0.0 0.0 0.0
H 0.0 0.0 2.1537573956772835
3

H 0.0 0.0 -0.7422661921650964
H 0.0 0.0 0.0
H 0.0 0.0 2.1547573956772834
3

H 0.0 0.0 -0.7422487397586591
H 0.0 0.0 0.0
H 0.0 0.0 2.15575724337244
3

H 0.0 0.0 -0.7422487397586591
H 0.0 0.0 0.0
H 0.0 0.0 2.15675724337244
3

H 0.0 0.0 -0.7422487397586591
H 0.0 0.0 0.0
H 0.0 0.0 2.15775724337244
3

H 0.0 0.0 -0.7422487397586591
H 0.0 0.0 0.0
H 0.0 0.0 2.15875724337244
3

H 0.0 0.0 -0.7422312873522219
H 0.0 0.0 0.0
H 0.0 0.0 2.159757091067596
3

H 0.0 0.0 -0.7422312873522219
H 0.0 0.0 0.0
H 0.0 0.0 2.160757091067596
3

H 0.0 0.0 -0.7422312873522219
H 0.0 0.0 0.0
H 0.0 0.0 2.161757091067596
3

H 0.0 0.0 -0.7422138349457846
H 0.0 0.0 0.0
H 0.0 0.0 2.1627569387627523
3

H 0.0 0.0 -0.7422138349457846
H 0.0 0.0 0.0
H 0.0 0.0 2.163756938762752
3

H 0.0 0.0 -0.7422138349457846
H 0.0 0.0 0.0
H 0.0 0.0 2.164756938762752
3

H 0.0 0.0 -0.7421963825393474
H 0.0 0.0 0.0
H 0.0 0.0 2.1657567864579086
3

H 0.0 0.0 -0.7421963825393474
H 0.0 0.0 0.0
H 0.0 0.0 2.1667567864579085
3

H 0.0 0.0 -0.7421963825393474
H 0.0 0.0 0.0
H 0.0 0.0 2.1677567864579084
3

H 0.0 0.0 -0.7421789301329101
H 0.0 0.0 0.0
H 0.0 0.0 2.168756634153065
3

H 0.0 0.0 -0.7421789301329101
H 0.0 0.0 0.0
H 0.0 0.0 2.1697566341530647
3

H 0.0 0.0 -0.7421789301329101
H 0.0 0.0 0.0
H 0.0 0.0 2.1707566341530646
3

H 0.0 0.0 -0.7421614777264729
H 0.0 0.0 0.0
H 0.0 0.0 2.171756481848221
3

H 0.0 0.0 -0.7421614777264729
H 0.0 0.0 0.0
H 0.0 0.0 2.172756481848221
3

H 0.0 0.0 -0.7421614777264729
H 0.0 0.0 0.0
H 0.0 0.0 2.173756481848221
3

H 0.0 0.0 -0.7421440253200356
H 0.0 0.0 0.0
H 0.0 0.0 2.1747563295433774
3

H 0.0 0.0 -0.7421440253200356
H 0.0 0.0 0.0
H 0.0 0.0 2.1757563295433773
3

H 0.0 0.0 -0.7421440253200356
H 0.0 0.0 0.0
H 0.0 0.0 2.176756329543377
3

H 0.0 0.0 -0.7421440253200356
H 0.0 0.0 0.0
H 0.0 0.0 2.177756329543377
3

H 0.0 0.0 -0.7421265729135984
H 0.0 0.0 0.0
H 0.0 0.0 2.178756177238533
3

H 0.0 0.0 -0.7421265729135984
H 0.0 0.0 0.0
H 0.0 0.0 2.179756177238533
3

H 0.0 0.0 -0.7421265729135984
H 0.0 0.0 0.0
H 0.0 0.0 2.1807561772385333
3

H 0.0 0.0 -0.7421091205071612
H 0.0 0.0 0.0
H 0.0 0.0 2.18175602493369
3

H 0.0 0.0 -0.7421091205071612
H 0.0 0.0 0.0
H 0.0 0.0 2.1827560249336897
3

H 0.0 0.0 -0.7421091205071612
H 0.0 0.0 0.0
H 0.0 0.0 2.1837560249336896
3

H 0.0 0.0 -0.7420916681007239
H 0.0 0.0 0.0
H 0.0 0.0 2.184755872628846
3

H 0.0 0.0 -0.7420916681007239
H 0.0 0.0 0.0
H 0.0 0.0 2.185755872628846
3

H 0.0 0.0 -0.7420916681007239
H 0.0 0.0 0.0
H 0.0 0.0 2.186755872628846
3

H 0.0 0.0 -0.7420916681007239
H 0.0 0.0 0.0
H 0.0 0.0 2.1877558726288457
3

H 0.0 0.0 -0.7420742156942867
H 0.0 0.0 0.0
H 0.0 0.0 2.1887557203240022
3

H 0.0 0.0 -0.7420742156942867
H 0.0 0.0 0.0
H 0.0 0.0 2.189755720324002
3

H 0.0 0.0 -0.7420742156942867
H 0.0 0.0 0.0
H 0.0 0.0 2.190755720324002
3

H 0.0 0.0 -0.7420567632878494
H 0.0 0.0 0.0
H 0.0 0.0 2.1917555680191585
3

H 0.0 0.0 -0.7420567632878494
H 0.0 0.0 0.0
H 0.0 0.0 2.1927555680191584
3

H 0.0 0.0 -0.7420567632878494
H 0.0 0.0 0.0
H 0.0 0.0 2.1937555680191583
3

H 0.0 0.0 -0.7420393108814122
H 0.0 0.0 0.0
H 0.0 0.0 2.1947554157143148
3

H 0.0 0.0 -0.7420393108814122
H 0.0 0.0 0.0
H 0.0 0.0 2.1957554157143147
3

H 0.0 0.0 -0.7420393108814122
H 0.0 0.0 0.0
H 0.0 0.0 2.1967554157143145
3

H 0.0 0.0 -0.7420393108814122
H 0.0 0.0 0.0
H 0.0 0.0 2.1977554157143144
3

H 0.0 0.0 -0.7420218584749749
H 0.0 0.0 0.0
H 0.0 0.0 2.198755263409471
3

H 0.0 0.0 -0.7420218584749749
H 0.0 0.0 0.0
H 0.0 0.0 2.199755263409471
3

H 0.0 0.0 -0.7420218584749749
H 0.0 0.0 0.0
H 0.0 0.0 2.2007552634094707
3

H 0.0 0.0 -0.7420044060685377
H 0.0 0.0 0.0
H 0.0 0.0 2.201755111104627
3

H 0.0 0.0 -0.7420044060685377
H 0.0 0.0 0.0
H 0.0 0.0 2.202755111104627
3

H 0.0 0.0 -0.7420044060685377
H 0.0 0.0 0.0
H 0.0 0.0 2.203755111104627
3

H 0.0 0.0 -0.7420044060685377
H 0.0 0.0 0.0
H 0.0 0.0 2.204755111104627
3

H 0.0 0.0 -0.7419869536621004
H 0.0 0.0 0.0
H 0.0 0.0 2.205754958799784
3

H 0.0 0.0 -0.7419869536621004
H 0.0 0.0 0.0
H 0.0 0.0 2.2067549587997832
3

H 0.0 0.0 -0.7419869536621004
H 0.0 0.0 0.0
H 0.0 0.0 2.207754958799783
3

H 0.0 0.0 -0.7419695012556632
H 0.0 0.0 0.0
H 0.0 0.0 2.20875480649494
3

H 0.0 0.0 -0.7419695012556632
H 0.0 0.0 0.0
H 0.0 0.0 2.2097548064949395
3

H 0.0 0.0 -0.7419695012556632
H 0.0 0.0 0.0
H 0.0 0.0 2.2107548064949394
3

H 0.0 0.0 -0.7419695012556632
H 0.0 0.0 0.0
H 0.0 0.0 2.2117548064949397
3

H 0.0 0.0 -0.7419520488492259
H 0.0 0.0 0.0
H 0.0 0.0 2.212754654190096
3

H 0.0 0.0 -0.7419520488492259
H 0.0 0.0 0.0
H 0.0 0.0 2.213754654190096
3

H 0.0 0.0 -0.7419520488492259
H 0.0 0.0 0.0
H 0.0 0.0 2.2147546541900955
3

H 0.0 0.0 -0.7419520488492259
H 0.0 0.0 0.0
H 0.0 0.0 2.2157546541900954
3

H 0.0 0.0 -0.7419345964427887
H 0.0 0.0 0.0
H 0.0 0.0 2.216754501885252
3

H 0.0 0.0 -0.7419345964427887
H 0.0 0.0 0.0
H 0.0 0.0 2.217754501885252
3

H 0.0 0.0 -0.7419345964427887
H 0.0 0.0 0.0
H 0.0 0.0 2.218754501885252
3

H 0.0 0.0 -0.7419171440363515
H 0.0 0.0 0.0
H 0.0 0.0 2.219754349580408
3

H 0.0 0.0 -0.7419171440363515
H 0.0 0.0 0.0
H 0.0 0.0 2.220754349580408
3

H 0.0 0.0 -0.7419171440363515
H 0.0 0.0 0.0
H 0.0 0.0 2.221754349580408
3

H 0.0 0.0 -0.7419171440363515
H 0.0 0.0 0.0
H 0.0 0.0 2.222754349580408
3

H 0.0 0.0 -0.7418996916299142
H 0.0 0.0 0.0
H 0.0 0.0 2.2237541972755643
3

H 0.0 0.0 -0.7418996916299142
H 0.0 0.0 0.0
H 0.0 0.0 2.224754197275564
3

H 0.0 0.0 -0.7418996916299142
H 0.0 0.0 0.0
H 0.0 0.0 2.225754197275564
3

H 0.0 0.0 -0.7418996916299142
H 0.0 0.0 0.0
H 0.0 0.0 2.226754197275564
3

H 0.0 0.0 -0.7418996916299142
H 0.0 0.0 0.0
H 0.0 0.0 2.227754197275564
3

H 0.0 0.0 -0.741882239223477
H 0.0 0.0 0.0
H 0.0 0.0 2.2287540449707204
3

H 0.0 0.0 -0.741882239223477
H 0.0 0.0 0.0
H 0.0 0.0 2.2297540449707203
3

H 0.0 0.0 -0.741882239223477
H 0.0 0.0 0.0
H 0.0 0.0 2.23075404497072
3

H 0.0 0.0 -0.7418647868170397
H 0.0 0.0 0.0
H 0.0 0.0 2.2317538926658766
3

H 0.0 0.0 -0.7418647868170397
H 0.0 0.0 0.0
H 0.0 0.0 2.2327538926658765
3

H 0.0 0.0 -0.7418647868170397
H 0.0 0.0 0.0
H 0.0 0.0 2.2337538926658764
3

H 0.0 0.0 -0.7418647868170397
H 0.0 0.0 0.0
H 0.0 0.0 2.2347538926658763
3

H 0.0 0.0 -0.7418473344106025
H 0.0 0.0 0.0
H 0.0 0.0 2.235753740361033
3

H 0.0 0.0 -0.7418473344106025
H 0.0 0.0 0.0
H 0.0 0.0 2.2367537403610327
3

H 0.0 0.0 -0.7418473344106025
H 0.0 0.0 0.0
H 0.0 0.0 2.2377537403610326
3

H 0.0 0.0 -0.7418473344106025
H 0.0 0.0 0.0
H 0.0 0.0 2.2387537403610325
3

H 0.0 0.0 -0.7418298820041652
H 0.0 0.0 0.0
H 0.0 0.0 2.239753588056189
3

H 0.0 0.0 -0.7418298820041652
H 0.0 0.0 0.0
H 0.0 0.0 2.240753588056189
3

H 0.0 0.0 -0.7418298820041652
H 0.0 0.0 0.0
H 0.0 0.0 2.2417535880561887
3

H 0.0 0.0 -0.741812429597728
H 0.0 0.0 0.0
H 0.0 0.0 2.242753435751345
3

H 0.0 0.0 -0.741812429597728
H 0.0 0.0 0.0
H 0.0 0.0 2.243753435751345
3

H 0.0 0.0 -0.741812429597728
H 0.0 0.0 0.0
H 0.0 0.0 2.244753435751345
3

H 0.0 0.0 -0.741812429597728
H 0.0 0.0 0.0
H 0.0 0.0 2.245753435751345
3

H 0.0 0.0 -0.741812429597728
H 0.0 0.0 0.0
H 0.0 0.0 2.246753435751345
3

H 0.0 0.0 -0.7417949771912907
H 0.0 0.0 0.0
H 0.0 0.0 2.2477532834465013
3

H 0.0 0.0 -0.7417949771912907
H 0.0 0.0 0.0
H 0.0 0.0 2.248753283446501
3

H 0.0 0.0 -0.7417949771912907
H 0.0 0.0 0.0
H 0.0 0.0 2.249753283446501
3

H 0.0 0.0 -0.7417949771912907
H 0.0 0.0 0.0
H 0.0 0.0 2.250753283446501
3

H 0.0 0.0 -0.7417949771912907
H 0.0 0.0 0.0
H 0.0 0.0 2.251753283446501
3

H 0.0 0.0 -0.7417775247848535
H 0.0 0.0 0.0
H 0.0 0.0 2.2527531311416573
3

H 0.0 0.0 -0.7417775247848535
H 0.0 0.0 0.0
H 0.0 0.0 2.253753131141657
3

H 0.0 0.0 -0.7417775247848535
H 0.0 0.0 0.0
H 0.0 0.0 2.254753131141657
3

H 0.0 0.0 -0.7417775247848535
H 0.0 0.0 0.0
H 0.0 0.0 2.255753131141657
3

H 0.0 0.0 -0.7417600723784162
H 0.0 0.0 0.0
H 0.0 0.0 2.256752978836813
3

H 0.0 0.0 -0.7417600723784162
H 0.0 0.0 0.0
H 0.0 0.0 2.2577529788368134
3

H 0.0 0.0 -0.7417600723784162
H 0.0 0.0 0.0
H 0.0 0.0 2.2587529788368133
3

H 0.0 0.0 -0.741742619971979
H 0.0 0.0 0.0
H 0.0 0.0 2.2597528265319697
3

H 0.0 0.0 -0.741742619971979
H 0.0 0.0 0.0
H 0.0 0.0 2.2607528265319696
3

H 0.0 0.0 -0.741742619971979
H 0.0 0.0 0.0
H 0.0 0.0 2.261752826531969
3

H 0.0 0.0 -0.741742619971979
H 0.0 0.0 0.0
H 0.0 0.0 2.2627528265319694
3

H 0.0 0.0 -0.741742619971979
H 0.0 0.0 0.0
H 0.0 0.0 2.2637528265319693
3

H 0.0 0.0 -0.7417251675655417
H 0.0 0.0 0.0
H 0.0 0.0 2.264752674227126
3

H 0.0 0.0 -0.7417251675655417
H 0.0 0.0 0.0
H 0.0 0.0 2.2657526742271257
3

H 0.0 0.0 -0.7417251675655417
H 0.0 0.0 0.0
H 0.0 0.0 2.2667526742271256
3

H 0.0 0.0 -0.7417251675655417
H 0.0 0.0 0.0
H 0.0 0.0 2.267752674227125
3

H 0.0 0.0 -0.7417077151591045
H 0.0 0.0 0.0
H 0.0 0.0 2.268752521922282
3

H 0.0 0.0 -0.7417077151591045
H 0.0 0.0 0.0
H 0.0 0.0 2.269752521922282
3

H 0.0 0.0 -0.7417077151591045
H 0.0 0.0 0.0
H 0.0 0.0 2.2707525219222817
3

H 0.0 0.0 -0.7417077151591045
H 0.0 0.0 0.0
H 0.0 0.0 2.2717525219222816
3

H 0.0 0.0 -0.7417077151591045
H 0.0 0.0 0.0
H 0.0 0.0 2.272752521922281
3

H 0.0 0.0 -0.7416902627526673
H 0.0 0.0 0.0
H 0.0 0.0 2.273752369617438
3

H 0.0 0.0 -0.7416902627526673
H 0.0 0.0 0.0
H 0.0 0.0 2.274752369617438
3

H 0.0 0.0 -0.7416902627526673
H 0.0 0.0 0.0
H 0.0 0.0 2.2757523696174378
3

H 0.0 0.0 -0.7416902627526673
H 0.0 0.0 0.0
H 0.0 0.0 2.2767523696174377
3

H 0.0 0.0 -0.74167281034623
H 0.0 0.0 0.0
H 0.0 0.0 2.277752217312594
3

H 0.0 0.0 -0.74167281034623
H 0.0 0.0 0.0
H 0.0 0.0 2.278752217312594
3

H 0.0 0.0 -0.74167281034623
H 0.0 0.0 0.0
H 0.0 0.0 2.279752217312594
3

H 0.0 0.0 -0.74167281034623
H 0.0 0.0 0.0
H 0.0 0.0 2.280752217312594
3

H 0.0 0.0 -0.74167281034623
H 0.0 0.0 0.0
H 0.0 0.0 2.2817522173125937
3

H 0.0 0.0 -0.7416553579397928
H 0.0 0.0 0.0
H 0.0 0.0 2.28275206500775
3

H 0.0 0.0 -0.7416553579397928
H 0.0 0.0 0.0
H 0.0 0.0 2.28375206500775
3

H 0.0 0.0 -0.7416553579397928
H 0.0 0.0 0.0
H 0.0 0.0 2.28475206500775
3

H 0.0 0.0 -0.7416553579397928
H 0.0 0.0 0.0
H 0.0 0.0 2.28575206500775
3

H 0.0 0.0 -0.7416379055333555
H 0.0 0.0 0.0
H 0.0 0.0 2.2867519127029063
3

H 0.0 0.0 -0.7416379055333555
H 0.0 0.0 0.0
H 0.0 0.0 2.2877519127029062
3

H 0.0 0.0 -0.7416379055333555
H 0.0 0.0 0.0
H 0.0 0.0 2.288751912702906
3

H 0.0 0.0 -0.7416379055333555
H 0.0 0.0 0.0
H 0.0 0.0 2.289751912702906
3

H 0.0 0.0 -0.7416379055333555
H 0.0 0.0 0.0
H 0.0 0.0 2.290751912702906
3

H 0.0 0.0 -0.7416204531269183
H 0.0 0.0 0.0
H 0.0 0.0 2.2917517603980624
3

H 0.0 0.0 -0.7416204531269183
H 0.0 0.0 0.0
H 0.0 0.0 2.2927517603980623
3

H 0.0 0.0 -0.7416204531269183
H 0.0 0.0 0.0
H 0.0 0.0 2.293751760398062
3

H 0.0 0.0 -0.7416204531269183
H 0.0 0.0 0.0
H 0.0 0.0 2.294751760398062
3

H 0.0 0.0 -0.7416204531269183
H 0.0 0.0 0.0
H 0.0 0.0 2.295751760398062
3

H 0.0 0.0 -0.741603000720481
H 0.0 0.0 0.0
H 0.0 0.0 2.2967516080932184
3

H 0.0 0.0 -0.741603000720481
H 0.0 0.0 0.0
H 0.0 0.0 2.2977516080932183
3

H 0.0 0.0 -0.741603000720481
H 0.0 0.0 0.0
H 0.0 0.0 2.298751608093218
3

H 0.0 0.0 -0.741603000720481
H 0.0 0.0 0.0
H 0.0 0.0 2.299751608093218
3

H 0.0 0.0 -0.741603000720481
H 0.0 0.0 0.0
H 0.0 0.0 2.300751608093218
3

H 0.0 0.0 -0.7415855483140438
H 0.0 0.0 0.0
H 0.0 0.0 2.3017514557883745
3

H 0.0 0.0 -0.7415855483140438
H 0.0 0.0 0.0
H 0.0 0.0 2.3027514557883744
3

H 0.0 0.0 -0.7415855483140438
H 0.0 0.0 0.0
H 0.0 0.0 2.3037514557883743
3

H 0.0 0.0 -0.7415855483140438
H 0.0 0.0 0.0
H 0.0 0.0 2.304751455788374
3

H 0.0 0.0 -0.7415680959076065
H 0.0 0.0 0.0
H 0.0 0.0 2.30575130348353
3

H 0.0 0.0 -0.7415680959076065
H 0.0 0.0 0.0
H 0.0 0.0 2.3067513034835305
3

H 0.0 0.0 -0.7415680959076065
H 0.0 0.0 0.0
H 0.0 0.0 2.3077513034835304
3

H 0.0 0.0 -0.7415680959076065
H 0.0 0.0 0.0
H 0.0 0.0 2.3087513034835303
3

H 0.0 0.0 -0.7415680959076065
H 0.0 0.0 0.0
H 0.0 0.0 2.30975130348353
3

H 0.0 0.0 -0.7415680959076065
H 0.0 0.0 0.0
H 0.0 0.0 2.31075130348353
3

H 0.0 0.0 -0.7415680959076065
H 0.0 0.0 0.0
H 0.0 0.0 2.31175130348353
3

H 0.0 0.0 -0.7415506435011693
H 0.0 0.0 0.0
H 0.0 0.0 2.3127511511786865
3

H 0.0 0.0 -0.7415506435011693
H 0.0 0.0 0.0
H 0.0 0.0 2.3137511511786863
3

H 0.0 0.0 -0.7415506435011693
H 0.0 0.0 0.0
H 0.0 0.0 2.3147511511786862
3

H 0.0 0.0 -0.7415506435011693
H 0.0 0.0 0.0
H 0.0 0.0 2.315751151178686
3

H 0.0 0.0 -0.7415506435011693
H 0.0 0.0 0.0
H 0.0 0.0 2.316751151178686
3

H 0.0 0.0 -0.741533191094732
H 0.0 0.0 0.0
H 0.0 0.0 2.3177509988738425
3

H 0.0 0.0 -0.741533191094732
H 0.0 0.0 0.0
H 0.0 0.0 2.3187509988738424
3

H 0.0 0.0 -0.741533191094732
H 0.0 0.0 0.0
H 0.0 0.0 2.3197509988738423
3

H 0.0 0.0 -0.741533191094732
H 0.0 0.0 0.0
H 0.0 0.0 2.320750998873842
3

H 0.0 0.0 -0.741533191094732
H 0.0 0.0 0.0
H 0.0 0.0 2.321750998873842
3

H 0.0 0.0 -0.7415157386882948
H 0.0 0.0 0.0
H 0.0 0.0 2.3227508465689986
3

H 0.0 0.0 -0.7415157386882948
H 0.0 0.0 0.0
H 0.0 0.0 2.3237508465689984
3

H 0.0 0.0 -0.7415157386882948
H 0.0 0.0 0.0
H 0.0 0.0 2.3247508465689983
3

H 0.0 0.0 -0.7415157386882948
H 0.0 0.0 0.0
H 0.0 0.0 2.325750846568998
3

H 0.0 0.0 -0.7415157386882948
H 0.0 0.0 0.0
H 0.0 0.0 2.326750846568998
3

H 0.0 0.0 -0.7414982862818575
H 0.0 0.0 0.0
H 0.0 0.0 2.3277506942641546
3

H 0.0 0.0 -0.7414982862818575
H 0.0 0.0 0.0
H 0.0 0.0 2.3287506942641545
3

H 0.0 0.0 -0.7414982862818575
H 0.0 0.0 0.0
H 0.0 0.0 2.3297506942641544
3

H 0.0 0.0 -0.7414982862818575
H 0.0 0.0 0.0
H 0.0 0.0 2.3307506942641543
3

H 0.0 0.0 -0.7414982862818575
H 0.0 0.0 0.0
H 0.0 0.0 2.331750694264154
3

H 0.0 0.0 -0.7414982862818575
H 0.0 0.0 0.0
H 0.0 0.0 2.332750694264154
3

H 0.0 0.0 -0.7414808338754203
H 0.0 0.0 0.0
H 0.0 0.0 2.3337505419593105
3

H 0.0 0.0 -0.7414808338754203
H 0.0 0.0 0.0
H 0.0 0.0 2.3347505419593104
3

H 0.0 0.0 -0.7414808338754203
H 0.0 0.0 0.0
H 0.0 0.0 2.3357505419593103
3

H 0.0 0.0 -0.7414808338754203
H 0.0 0.0 0.0
H 0.0 0.0 2.33675054195931
3

H 0.0 0.0 -0.7414808338754203
H 0.0 0.0 0.0
H 0.0 0.0 2.33775054195931
3

H 0.0 0.0 -0.7414808338754203
H 0.0 0.0 0.0
H 0.0 0.0 2.33875054195931
3

H 0.0 0.0 -0.741463381468983
H 0.0 0.0 0.0
H 0.0 0.0 2.3397503896544665
3

H 0.0 0.0 -0.741463381468983
H 0.0 0.0 0.0
H 0.0 0.0 2.3407503896544664
3

H 0.0 0.0 -0.741463381468983
H 0.0 0.0 0.0
H 0.0 0.0 2.3417503896544662
3

H 0.0 0.0 -0.741463381468983
H 0.0 0.0 0.0
H 0.0 0.0 2.342750389654466
3

H 0.0 0.0 -0.741463381468983
H 0.0 0.0 0.0
H 0.0 0.0 2.343750389654466
3

H 0.0 0.0 -0.741463381468983
H 0.0 0.0 0.0
H 0.0 0.0 2.344750389654466
3

H 0.0 0.0 -0.7414459290625458
H 0.0 0.0 0.0
H 0.0 0.0 2.3457502373496224
3

H 0.0 0.0 -0.7414459290625458
H 0.0 0.0 0.0
H 0.0 0.0 2.3467502373496223
3

H 0.0 0.0 -0.7414459290625458
H 0.0 0.0 0.0
H 0.0 0.0 2.347750237349622
3

H 0.0 0.0 -0.7414459290625458
H 0.0 0.0 0.0
H 0.0 0.0 2.348750237349622
3

H 0.0 0.0 -0.7414284766561086
H 0.0 0.0 0.0
H 0.0 0.0 2.3497500850447786
3

H 0.0 0.0 -0.7414284766561086
H 0.0 0.0 0.0
H 0.0 0.0 2.3507500850447784
3

H 0.0 0.0 -0.7414284766561086
H 0.0 0.0 0.0
H 0.0 0.0 2.3517500850447783
3

H 0.0 0.0 -0.7414284766561086
H 0.0 0.0 0.0
H 0.0 0.0 2.3527500850447782
3

H 0.0 0.0 -0.7414284766561086
H 0.0 0.0 0.0
H 0.0 0.0 2.353750085044778
3

H 0.0 0.0 -0.7414284766561086
H 0.0 0.0 0.0
H 0.0 0.0 2.354750085044778
3

H 0.0 0.0 -0.7414284766561086
H 0.0 0.0 0.0
H 0.0 0.0 2.355750085044778
3

H 0.0 0.0 -0.7414110242496713
H 0.0 0.0 0.0
H 0.0 0.0 2.3567499327399344
3

H 0.0 0.0 -0.7414110242496713
H 0.0 0.0 0.0
H 0.0 0.0 2.3577499327399343
3

H 0.0 0.0 -0.7414110242496713
H 0.0 0.0 0.0
H 0.0 0.0 2.358749932739934
3

H 0.0 0.0 -0.7414110242496713
H 0.0 0.0 0.0
H 0.0 0.0 2.359749932739934
3

H 0.0 0.0 -0.7414110242496713
H 0.0 0.0 0.0
H 0.0 0.0 2.360749932739934
3

H 0.0 0.0 -0.7414110242496713
H 0.0 0.0 0.0
H 0.0 0.0 2.361749932739934
3

H 0.0 0.0 -0.7413935718432341
H 0.0 0.0 0.0
H 0.0 0.0 2.3627497804350903
3

H 0.0 0.0 -0.7413935718432341
H 0.0 0.0 0.0
H 0.0 0.0 2.36374978043509
3

H 0.0 0.0 -0.7413935718432341
H 0.0 0.0 0.0
H 0.0 0.0 2.36474978043509
3

H 0.0 0.0 -0.7413935718432341
H 0.0 0.0 0.0
H 0.0 0.0 2.36574978043509
3

H 0.0 0.0 -0.7413935718432341
H 0.0 0.0 0.0
H 0.0 0.0 2.36674978043509
3

H 0.0 0.0 -0.7413935718432341
H 0.0 0.0 0.0
H 0.0 0.0 2.3677497804350898
3

H 0.0 0.0 -0.7413761194367968
H 0.0 0.0 0.0
H 0.0 0.0 2.3687496281302463
3

H 0.0 0.0 -0.7413761194367968
H 0.0 0.0 0.0
H 0.0 0.0 2.369749628130246
3

H 0.0 0.0 -0.7413761194367968
H 0.0 0.0 0.0
H 0.0 0.0 2.370749628130246
3

H 0.0 0.0 -0.7413761194367968
H 0.0 0.0 0.0
H 0.0 0.0 2.371749628130246
3

H 0.0 0.0 -0.7413761194367968
H 0.0 0.0 0.0
H 0.0 0.0 2.372749628130246
3

H 0.0 0.0 -0.7413761194367968
H 0.0 0.0 0.0
H 0.0 0.0 2.3737496281302457
3

H 0.0 0.0 -0.7413761194367968
H 0.0 0.0 0.0
H 0.0 0.0 2.3747496281302456
3

H 0.0 0.0 -0.7413586670303596
H 0.0 0.0 0.0
H 0.0 0.0 2.375749475825402
3

H 0.0 0.0 -0.7413586670303596
H 0.0 0.0 0.0
H 0.0 0.0 2.376749475825402
3

H 0.0 0.0 -0.7413586670303596
H 0.0 0.0 0.0
H 0.0 0.0 2.377749475825402
3

H 0.0 0.0 -0.7413586670303596
H 0.0 0.0 0.0
H 0.0 0.0 2.3787494758254017
3

H 0.0 0.0 -0.7413586670303596
H 0.0 0.0 0.0
H 0.0 0.0 2.3797494758254016
3

H 0.0 0.0 -0.7413586670303596
H 0.0 0.0 0.0
H 0.0 0.0 2.380749475825401
3

H 0.0 0.0 -0.7413412146239223
H 0.0 0.0 0.0
H 0.0 0.0 2.381749323520558
3

H 0.0 0.0 -0.7413412146239223
H 0.0 0.0 0.0
H 0.0 0.0 2.382749323520558
3

H 0.0 0.0 -0.7413412146239223
H 0.0 0.0 0.0
H 0.0 0.0 2.383749323520558
3

H 0.0 0.0 -0.7413412146239223
H 0.0 0.0 0.0
H 0.0 0.0 2.3847493235205577
3

H 0.0 0.0 -0.7413412146239223
H 0.0 0.0 0.0
H 0.0 0.0 2.3857493235205576
3

H 0.0 0.0 -0.7413412146239223
H 0.0 0.0 0.0
H 0.0 0.0 2.386749323520557
3

H 0.0 0.0 -0.7413412146239223
H 0.0 0.0 0.0
H 0.0 0.0 2.3877493235205574
3

H 0.0 0.0 -0.7413237622174851
H 0.0 0.0 0.0
H 0.0 0.0 2.388749171215714
3

H 0.0 0.0 -0.7413237622174851
H 0.0 0.0 0.0
H 0.0 0.0 2.3897491712157137
3

H 0.0 0.0 -0.7413237622174851
H 0.0 0.0 0.0
H 0.0 0.0 2.3907491712157136
3

H 0.0 0.0 -0.7413237622174851
H 0.0 0.0 0.0
H 0.0 0.0 2.391749171215713
3

H 0.0 0.0 -0.7413237622174851
H 0.0 0.0 0.0
H 0.0 0.0 2.3927491712157134
3

H 0.0 0.0 -0.7413237622174851
H 0.0 0.0 0.0
H 0.0 0.0 2.3937491712157133
3

H 0.0 0.0 -0.7413063098110478
H 0.0 0.0 0.0
H 0.0 0.0 2.3947490189108698
3

H 0.0 0.0 -0.7413063098110478
H 0.0 0.0 0.0
H 0.0 0.0 2.3957490189108697
3

H 0.0 0.0 -0.7413063098110478
H 0.0 0.0 0.0
H 0.0 0.0 2.3967490189108696
3

H 0.0 0.0 -0.7413063098110478
H 0.0 0.0 0.0
H 0.0 0.0 2.397749018910869
3

H 0.0 0.0 -0.7413063098110478
H 0.0 0.0 0.0
H 0.0 0.0 2.3987490189108693
3

H 0.0 0.0 -0.7413063098110478
H 0.0 0.0 0.0
H 0.0 0.0 2.399749018910869
3

H 0.0 0.0 -0.7413063098110478
H 0.0 0.0 0.0
H 0.0 0.0 2.400749018910869
3

H 0.0 0.0 -0.7412888574046106
H 0.0 0.0 0.0
H 0.0 0.0 2.4017488666060256
3

H 0.0 0.0 -0.7412888574046106
H 0.0 0.0 0.0
H 0.0 0.0 2.402748866606025
3

H 0.0 0.0 -0.7412888574046106
H 0.0 0.0 0.0
H 0.0 0.0 2.4037488666060254
3

H 0.0 0.0 -0.7412888574046106
H 0.0 0.0 0.0
H 0.0 0.0 2.4047488666060253
3

H 0.0 0.0 -0.7412888574046106
H 0.0 0.0 0.0
H 0.0 0.0 2.405748866606025
3

H 0.0 0.0 -0.7412888574046106
H 0.0 0.0 0.0
H 0.0 0.0 2.406748866606025
3

H 0.0 0.0 -0.7412888574046106
H 0.0 0.0 0.0
H 0.0 0.0 2.407748866606025
3

H 0.0 0.0 -0.7412888574046106
H 0.0 0.0 0.0
H 0.0 0.0 2.408748866606025
3

H 0.0 0.0 -0.7412888574046106
H 0.0 0.0 0.0
H 0.0 0.0 2.4097488666060247
3

H 0.0 0.0 -0.7412714049981733
H 0.0 0.0 0.0
H 0.0 0.0 2.410748714301181
3

H 0.0 0.0 -0.7412714049981733
H 0.0 0.0 0.0
H 0.0 0.0 2.411748714301181
3

H 0.0 0.0 -0.7412714049981733
H 0.0 0.0 0.0
H 0.0 0.0 2.412748714301181
3

H 0.0 0.0 -0.7412714049981733
H 0.0 0.0 0.0
H 0.0 0.0 2.413748714301181
3

H 0.0 0.0 -0.7412714049981733
H 0.0 0.0 0.0
H 0.0 0.0 2.4147487143011808
3

H 0.0 0.0 -0.7412714049981733
H 0.0 0.0 0.0
H 0.0 0.0 2.4157487143011807
3

H 0.0 0.0 -0.7412714049981733
H 0.0 0.0 0.0
H 0.0 0.0 2.4167487143011805
3

H 0.0 0.0 -0.7412539525917361
H 0.0 0.0 0.0
H 0.0 0.0 2.417748561996337
3

H 0.0 0.0 -0.7412539525917361
H 0.0 0.0 0.0
H 0.0 0.0 2.418748561996337
3

H 0.0 0.0 -0.7412539525917361
H 0.0 0.0 0.0
H 0.0 0.0 2.419748561996337
3

H 0.0 0.0 -0.7412539525917361
H 0.0 0.0 0.0
H 0.0 0.0 2.4207485619963367
3

H 0.0 0.0 -0.7412539525917361
H 0.0 0.0 0.0
H 0.0 0.0 2.4217485619963366
3

H 0.0 0.0 -0.7412539525917361
H 0.0 0.0 0.0
H 0.0 0.0 2.4227485619963365
3

H 0.0 0.0 -0.7412365001852989
H 0.0 0.0 0.0
H 0.0 0.0 2.423748409691493
3

H 0.0 0.0 -0.7412365001852989
H 0.0 0.0 0.0
H 0.0 0.0 2.424748409691493
3

H 0.0 0.0 -0.7412365001852989
H 0.0 0.0 0.0
H 0.0 0.0 2.4257484096914927
3

H 0.0 0.0 -0.7412365001852989
H 0.0 0.0 0.0
H 0.0 0.0 2.4267484096914926
3

H 0.0 0.0 -0.7412365001852989
H 0.0 0.0 0.0
H 0.0 0.0 2.4277484096914925
3

H 0.0 0.0 -0.7412365001852989
H 0.0 0.0 0.0
H 0.0 0.0 2.4287484096914924
3

H 0.0 0.0 -0.7412365001852989
H 0.0 0.0 0.0
H 0.0 0.0 2.4297484096914923
3

H 0.0 0.0 -0.7412365001852989
H 0.0 0.0 0.0
H 0.0 0.0 2.430748409691492
3

H 0.0 0.0 -0.7412365001852989
H 0.0 0.0 0.0
H 0.0 0.0 2.431748409691492
3

H 0.0 0.0 -0.7412190477788616
H 0.0 0.0 0.0
H 0.0 0.0 2.432748257386649
3

H 0.0 0.0 -0.7412190477788616
H 0.0 0.0 0.0
H 0.0 0.0 2.4337482573866485
3

H 0.0 0.0 -0.7412190477788616
H 0.0 0.0 0.0
H 0.0 0.0 2.4347482573866484
3

H 0.0 0.0 -0.7412190477788616
H 0.0 0.0 0.0
H 0.0 0.0 2.435748257386648
3

H 0.0 0.0 -0.7412190477788616
H 0.0 0.0 0.0
H 0.0 0.0 2.436748257386648
3

H 0.0 0.0 -0.7412190477788616
H 0.0 0.0 0.0
H 0.0 0.0 2.437748257386648
3

H 0.0 0.0 -0.7412190477788616
H 0.0 0.0 0.0
H 0.0 0.0 2.438748257386648
3

H 0.0 0.0 -0.7412015953724244
H 0.0 0.0 0.0
H 0.0 0.0 2.4397481050818044
3

H 0.0 0.0 -0.7412015953724244
H 0.0 0.0 0.0
H 0.0 0.0 2.4407481050818043
3

H 0.0 0.0 -0.7412015953724244
H 0.0 0.0 0.0
H 0.0 0.0 2.441748105081804
3

H 0.0 0.0 -0.7412015953724244
H 0.0 0.0 0.0
H 0.0 0.0 2.442748105081804
3

H 0.0 0.0 -0.7412015953724244
H 0.0 0.0 0.0
H 0.0 0.0 2.443748105081804
3

H 0.0 0.0 -0.7412015953724244
H 0.0 0.0 0.0
H 0.0 0.0 2.444748105081804
3

H 0.0 0.0 -0.7412015953724244
H 0.0 0.0 0.0
H 0.0 0.0 2.445748105081804
3

H 0.0 0.0 -0.7412015953724244
H 0.0 0.0 0.0
H 0.0 0.0 2.446748105081804
3

H 0.0 0.0 -0.7412015953724244
H 0.0 0.0 0.0
H 0.0 0.0 2.4477481050818035
3

H 0.0 0.0 -0.7411841429659871
H 0.0 0.0 0.0
H 0.0 0.0 2.44874795277696
3

H 0.0 0.0 -0.7411841429659871
H 0.0 0.0 0.0
H 0.0 0.0 2.44974795277696
3

H 0.0 0.0 -0.7411841429659871
H 0.0 0.0 0.0
H 0.0 0.0 2.45074795277696
3

H 0.0 0.0 -0.7411841429659871
H 0.0 0.0 0.0
H 0.0 0.0 2.45174795277696
3

H 0.0 0.0 -0.7411841429659871
H 0.0 0.0 0.0
H 0.0 0.0 2.45274795277696
3

H 0.0 0.0 -0.7411841429659871
H 0.0 0.0 0.0
H 0.0 0.0 2.4537479527769595
3

H 0.0 0.0 -0.7411841429659871
H 0.0 0.0 0.0
H 0.0 0.0 2.45474795277696
3

H 0.0 0.0 -0.7411841429659871
H 0.0 0.0 0.0
H 0.0 0.0 2.4557479527769592
3

H 0.0 0.0 -0.7411841429659871
H 0.0 0.0 0.0
H 0.0 0.0 2.456747952776959
3

H 0.0 0.0 -0.7411666905595499
H 0.0 0.0 0.0
H 0.0 0.0 2.457747800472116
3

H 0.0 0.0 -0.7411666905595499
H 0.0 0.0 0.0
H 0.0 0.0 2.4587478004721155
3

H 0.0 0.0 -0.7411666905595499
H 0.0 0.0 0.0
H 0.0 0.0 2.4597478004721154
3

H 0.0 0.0 -0.7411666905595499
H 0.0 0.0 0.0
H 0.0 0.0 2.4607478004721157
3

H 0.0 0.0 -0.7411666905595499
H 0.0 0.0 0.0
H 0.0 0.0 2.461747800472115
3

H 0.0 0.0 -0.7411666905595499
H 0.0 0.0 0.0
H 0.0 0.0 2.462747800472115
3

H 0.0 0.0 -0.7411666905595499
H 0.0 0.0 0.0
H 0.0 0.0 2.463747800472115
3

H 0.0 0.0 -0.7411666905595499
H 0.0 0.0 0.0
H 0.0 0.0 2.464747800472115
3

H 0.0 0.0 -0.7411666905595499
H 0.0 0.0 0.0
H 0.0 0.0 2.4657478004721147
3

H 0.0 0.0 -0.7411666905595499
H 0.0 0.0 0.0
H 0.0 0.0 2.4667478004721146
3

H 0.0 0.0 -0.7411492381531126
H 0.0 0.0 0.0
H 0.0 0.0 2.467747648167271
3

H 0.0 0.0 -0.7411492381531126
H 0.0 0.0 0.0
H 0.0 0.0 2.468747648167271
3

H 0.0 0.0 -0.7411492381531126
H 0.0 0.0 0.0
H 0.0 0.0 2.469747648167271
3

H 0.0 0.0 -0.7411492381531126
H 0.0 0.0 0.0
H 0.0 0.0 2.4707476481672708
3

H 0.0 0.0 -0.7411492381531126
H 0.0 0.0 0.0
H 0.0 0.0 2.4717476481672707
3

H 0.0 0.0 -0.7411492381531126
H 0.0 0.0 0.0
H 0.0 0.0 2.4727476481672706
3

H 0.0 0.0 -0.7411492381531126
H 0.0 0.0 0.0
H 0.0 0.0 2.4737476481672704
3

H 0.0 0.0 -0.7411492381531126
H 0.0 0.0 0.0
H 0.0 0.0 2.4747476481672703
3

H 0.0 0.0 -0.7411492381531126
H 0.0 0.0 0.0
H 0.0 0.0 2.47574764816727
3

H 0.0 0.0 -0.7411317857466754
H 0.0 0.0 0.0
H 0.0 0.0 2.4767474958624267
3

H 0.0 0.0 -0.7411317857466754
H 0.0 0.0 0.0
H 0.0 0.0 2.4777474958624266
3

H 0.0 0.0 -0.7411317857466754
H 0.0 0.0 0.0
H 0.0 0.0 2.4787474958624265
3

H 0.0 0.0 -0.7411317857466754
H 0.0 0.0 0.0
H 0.0 0.0 2.4797474958624264
3

H 0.0 0.0 -0.7411317857466754
H 0.0 0.0 0.0
H 0.0 0.0 2.4807474958624263
3

H 0.0 0.0 -0.7411317857466754
H 0.0 0.0 0.0
H 0.0 0.0 2.481747495862426
3

H 0.0 0.0 -0.7411317857466754
H 0.0 0.0 0.0
H 0.0 0.0 2.482747495862426
3

H 0.0 0.0 -0.7411317857466754
H 0.0 0.0 0.0
H 0.0 0.0 2.483747495862426
3

H 0.0 0.0 -0.7411317857466754
H 0.0 0.0 0.0
H 0.0 0.0 2.484747495862426
3

H 0.0 0.0 -0.7411143333402381
H 0.0 0.0 0.0
H 0.0 0.0 2.4857473435575823
3

H 0.0 0.0 -0.7411143333402381
H 0.0 0.0 0.0
H 0.0 0.0 2.486747343557582
3

H 0.0 0.0 -0.7411143333402381
H 0.0 0.0 0.0
H 0.0 0.0 2.487747343557582
3

H 0.0 0.0 -0.7411143333402381
H 0.0 0.0 0.0
H 0.0 0.0 2.488747343557582
3

H 0.0 0.0 -0.7411143333402381
H 0.0 0.0 0.0
H 0.0 0.0 2.489747343557582
3

H 0.0 0.0 -0.7411143333402381
H 0.0 0.0 0.0
H 0.0 0.0 2.4907473435575818
3

H 0.0 0.0 -0.7411143333402381
H 0.0 0.0 0.0
H 0.0 0.0 2.4917473435575817
3

H 0.0 0.0 -0.7411143333402381
H 0.0 0.0 0.0
H 0.0 0.0 2.492747343557581
3

H 0.0 0.0 -0.7411143333402381
H 0.0 0.0 0.0
H 0.0 0.0 2.493747343557581
3

H 0.0 0.0 -0.7411143333402381
H 0.0 0.0 0.0
H 0.0 0.0 2.4947473435575813
3

H 0.0 0.0 -0.7410968809338009
H 0.0 0.0 0.0
H 0.0 0.0 2.495747191252738
3

H 0.0 0.0 -0.7410968809338009
H 0.0 0.0 0.0
H 0.0 0.0 2.4967471912527377
3

H 0.0 0.0 -0.7410968809338009
H 0.0 0.0 0.0
H 0.0 0.0 2.4977471912527376
3

H 0.0 0.0 -0.7410968809338009
H 0.0 0.0 0.0
H 0.0 0.0 2.498747191252737
3

H 0.0 0.0 -0.7410968809338009
H 0.0 0.0 0.0
H 0.0 0.0 2.4997471912527374
3

H 0.0 0.0 -0.7410968809338009
H 0.0 0.0 0.0
H 0.0 0.0 2.5007471912527373
3

H 0.0 0.0 -0.7410968809338009
H 0.0 0.0 0.0
H 0.0 0.0 2.501747191252737
3

H 0.0 0.0 -0.7410968809338009
H 0.0 0.0 0.0
H 0.0 0.0 2.502747191252737
3

H 0.0 0.0 -0.7410968809338009
H 0.0 0.0 0.0
H 0.0 0.0 2.503747191252737
3

H 0.0 0.0 -0.7410968809338009
H 0.0 0.0 0.0
H 0.0 0.0 2.504747191252737
3

H 0.0 0.0 -0.7410968809338009
H 0.0 0.0 0.0
H 0.0 0.0 2.5057471912527367
3

H 0.0 0.0 -0.7410794285273636
H 0.0 0.0 0.0
H 0.0 0.0 2.506747038947893
3

H 0.0 0.0 -0.7410794285273636
H 0.0 0.0 0.0
H 0.0 0.0 2.507747038947893
3

H 0.0 0.0 -0.7410794285273636
H 0.0 0.0 0.0
H 0.0 0.0 2.508747038947893
3

H 0.0 0.0 -0.7410794285273636
H 0.0 0.0 0.0
H 0.0 0.0 2.509747038947893
3

H 0.0 0.0 -0.7410794285273636
H 0.0 0.0 0.0
H 0.0 0.0 2.5107470389478928
3

H 0.0 0.0 -0.7410794285273636
H 0.0 0.0 0.0
H 0.0 0.0 2.5117470389478926
3

H 0.0 0.0 -0.7410794285273636
H 0.0 0.0 0.0
H 0.0 0.0 2.5127470389478925
3

H 0.0 0.0 -0.7410794285273636
H 0.0 0.0 0.0
H 0.0 0.0 2.5137470389478924
3

H 0.0 0.0 -0.7410794285273636
H 0.0 0.0 0.0
H 0.0 0.0 2.5147470389478923
3

H 0.0 0.0 -0.7410619761209264
H 0.0 0.0 0.0
H 0.0 0.0 2.515746886643049
3

H 0.0 0.0 -0.7410619761209264
H 0.0 0.0 0.0
H 0.0 0.0 2.5167468866430487
3

H 0.0 0.0 -0.7410619761209264
H 0.0 0.0 0.0
H 0.0 0.0 2.517746886643049
3

H 0.0 0.0 -0.7410619761209264
H 0.0 0.0 0.0
H 0.0 0.0 2.5187468866430485
3

H 0.0 0.0 -0.7410619761209264
H 0.0 0.0 0.0
H 0.0 0.0 2.5197468866430484
3

H 0.0 0.0 -0.7410619761209264
H 0.0 0.0 0.0
H 0.0 0.0 2.520746886643048
3

H 0.0 0.0 -0.7410619761209264
H 0.0 0.0 0.0
H 0.0 0.0 2.521746886643048
3

H 0.0 0.0 -0.7410619761209264
H 0.0 0.0 0.0
H 0.0 0.0 2.522746886643048
3

H 0.0 0.0 -0.7410619761209264
H 0.0 0.0 0.0
H 0.0 0.0 2.523746886643048
3

H 0.0 0.0 -0.7410619761209264
H 0.0 0.0 0.0
H 0.0 0.0 2.524746886643048
3

H 0.0 0.0 -0.7410619761209264
H 0.0 0.0 0.0
H 0.0 0.0 2.525746886643048
3

H 0.0 0.0 -0.7410619761209264
H 0.0 0.0 0.0
H 0.0 0.0 2.526746886643048
3

H 0.0 0.0 -0.7410445237144891
H 0.0 0.0 0.0
H 0.0 0.0 2.527746734338204
3

H 0.0 0.0 -0.7410445237144891
H 0.0 0.0 0.0
H 0.0 0.0 2.528746734338204
3

H 0.0 0.0 -0.7410445237144891
H 0.0 0.0 0.0
H 0.0 0.0 2.529746734338204
3

H 0.0 0.0 -0.7410445237144891
H 0.0 0.0 0.0
H 0.0 0.0 2.530746734338204
3

H 0.0 0.0 -0.7410445237144891
H 0.0 0.0 0.0
H 0.0 0.0 2.531746734338204
3

H 0.0 0.0 -0.7410445237144891
H 0.0 0.0 0.0
H 0.0 0.0 2.5327467343382035
3

H 0.0 0.0 -0.7410445237144891
H 0.0 0.0 0.0
H 0.0 0.0 2.5337467343382034
3

H 0.0 0.0 -0.7410445237144891
H 0.0 0.0 0.0
H 0.0 0.0 2.5347467343382037
3

H 0.0 0.0 -0.7410445237144891
H 0.0 0.0 0.0
H 0.0 0.0 2.535746734338203
3

H 0.0 0.0 -0.7410445237144891
H 0.0 0.0 0.0
H 0.0 0.0 2.536746734338203
3

H 0.0 0.0 -0.7410445237144891
H 0.0 0.0 0.0
H 0.0 0.0 2.537746734338203
3

H 0.0 0.0 -0.7410445237144891
H 0.0 0.0 0.0
H 0.0 0.0 2.538746734338203
3

H 0.0 0.0 -0.7410445237144891
H 0.0 0.0 0.0
H 0.0 0.0 2.5397467343382027
3

H 0.0 0.0 -0.7410270713080519
H 0.0 0.0 0.0
H 0.0 0.0 2.5407465820333592
3

H 0.0 0.0 -0.7410270713080519
H 0.0 0.0 0.0
H 0.0 0.0 2.541746582033359
3

H 0.0 0.0 -0.7410270713080519
H 0.0 0.0 0.0
H 0.0 0.0 2.542746582033359
3

H 0.0 0.0 -0.7410270713080519
H 0.0 0.0 0.0
H 0.0 0.0 2.543746582033359
3

H 0.0 0.0 -0.7410270713080519
H 0.0 0.0 0.0
H 0.0 0.0 2.544746582033359
3

H 0.0 0.0 -0.7410270713080519
H 0.0 0.0 0.0
H 0.0 0.0 2.5457465820333587
3

H 0.0 0.0 -0.7410270713080519
H 0.0 0.0 0.0
H 0.0 0.0 2.5467465820333586
3

H 0.0 0.0 -0.7410270713080519
H 0.0 0.0 0.0
H 0.0 0.0 2.5477465820333585
3

H 0.0 0.0 -0.7410270713080519
H 0.0 0.0 0.0
H 0.0 0.0 2.5487465820333584
3

H 0.0 0.0 -0.7410270713080519
H 0.0 0.0 0.0
H 0.0 0.0 2.5497465820333582
3

H 0.0 0.0 -0.7410270713080519
H 0.0 0.0 0.0
H 0.0 0.0 2.550746582033358
3

H 0.0 0.0 -0.7410270713080519
H 0.0 0.0 0.0
H 0.0 0.0 2.551746582033358
3

H 0.0 0.0 -0.7410270713080519
H 0.0 0.0 0.0
H 0.0 0.0 2.552746582033358
3

H 0.0 0.0 -0.7410096189016147
H 0.0 0.0 0.0
H 0.0 0.0 2.5537464297285144
3

H 0.0 0.0 -0.7410096189016147
H 0.0 0.0 0.0
H 0.0 0.0 2.5547464297285143
3

H 0.0 0.0 -0.7410096189016147
H 0.0 0.0 0.0
H 0.0 0.0 2.555746429728514
3

H 0.0 0.0 -0.7410096189016147
H 0.0 0.0 0.0
H 0.0 0.0 2.556746429728514
3

H 0.0 0.0 -0.7410096189016147
H 0.0 0.0 0.0
H 0.0 0.0 2.557746429728514
3

H 0.0 0.0 -0.7410096189016147
H 0.0 0.0 0.0
H 0.0 0.0 2.558746429728514
3

H 0.0 0.0 -0.7410096189016147
H 0.0 0.0 0.0
H 0.0 0.0 2.5597464297285137
3

H 0.0 0.0 -0.7410096189016147
H 0.0 0.0 0.0
H 0.0 0.0 2.5607464297285136
3

H 0.0 0.0 -0.7410096189016147
H 0.0 0.0 0.0
H 0.0 0.0 2.561746429728513
3

H 0.0 0.0 -0.7410096189016147
H 0.0 0.0 0.0
H 0.0 0.0 2.5627464297285134
3

H 0.0 0.0 -0.7410096189016147
H 0.0 0.0 0.0
H 0.0 0.0 2.5637464297285133
3

H 0.0 0.0 -0.7409921664951774
H 0.0 0.0 0.0
H 0.0 0.0 2.56474627742367
3

H 0.0 0.0 -0.7409921664951774
H 0.0 0.0 0.0
H 0.0 0.0 2.5657462774236697
3

H 0.0 0.0 -0.7409921664951774
H 0.0 0.0 0.0
H 0.0 0.0 2.5667462774236696
3

H 0.0 0.0 -0.7409921664951774
H 0.0 0.0 0.0
H 0.0 0.0 2.567746277423669
3

H 0.0 0.0 -0.7409921664951774
H 0.0 0.0 0.0
H 0.0 0.0 2.5687462774236693
3

H 0.0 0.0 -0.7409921664951774
H 0.0 0.0 0.0
H 0.0 0.0 2.569746277423669
3

H 0.0 0.0 -0.7409921664951774
H 0.0 0.0 0.0
H 0.0 0.0 2.570746277423669
3

H 0.0 0.0 -0.7409921664951774
H 0.0 0.0 0.0
H 0.0 0.0 2.571746277423669
3

H 0.0 0.0 -0.7409921664951774
H 0.0 0.0 0.0
H 0.0 0.0 2.572746277423669
3

H 0.0 0.0 -0.7409921664951774
H 0.0 0.0 0.0
H 0.0 0.0 2.573746277423669
3

H 0.0 0.0 -0.7409921664951774
H 0.0 0.0 0.0
H 0.0 0.0 2.5747462774236687
3

H 0.0 0.0 -0.7409921664951774
H 0.0 0.0 0.0
H 0.0 0.0 2.575746277423669
3

H 0.0 0.0 -0.7409921664951774
H 0.0 0.0 0.0
H 0.0 0.0 2.5767462774236685
3

H 0.0 0.0 -0.7409921664951774
H 0.0 0.0 0.0
H 0.0 0.0 2.5777462774236684
3

H 0.0 0.0 -0.7409921664951774
H 0.0 0.0 0.0
H 0.0 0.0 2.578746277423668
3

H 0.0 0.0 -0.7409921664951774
H 0.0 0.0 0.0
H 0.0 0.0 2.579746277423668
3

H 0.0 0.0 -0.7409921664951774
H 0.0 0.0 0.0
H 0.0 0.0 2.580746277423668
3

H 0.0 0.0 -0.7409921664951774
H 0.0 0.0 0.0
H 0.0 0.0 2.581746277423668
3

H 0.0 0.0 -0.7409747140887402
H 0.0 0.0 0.0
H 0.0 0.0 2.5827461251188244
3

H 0.0 0.0 -0.7409747140887402
H 0.0 0.0 0.0
H 0.0 0.0 2.5837461251188243
3

H 0.0 0.0 -0.7409747140887402
H 0.0 0.0 0.0
H 0.0 0.0 2.584746125118824
3

H 0.0 0.0 -0.7409747140887402
H 0.0 0.0 0.0
H 0.0 0.0 2.585746125118824
3

H 0.0 0.0 -0.7409747140887402
H 0.0 0.0 0.0
H 0.0 0.0 2.586746125118824
3

H 0.0 0.0 -0.7409747140887402
H 0.0 0.0 0.0
H 0.0 0.0 2.587746125118824
3

H 0.0 0.0 -0.7409747140887402
H 0.0 0.0 0.0
H 0.0 0.0 2.588746125118824
3

H 0.0 0.0 -0.7409747140887402
H 0.0 0.0 0.0
H 0.0 0.0 2.589746125118824
3

H 0.0 0.0 -0.7409747140887402
H 0.0 0.0 0.0
H 0.0 0.0 2.5907461251188235
3

H 0.0 0.0 -0.7409747140887402
H 0.0 0.0 0.0
H 0.0 0.0 2.5917461251188234
3

H 0.0 0.0 -0.7409747140887402
H 0.0 0.0 0.0
H 0.0 0.0 2.5927461251188237
3

H 0.0 0.0 -0.7409747140887402
H 0.0 0.0 0.0
H 0.0 0.0 2.593746125118823
3

H 0.0 0.0 -0.7409747140887402
H 0.0 0.0 0.0
H 0.0 0.0 2.594746125118823
3

H 0.0 0.0 -0.7409572616823029
H 0.0 0.0 0.0
H 0.0 0.0 2.59574597281398
3

H 0.0 0.0 -0.7409572616823029
H 0.0 0.0 0.0
H 0.0 0.0 2.5967459728139795
3

H 0.0 0.0 -0.7409572616823029
H 0.0 0.0 0.0
H 0.0 0.0 2.59774597281398
3

H 0.0 0.0 -0.7409572616823029
H 0.0 0.0 0.0
H 0.0 0.0 2.5987459728139792
3

H 0.0 0.0 -0.7409572616823029
H 0.0 0.0 0.0
H 0.0 0.0 2.599745972813979
3

H 0.0 0.0 -0.7409572616823029
H 0.0 0.0 0.0
H 0.0 0.0 2.600745972813979
3

H 0.0 0.0 -0.7409572616823029
H 0.0 0.0 0.0
H 0.0 0.0 2.601745972813979
3

H 0.0 0.0 -0.7409572616823029
H 0.0 0.0 0.0
H 0.0 0.0 2.602745972813979
3

H 0.0 0.0 -0.7409572616823029
H 0.0 0.0 0.0
H 0.0 0.0 2.6037459728139787
3

H 0.0 0.0 -0.7409572616823029
H 0.0 0.0 0.0
H 0.0 0.0 2.6047459728139786
3

H 0.0 0.0 -0.7409572616823029
H 0.0 0.0 0.0
H 0.0 0.0 2.6057459728139785
3

H 0.0 0.0 -0.7409572616823029
H 0.0 0.0 0.0
H 0.0 0.0 2.6067459728139784
3

H 0.0 0.0 -0.7409572616823029
H 0.0 0.0 0.0
H 0.0 0.0 2.6077459728139782
3

H 0.0 0.0 -0.7409572616823029
H 0.0 0.0 0.0
H 0.0 0.0 2.608745972813978
3

H 0.0 0.0 -0.7409572616823029
H 0.0 0.0 0.0
H 0.0 0.0 2.609745972813978
3

H 0.0 0.0 -0.7409572616823029
H 0.0 0.0 0.0
H 0.0 0.0 2.610745972813978
3

H 0.0 0.0 -0.7409572616823029
H 0.0 0.0 0.0
H 0.0 0.0 2.611745972813978
3

H 0.0 0.0 -0.7409398092758657
H 0.0 0.0 0.0
H 0.0 0.0 2.6127458205091343
3

H 0.0 0.0 -0.7409398092758657
H 0.0 0.0 0.0
H 0.0 0.0 2.613745820509134
3

H 0.0 0.0 -0.7409398092758657
H 0.0 0.0 0.0
H 0.0 0.0 2.614745820509134
3

H 0.0 0.0 -0.7409398092758657
H 0.0 0.0 0.0
H 0.0 0.0 2.615745820509134
3

H 0.0 0.0 -0.7409398092758657
H 0.0 0.0 0.0
H 0.0 0.0 2.616745820509134
3

H 0.0 0.0 -0.7409398092758657
H 0.0 0.0 0.0
H 0.0 0.0 2.6177458205091337
3

H 0.0 0.0 -0.7409398092758657
H 0.0 0.0 0.0
H 0.0 0.0 2.6187458205091336
3

H 0.0 0.0 -0.7409398092758657
H 0.0 0.0 0.0
H 0.0 0.0 2.619745820509133
3

H 0.0 0.0 -0.7409398092758657
H 0.0 0.0 0.0
H 0.0 0.0 2.6207458205091334
3

H 0.0 0.0 -0.7409398092758657
H 0.0 0.0 0.0
H 0.0 0.0 2.6217458205091333
3

H 0.0 0.0 -0.7409398092758657
H 0.0 0.0 0.0
H 0.0 0.0 2.622745820509133
3

H 0.0 0.0 -0.7409398092758657
H 0.0 0.0 0.0
H 0.0 0.0 2.623745820509133
3

H 0.0 0.0 -0.7409398092758657
H 0.0 0.0 0.0
H 0.0 0.0 2.624745820509133
3

H 0.0 0.0 -0.7409398092758657
H 0.0 0.0 0.0
H 0.0 0.0 2.625745820509133
3

H 0.0 0.0 -0.7409398092758657
H 0.0 0.0 0.0
H 0.0 0.0 2.6267458205091327
3

H 0.0 0.0 -0.7409398092758657
H 0.0 0.0 0.0
H 0.0 0.0 2.6277458205091326
3

H 0.0 0.0 -0.7409398092758657
H 0.0 0.0 0.0
H 0.0 0.0 2.6287458205091325
3

H 0.0 0.0 -0.7409398092758657
H 0.0 0.0 0.0
H 0.0 0.0 2.6297458205091324
3

H 0.0 0.0 -0.7409223568694284
H 0.0 0.0 0.0
H 0.0 0.0 2.630745668204289
3

H 0.0 0.0 -0.7409223568694284
H 0.0 0.0 0.0
H 0.0 0.0 2.631745668204289
3

H 0.0 0.0 -0.7409223568694284
H 0.0 0.0 0.0
H 0.0 0.0 2.6327456682042887
3

H 0.0 0.0 -0.7409223568694284
H 0.0 0.0 0.0
H 0.0 0.0 2.633745668204289
3

H 0.0 0.0 -0.7409223568694284
H 0.0 0.0 0.0
H 0.0 0.0 2.6347456682042885
3

H 0.0 0.0 -0.7409223568694284
H 0.0 0.0 0.0
H 0.0 0.0 2.6357456682042884
3

H 0.0 0.0 -0.7409223568694284
H 0.0 0.0 0.0
H 0.0 0.0 2.636745668204288
3

H 0.0 0.0 -0.7409223568694284
H 0.0 0.0 0.0
H 0.0 0.0 2.637745668204288
3

H 0.0 0.0 -0.7409223568694284
H 0.0 0.0 0.0
H 0.0 0.0 2.638745668204288
3

H 0.0 0.0 -0.7409223568694284
H 0.0 0.0 0.0
H 0.0 0.0 2.639745668204288
3

H 0.0 0.0 -0.7409223568694284
H 0.0 0.0 0.0
H 0.0 0.0 2.640745668204288
3

H 0.0 0.0 -0.7409223568694284
H 0.0 0.0 0.0
H 0.0 0.0 2.641745668204288
3

H 0.0 0.0 -0.7409223568694284
H 0.0 0.0 0.0
H 0.0 0.0 2.642745668204288
3

H 0.0 0.0 -0.7409223568694284
H 0.0 0.0 0.0
H 0.0 0.0 2.6437456682042875
3

H 0.0 0.0 -0.7409223568694284
H 0.0 0.0 0.0
H 0.0 0.0 2.644745668204288
3

H 0.0 0.0 -0.7409223568694284
H 0.0 0.0 0.0
H 0.0 0.0 2.6457456682042872
3

H 0.0 0.0 -0.7409223568694284
H 0.0 0.0 0.0
H 0.0 0.0 2.646745668204287
3

H 0.0 0.0 -0.7409223568694284
H 0.0 0.0 0.0
H 0.0 0.0 2.647745668204287
3

H 0.0 0.0 -0.7409223568694284
H 0.0 0.0 0.0
H 0.0 0.0 2.648745668204287
3

H 0.0 0.0 -0.7409049044629912
H 0.0 0.0 0.0
H 0.0 0.0 2.6497455158994434
3

H 0.0 0.0 -0.7409049044629912
H 0.0 0.0 0.0
H 0.0 0.0 2.6507455158994437
3

H 0.0 0.0 -0.7409049044629912
H 0.0 0.0 0.0
H 0.0 0.0 2.651745515899443
3

H 0.0 0.0 -0.7409049044629912
H 0.0 0.0 0.0
H 0.0 0.0 2.652745515899443
3

H 0.0 0.0 -0.7409049044629912
H 0.0 0.0 0.0
H 0.0 0.0 2.653745515899443
3

H 0.0 0.0 -0.7409049044629912
H 0.0 0.0 0.0
H 0.0 0.0 2.654745515899443
3

H 0.0 0.0 -0.7409049044629912
H 0.0 0.0 0.0
H 0.0 0.0 2.6557455158994427
3

H 0.0 0.0 -0.7409049044629912
H 0.0 0.0 0.0
H 0.0 0.0 2.656745515899442
3

H 0.0 0.0 -0.7409049044629912
H 0.0 0.0 0.0
H 0.0 0.0 2.6577455158994425
3

H 0.0 0.0 -0.7409049044629912
H 0.0 0.0 0.0
H 0.0 0.0 2.6587455158994424
3

H 0.0 0.0 -0.7409049044629912
H 0.0 0.0 0.0
H 0.0 0.0 2.6597455158994423
3

H 0.0 0.0 -0.7409049044629912
H 0.0 0.0 0.0
H 0.0 0.0 2.660745515899442
3

H 0.0 0.0 -0.7409049044629912
H 0.0 0.0 0.0
H 0.0 0.0 2.661745515899442
3

H 0.0 0.0 -0.7409049044629912
H 0.0 0.0 0.0
H 0.0 0.0 2.662745515899442
3

H 0.0 0.0 -0.7409049044629912
H 0.0 0.0 0.0
H 0.0 0.0 2.663745515899442
3

H 0.0 0.0 -0.7409049044629912
H 0.0 0.0 0.0
H 0.0 0.0 2.6647455158994418
3

H 0.0 0.0 -0.7409049044629912
H 0.0 0.0 0.0
H 0.0 0.0 2.6657455158994416
3

H 0.0 0.0 -0.7409049044629912
H 0.0 0.0 0.0
H 0.0 0.0 2.666745515899441
3

H 0.0 0.0 -0.7409049044629912
H 0.0 0.0 0.0
H 0.0 0.0 2.6677455158994414
3

H 0.0 0.0 -0.7408874520565539
H 0.0 0.0 0.0
H 0.0 0.0 2.668745363594598
3

H 0.0 0.0 -0.7408874520565539
H 0.0 0.0 0.0
H 0.0 0.0 2.669745363594598
3

H 0.0 0.0 -0.7408874520565539
H 0.0 0.0 0.0
H 0.0 0.0 2.6707453635945977
3

H 0.0 0.0 -0.7408874520565539
H 0.0 0.0 0.0
H 0.0 0.0 2.6717453635945976
3

H 0.0 0.0 -0.7408874520565539
H 0.0 0.0 0.0
H 0.0 0.0 2.672745363594597
3

H 0.0 0.0 -0.7408874520565539
H 0.0 0.0 0.0
H 0.0 0.0 2.6737453635945974
3

H 0.0 0.0 -0.7408874520565539
H 0.0 0.0 0.0
H 0.0 0.0 2.674745363594597
3

H 0.0 0.0 -0.7408874520565539
H 0.0 0.0 0.0
H 0.0 0.0 2.675745363594597
3

H 0.0 0.0 -0.7408874520565539
H 0.0 0.0 0.0
H 0.0 0.0 2.676745363594597
3

H 0.0 0.0 -0.7408874520565539
H 0.0 0.0 0.0
H 0.0 0.0 2.677745363594597
3

H 0.0 0.0 -0.7408874520565539
H 0.0 0.0 0.0
H 0.0 0.0 2.678745363594597
3

H 0.0 0.0 -0.7408874520565539
H 0.0 0.0 0.0
H 0.0 0.0 2.6797453635945967
3

H 0.0 0.0 -0.7408874520565539
H 0.0 0.0 0.0
H 0.0 0.0 2.6807453635945966
3

H 0.0 0.0 -0.7408874520565539
H 0.0 0.0 0.0
H 0.0 0.0 2.6817453635945965
3

H 0.0 0.0 -0.7408874520565539
H 0.0 0.0 0.0
H 0.0 0.0 2.6827453635945964
3

H 0.0 0.0 -0.7408874520565539
H 0.0 0.0 0.0
H 0.0 0.0 2.6837453635945963
3

H 0.0 0.0 -0.7408874520565539
H 0.0 0.0 0.0
H 0.0 0.0 2.684745363594596
3

H 0.0 0.0 -0.7408874520565539
H 0.0 0.0 0.0
H 0.0 0.0 2.685745363594596
3

H 0.0 0.0 -0.7408874520565539
H 0.0 0.0 0.0
H 0.0 0.0 2.686745363594596
3

H 0.0 0.0 -0.7408874520565539
H 0.0 0.0 0.0
H 0.0 0.0 2.687745363594596
3

H 0.0 0.0 -0.7408874520565539
H 0.0 0.0 0.0
H 0.0 0.0 2.688745363594596
3

H 0.0 0.0 -0.7408874520565539
H 0.0 0.0 0.0
H 0.0 0.0 2.689745363594596
3

H 0.0 0.0 -0.7408699996501167
H 0.0 0.0 0.0
H 0.0 0.0 2.690745211289752
3

H 0.0 0.0 -0.7408699996501167
H 0.0 0.0 0.0
H 0.0 0.0 2.691745211289752
3

H 0.0 0.0 -0.7408699996501167
H 0.0 0.0 0.0
H 0.0 0.0 2.692745211289752
3

H 0.0 0.0 -0.7408699996501167
H 0.0 0.0 0.0
H 0.0 0.0 2.693745211289752
3

H 0.0 0.0 -0.7408699996501167
H 0.0 0.0 0.0
H 0.0 0.0 2.694745211289752
3

H 0.0 0.0 -0.7408699996501167
H 0.0 0.0 0.0
H 0.0 0.0 2.6957452112897515
3

H 0.0 0.0 -0.7408699996501167
H 0.0 0.0 0.0
H 0.0 0.0 2.6967452112897514
3

H 0.0 0.0 -0.7408699996501167
H 0.0 0.0 0.0
H 0.0 0.0 2.6977452112897518
3

H 0.0 0.0 -0.7408699996501167
H 0.0 0.0 0.0
H 0.0 0.0 2.698745211289751
3

H 0.0 0.0 -0.7408699996501167
H 0.0 0.0 0.0
H 0.0 0.0 2.699745211289751
3

H 0.0 0.0 -0.7408699996501167
H 0.0 0.0 0.0
H 0.0 0.0 2.700745211289751
3

H 0.0 0.0 -0.7408699996501167
H 0.0 0.0 0.0
H 0.0 0.0 2.701745211289751
3

H 0.0 0.0 -0.7408699996501167
H 0.0 0.0 0.0
H 0.0 0.0 2.7027452112897508
3

H 0.0 0.0 -0.7408699996501167
H 0.0 0.0 0.0
H 0.0 0.0 2.70374521128975
3

H 0.0 0.0 -0.7408699996501167
H 0.0 0.0 0.0
H 0.0 0.0 2.7047452112897505
3

H 0.0 0.0 -0.7408699996501167
H 0.0 0.0 0.0
H 0.0 0.0 2.7057452112897504
3

H 0.0 0.0 -0.7408699996501167
H 0.0 0.0 0.0
H 0.0 0.0 2.7067452112897503
3

H 0.0 0.0 -0.7408699996501167
H 0.0 0.0 0.0
H 0.0 0.0 2.70774521128975
3

H 0.0 0.0 -0.7408699996501167
H 0.0 0.0 0.0
H 0.0 0.0 2.70874521128975
3

H 0.0 0.0 -0.7408699996501167
H 0.0 0.0 0.0
H 0.0 0.0 2.70974521128975
3

H 0.0 0.0 -0.7408699996501167
H 0.0 0.0 0.0
H 0.0 0.0 2.71074521128975
3

H 0.0 0.0 -0.7408699996501167
H 0.0 0.0 0.0
H 0.0 0.0 2.7117452112897498
3

H 0.0 0.0 -0.7408699996501167
H 0.0 0.0 0.0
H 0.0 0.0 2.7127452112897497
3

H 0.0 0.0 -0.7408699996501167
H 0.0 0.0 0.0
H 0.0 0.0 2.713745211289749
3

H 0.0 0.0 -0.7408699996501167
H 0.0 0.0 0.0
H 0.0 0.0 2.714745211289749
3

H 0.0 0.0 -0.7408699996501167
H 0.0 0.0 0.0
H 0.0 0.0 2.7157452112897493
3

H 0.0 0.0 -0.7408699996501167
H 0.0 0.0 0.0
H 0.0 0.0 2.716745211289749
3

H 0.0 0.0 -0.7408699996501167
H 0.0 0.0 0.0
H 0.0 0.0 2.717745211289749
3

H 0.0 0.0 -0.7408699996501167
H 0.0 0.0 0.0
H 0.0 0.0 2.718745211289749
3

H 0.0 0.0 -0.7408525472436794
H 0.0 0.0 0.0
H 0.0 0.0 2.719745058984905
3

H 0.0 0.0 -0.7408525472436794
H 0.0 0.0 0.0
H 0.0 0.0 2.7207450589849054
3

H 0.0 0.0 -0.7408525472436794
H 0.0 0.0 0.0
H 0.0 0.0 2.7217450589849053
3

H 0.0 0.0 -0.7408525472436794
H 0.0 0.0 0.0
H 0.0 0.0 2.722745058984905
3

H 0.0 0.0 -0.7408525472436794
H 0.0 0.0 0.0
H 0.0 0.0 2.723745058984905
3

H 0.0 0.0 -0.7408525472436794
H 0.0 0.0 0.0
H 0.0 0.0 2.724745058984905
3

H 0.0 0.0 -0.7408525472436794
H 0.0 0.0 0.0
H 0.0 0.0 2.725745058984905
3

H 0.0 0.0 -0.7408525472436794
H 0.0 0.0 0.0
H 0.0 0.0 2.7267450589849047
3

H 0.0 0.0 -0.7408525472436794
H 0.0 0.0 0.0
H 0.0 0.0 2.7277450589849046
3

H 0.0 0.0 -0.7408525472436794
H 0.0 0.0 0.0
H 0.0 0.0 2.7287450589849045
3

H 0.0 0.0 -0.7408525472436794
H 0.0 0.0 0.0
H 0.0 0.0 2.7297450589849044
3

H 0.0 0.0 -0.7408525472436794
H 0.0 0.0 0.0
H 0.0 0.0 2.7307450589849043
3

H 0.0 0.0 -0.7408525472436794
H 0.0 0.0 0.0
H 0.0 0.0 2.731745058984904
3

H 0.0 0.0 -0.7408525472436794
H 0.0 0.0 0.0
H 0.0 0.0 2.732745058984904
3

H 0.0 0.0 -0.7408525472436794
H 0.0 0.0 0.0
H 0.0 0.0 2.733745058984904
3

H 0.0 0.0 -0.7408525472436794
H 0.0 0.0 0.0
H 0.0 0.0 2.734745058984904
3

H 0.0 0.0 -0.7408525472436794
H 0.0 0.0 0.0
H 0.0 0.0 2.735745058984904
3

H 0.0 0.0 -0.7408525472436794
H 0.0 0.0 0.0
H 0.0 0.0 2.736745058984904
3

H 0.0 0.0 -0.7408525472436794
H 0.0 0.0 0.0
H 0.0 0.0 2.7377450589849035
3

H 0.0 0.0 -0.7408525472436794
H 0.0 0.0 0.0
H 0.0 0.0 2.7387450589849034
3

H 0.0 0.0 -0.7408525472436794
H 0.0 0.0 0.0
H 0.0 0.0 2.7397450589849037
3

H 0.0 0.0 -0.7408525472436794
H 0.0 0.0 0.0
H 0.0 0.0 2.740745058984903
3

H 0.0 0.0 -0.7408525472436794
H 0.0 0.0 0.0
H 0.0 0.0 2.741745058984903
3

H 0.0 0.0 -0.7408525472436794
H 0.0 0.0 0.0
H 0.0 0.0 2.742745058984903
3

H 0.0 0.0 -0.7408525472436794
H 0.0 0.0 0.0
H 0.0 0.0 2.743745058984903
3

H 0.0 0.0 -0.7408525472436794
H 0.0 0.0 0.0
H 0.0 0.0 2.7447450589849027
3

H 0.0 0.0 -0.7408525472436794
H 0.0 0.0 0.0
H 0.0 0.0 2.7457450589849026
3

H 0.0 0.0 -0.7408525472436794
H 0.0 0.0 0.0
H 0.0 0.0 2.7467450589849025
3

H 0.0 0.0 -0.7408525472436794
H 0.0 0.0 0.0
H 0.0 0.0 2.7477450589849024
3

H 0.0 0.0 -0.7408525472436794
H 0.0 0.0 0.0
H 0.0 0.0 2.7487450589849023
3

H 0.0 0.0 -0.7408525472436794
H 0.0 0.0 0.0
H 0.0 0.0 2.749745058984902
3

H 0.0 0.0 -0.7408525472436794
H 0.0 0.0 0.0
H 0.0 0.0 2.750745058984902
3

H 0.0 0.0 -0.7408525472436794
H 0.0 0.0 0.0
H 0.0 0.0 2.751745058984902
3

H 0.0 0.0 -0.7408350948372422
H 0.0 0.0 0.0
H 0.0 0.0 2.7527449066800584
3

H 0.0 0.0 -0.7408350948372422
H 0.0 0.0 0.0
H 0.0 0.0 2.7537449066800583
3

H 0.0 0.0 -0.7408350948372422
H 0.0 0.0 0.0
H 0.0 0.0 2.7547449066800582
3

H 0.0 0.0 -0.7408350948372422
H 0.0 0.0 0.0
H 0.0 0.0 2.755744906680058
3

H 0.0 0.0 -0.7408350948372422
H 0.0 0.0 0.0
H 0.0 0.0 2.756744906680058
3

H 0.0 0.0 -0.7408350948372422
H 0.0 0.0 0.0
H 0.0 0.0 2.757744906680058
3

H 0.0 0.0 -0.7408350948372422
H 0.0 0.0 0.0
H 0.0 0.0 2.758744906680058
3

H 0.0 0.0 -0.7408350948372422
H 0.0 0.0 0.0
H 0.0 0.0 2.7597449066800577
3

H 0.0 0.0 -0.7408350948372422
H 0.0 0.0 0.0
H 0.0 0.0 2.7607449066800576
3

H 0.0 0.0 -0.7408350948372422
H 0.0 0.0 0.0
H 0.0 0.0 2.761744906680057
3

H 0.0 0.0 -0.7408350948372422
H 0.0 0.0 0.0
H 0.0 0.0 2.7627449066800573
3

H 0.0 0.0 -0.7408350948372422
H 0.0 0.0 0.0
H 0.0 0.0 2.763744906680057
3

H 0.0 0.0 -0.7408350948372422
H 0.0 0.0 0.0
H 0.0 0.0 2.764744906680057
3

H 0.0 0.0 -0.7408350948372422
H 0.0 0.0 0.0
H 0.0 0.0 2.765744906680057
3

H 0.0 0.0 -0.7408350948372422
H 0.0 0.0 0.0
H 0.0 0.0 2.766744906680057
3

H 0.0 0.0 -0.7408350948372422
H 0.0 0.0 0.0
H 0.0 0.0 2.767744906680057
3

H 0.0 0.0 -0.7408350948372422
H 0.0 0.0 0.0
H 0.0 0.0 2.7687449066800567
3

H 0.0 0.0 -0.7408350948372422
H 0.0 0.0 0.0
H 0.0 0.0 2.769744906680057
3

H 0.0 0.0 -0.7408350948372422
H 0.0 0.0 0.0
H 0.0 0.0 2.7707449066800565
3

H 0.0 0.0 -0.7408350948372422
H 0.0 0.0 0.0
H 0.0 0.0 2.7717449066800564
3

H 0.0 0.0 -0.7408350948372422
H 0.0 0.0 0.0
H 0.0 0.0 2.772744906680056
3

H 0.0 0.0 -0.7408350948372422
H 0.0 0.0 0.0
H 0.0 0.0 2.773744906680056
3

H 0.0 0.0 -0.7408350948372422
H 0.0 0.0 0.0
H 0.0 0.0 2.774744906680056
3

H 0.0 0.0 -0.7408350948372422
H 0.0 0.0 0.0
H 0.0 0.0 2.775744906680056
3

H 0.0 0.0 -0.7408350948372422
H 0.0 0.0 0.0
H 0.0 0.0 2.776744906680056
3

H 0.0 0.0 -0.7408350948372422
H 0.0 0.0 0.0
H 0.0 0.0 2.777744906680056
3

H 0.0 0.0 -0.7408350948372422
H 0.0 0.0 0.0
H 0.0 0.0 2.778744906680056
3

H 0.0 0.0 -0.7408350948372422
H 0.0 0.0 0.0
H 0.0 0.0 2.7797449066800555
3

H 0.0 0.0 -0.7408350948372422
H 0.0 0.0 0.0
H 0.0 0.0 2.780744906680056
3

H 0.0 0.0 -0.7408350948372422
H 0.0 0.0 0.0
H 0.0 0.0 2.7817449066800557
3

H 0.0 0.0 -0.7408350948372422
H 0.0 0.0 0.0
H 0.0 0.0 2.782744906680055
3

H 0.0 0.0 -0.7408350948372422
H 0.0 0.0 0.0
H 0.0 0.0 2.783744906680055
3

H 0.0 0.0 -0.7408350948372422
H 0.0 0.0 0.0
H 0.0 0.0 2.784744906680055
3

H 0.0 0.0 -0.740817642430805
H 0.0 0.0 0.0
H 0.0 0.0 2.7857447543752114
3

H 0.0 0.0 -0.740817642430805
H 0.0 0.0 0.0
H 0.0 0.0 2.7867447543752117
3

H 0.0 0.0 -0.740817642430805
H 0.0 0.0 0.0
H 0.0 0.0 2.787744754375211
3

H 0.0 0.0 -0.740817642430805
H 0.0 0.0 0.0
H 0.0 0.0 2.788744754375211
3

H 0.0 0.0 -0.740817642430805
H 0.0 0.0 0.0
H 0.0 0.0 2.789744754375211
3

H 0.0 0.0 -0.740817642430805
H 0.0 0.0 0.0
H 0.0 0.0 2.790744754375211
3

H 0.0 0.0 -0.740817642430805
H 0.0 0.0 0.0
H 0.0 0.0 2.7917447543752107
3

H 0.0 0.0 -0.740817642430805
H 0.0 0.0 0.0
H 0.0 0.0 2.79274475437521
3

H 0.0 0.0 -0.740817642430805
H 0.0 0.0 0.0
H 0.0 0.0 2.7937447543752105
3

H 0.0 0.0 -0.740817642430805
H 0.0 0.0 0.0
H 0.0 0.0 2.7947447543752104
3

H 0.0 0.0 -0.740817642430805
H 0.0 0.0 0.0
H 0.0 0.0 2.7957447543752103
3

H 0.0 0.0 -0.740817642430805
H 0.0 0.0 0.0
H 0.0 0.0 2.79674475437521
3

H 0.0 0.0 -0.740817642430805
H 0.0 0.0 0.0
H 0.0 0.0 2.79774475437521
3

H 0.0 0.0 -0.740817642430805
H 0.0 0.0 0.0
H 0.0 0.0 2.79874475437521
3

H 0.0 0.0 -0.740817642430805
H 0.0 0.0 0.0
H 0.0 0.0 2.79974475437521
3

H 0.0 0.0 -0.740817642430805
H 0.0 0.0 0.0
H 0.0 0.0 2.8007447543752098
3

H 0.0 0.0 -0.740817642430805
H 0.0 0.0 0.0
H 0.0 0.0 2.8017447543752096
3

H 0.0 0.0 -0.740817642430805
H 0.0 0.0 0.0
H 0.0 0.0 2.802744754375209
3

H 0.0 0.0 -0.740817642430805
H 0.0 0.0 0.0
H 0.0 0.0 2.803744754375209
3

H 0.0 0.0 -0.740817642430805
H 0.0 0.0 0.0
H 0.0 0.0 2.8047447543752093
3

H 0.0 0.0 -0.740817642430805
H 0.0 0.0 0.0
H 0.0 0.0 2.805744754375209
3

H 0.0 0.0 -0.740817642430805
H 0.0 0.0 0.0
H 0.0 0.0 2.806744754375209
3

H 0.0 0.0 -0.740817642430805
H 0.0 0.0 0.0
H 0.0 0.0 2.807744754375209
3

H 0.0 0.0 -0.740817642430805
H 0.0 0.0 0.0
H 0.0 0.0 2.808744754375209
3

H 0.0 0.0 -0.740817642430805
H 0.0 0.0 0.0
H 0.0 0.0 2.8097447543752088
3

H 0.0 0.0 -0.740817642430805
H 0.0 0.0 0.0
H 0.0 0.0 2.8107447543752087
3

H 0.0 0.0 -0.740817642430805
H 0.0 0.0 0.0
H 0.0 0.0 2.8117447543752085
3

H 0.0 0.0 -0.740817642430805
H 0.0 0.0 0.0
H 0.0 0.0 2.8127447543752084
3

H 0.0 0.0 -0.740817642430805
H 0.0 0.0 0.0
H 0.0 0.0 2.8137447543752083
3

H 0.0 0.0 -0.740817642430805
H 0.0 0.0 0.0
H 0.0 0.0 2.814744754375208
3

H 0.0 0.0 -0.740817642430805
H 0.0 0.0 0.0
H 0.0 0.0 2.815744754375208
3

H 0.0 0.0 -0.740817642430805
H 0.0 0.0 0.0
H 0.0 0.0 2.816744754375208
3

H 0.0 0.0 -0.740817642430805
H 0.0 0.0 0.0
H 0.0 0.0 2.817744754375208
3

H 0.0 0.0 -0.740817642430805
H 0.0 0.0 0.0
H 0.0 0.0 2.818744754375208
3

H 0.0 0.0 -0.740817642430805
H 0.0 0.0 0.0
H 0.0 0.0 2.819744754375208
3

H 0.0 0.0 -0.740817642430805
H 0.0 0.0 0.0
H 0.0 0.0 2.820744754375208
3

H 0.0 0.0 -0.740817642430805
H 0.0 0.0 0.0
H 0.0 0.0 2.8217447543752074
3

H 0.0 0.0 -0.740817642430805
H 0.0 0.0 0.0
H 0.0 0.0 2.8227447543752078
3

H 0.0 0.0 -0.740817642430805
H 0.0 0.0 0.0
H 0.0 0.0 2.8237447543752072
3

H 0.0 0.0 -0.740817642430805
H 0.0 0.0 0.0
H 0.0 0.0 2.824744754375207
3

H 0.0 0.0 -0.740817642430805
H 0.0 0.0 0.0
H 0.0 0.0 2.825744754375207
3

H 0.0 0.0 -0.740817642430805
H 0.0 0.0 0.0
H 0.0 0.0 2.826744754375207
3

H 0.0 0.0 -0.740817642430805
H 0.0 0.0 0.0
H 0.0 0.0 2.827744754375207
3

H 0.0 0.0 -0.740817642430805
H 0.0 0.0 0.0
H 0.0 0.0 2.8287447543752067
3

H 0.0 0.0 -0.740817642430805
H 0.0 0.0 0.0
H 0.0 0.0 2.8297447543752066
3

H 0.0 0.0 -0.7408001900243677
H 0.0 0.0 0.0
H 0.0 0.0 2.830744602070363
3

H 0.0 0.0 -0.7408001900243677
H 0.0 0.0 0.0
H 0.0 0.0 2.831744602070363
3

H 0.0 0.0 -0.7408001900243677
H 0.0 0.0 0.0
H 0.0 0.0 2.832744602070363
3

H 0.0 0.0 -0.7408001900243677
H 0.0 0.0 0.0
H 0.0 0.0 2.8337446020703627
3

H 0.0 0.0 -0.7408001900243677
H 0.0 0.0 0.0
H 0.0 0.0 2.8347446020703626
3

H 0.0 0.0 -0.7408001900243677
H 0.0 0.0 0.0
H 0.0 0.0 2.8357446020703625
3

H 0.0 0.0 -0.7408001900243677
H 0.0 0.0 0.0
H 0.0 0.0 2.8367446020703624
3

H 0.0 0.0 -0.7408001900243677
H 0.0 0.0 0.0
H 0.0 0.0 2.8377446020703623
3

H 0.0 0.0 -0.7408001900243677
H 0.0 0.0 0.0
H 0.0 0.0 2.838744602070362
3

H 0.0 0.0 -0.7408001900243677
H 0.0 0.0 0.0
H 0.0 0.0 2.839744602070362
3

H 0.0 0.0 -0.7408001900243677
H 0.0 0.0 0.0
H 0.0 0.0 2.840744602070362
3

H 0.0 0.0 -0.7408001900243677
H 0.0 0.0 0.0
H 0.0 0.0 2.841744602070362
3

H 0.0 0.0 -0.7408001900243677
H 0.0 0.0 0.0
H 0.0 0.0 2.8427446020703617
3

H 0.0 0.0 -0.7408001900243677
H 0.0 0.0 0.0
H 0.0 0.0 2.8437446020703616
3

H 0.0 0.0 -0.7408001900243677
H 0.0 0.0 0.0
H 0.0 0.0 2.844744602070361
3

H 0.0 0.0 -0.7408001900243677
H 0.0 0.0 0.0
H 0.0 0.0 2.8457446020703614
3

H 0.0 0.0 -0.7408001900243677
H 0.0 0.0 0.0
H 0.0 0.0 2.8467446020703613
3

H 0.0 0.0 -0.7408001900243677
H 0.0 0.0 0.0
H 0.0 0.0 2.847744602070361
3

H 0.0 0.0 -0.7408001900243677
H 0.0 0.0 0.0
H 0.0 0.0 2.848744602070361
3

H 0.0 0.0 -0.7408001900243677
H 0.0 0.0 0.0
H 0.0 0.0 2.849744602070361
3

H 0.0 0.0 -0.7408001900243677
H 0.0 0.0 0.0
H 0.0 0.0 2.850744602070361
3

H 0.0 0.0 -0.7408001900243677
H 0.0 0.0 0.0
H 0.0 0.0 2.8517446020703607
3

H 0.0 0.0 -0.7408001900243677
H 0.0 0.0 0.0
H 0.0 0.0 2.8527446020703606
3

H 0.0 0.0 -0.7408001900243677
H 0.0 0.0 0.0
H 0.0 0.0 2.8537446020703605
3

H 0.0 0.0 -0.7408001900243677
H 0.0 0.0 0.0
H 0.0 0.0 2.8547446020703604
3

H 0.0 0.0 -0.7408001900243677
H 0.0 0.0 0.0
H 0.0 0.0 2.8557446020703603
3

H 0.0 0.0 -0.7408001900243677
H 0.0 0.0 0.0
H 0.0 0.0 2.85674460207036
3

H 0.0 0.0 -0.7408001900243677
H 0.0 0.0 0.0
H 0.0 0.0 2.85774460207036
3

H 0.0 0.0 -0.7408001900243677
H 0.0 0.0 0.0
H 0.0 0.0 2.85874460207036
3

H 0.0 0.0 -0.7408001900243677
H 0.0 0.0 0.0
H 0.0 0.0 2.85974460207036
3

H 0.0 0.0 -0.7408001900243677
H 0.0 0.0 0.0
H 0.0 0.0 2.86074460207036
3

H 0.0 0.0 -0.7408001900243677
H 0.0 0.0 0.0
H 0.0 0.0 2.86174460207036
3

H 0.0 0.0 -0.7408001900243677
H 0.0 0.0 0.0
H 0.0 0.0 2.8627446020703595
3

H 0.0 0.0 -0.7408001900243677
H 0.0 0.0 0.0
H 0.0 0.0 2.8637446020703594
3

H 0.0 0.0 -0.7408001900243677
H 0.0 0.0 0.0
H 0.0 0.0 2.8647446020703597
3

H 0.0 0.0 -0.7408001900243677
H 0.0 0.0 0.0
H 0.0 0.0 2.865744602070359
3

H 0.0 0.0 -0.7408001900243677
H 0.0 0.0 0.0
H 0.0 0.0 2.866744602070359
3

H 0.0 0.0 -0.7408001900243677
H 0.0 0.0 0.0
H 0.0 0.0 2.867744602070359
3

H 0.0 0.0 -0.7408001900243677
H 0.0 0.0 0.0
H 0.0 0.0 2.868744602070359
3

H 0.0 0.0 -0.7408001900243677
H 0.0 0.0 0.0
H 0.0 0.0 2.8697446020703588
3

H 0.0 0.0 -0.7408001900243677
H 0.0 0.0 0.0
H 0.0 0.0 2.870744602070358
3

H 0.0 0.0 -0.7408001900243677
H 0.0 0.0 0.0
H 0.0 0.0 2.8717446020703585
3

H 0.0 0.0 -0.7408001900243677
H 0.0 0.0 0.0
H 0.0 0.0 2.8727446020703584
3

H 0.0 0.0 -0.7408001900243677
H 0.0 0.0 0.0
H 0.0 0.0 2.8737446020703583
3

H 0.0 0.0 -0.7408001900243677
H 0.0 0.0 0.0
H 0.0 0.0 2.874744602070358
3

H 0.0 0.0 -0.7408001900243677
H 0.0 0.0 0.0
H 0.0 0.0 2.875744602070358
3

H 0.0 0.0 -0.7408001900243677
H 0.0 0.0 0.0
H 0.0 0.0 2.876744602070358
3

H 0.0 0.0 -0.7408001900243677
H 0.0 0.0 0.0
H 0.0 0.0 2.877744602070358
3

H 0.0 0.0 -0.7408001900243677
H 0.0 0.0 0.0
H 0.0 0.0 2.8787446020703578
3

H 0.0 0.0 -0.7408001900243677
H 0.0 0.0 0.0
H 0.0 0.0 2.8797446020703577
3

H 0.0 0.0 -0.7408001900243677
H 0.0 0.0 0.0
H 0.0 0.0 2.880744602070357
3

H 0.0 0.0 -0.7408001900243677
H 0.0 0.0 0.0
H 0.0 0.0 2.881744602070357
3

H 0.0 0.0 -0.7408001900243677
H 0.0 0.0 0.0
H 0.0 0.0 2.8827446020703573
3

H 0.0 0.0 -0.7408001900243677
H 0.0 0.0 0.0
H 0.0 0.0 2.883744602070357
3

H 0.0 0.0 -0.7408001900243677
H 0.0 0.0 0.0
H 0.0 0.0 2.884744602070357
3

H 0.0 0.0 -0.7407827376179305
H 0.0 0.0 0.0
H 0.0 0.0 2.8857444497655136
3

H 0.0 0.0 -0.7407827376179305
H 0.0 0.0 0.0
H 0.0 0.0 2.886744449765513
3

H 0.0 0.0 -0.7407827376179305
H 0.0 0.0 0.0
H 0.0 0.0 2.8877444497655134
3

H 0.0 0.0 -0.7407827376179305
H 0.0 0.0 0.0
H 0.0 0.0 2.8887444497655133
3

H 0.0 0.0 -0.7407827376179305
H 0.0 0.0 0.0
H 0.0 0.0 2.889744449765513
3

H 0.0 0.0 -0.7407827376179305
H 0.0 0.0 0.0
H 0.0 0.0 2.890744449765513
3

H 0.0 0.0 -0.7407827376179305
H 0.0 0.0 0.0
H 0.0 0.0 2.891744449765513
3

H 0.0 0.0 -0.7407827376179305
H 0.0 0.0 0.0
H 0.0 0.0 2.892744449765513
3

H 0.0 0.0 -0.7407827376179305
H 0.0 0.0 0.0
H 0.0 0.0 2.8937444497655127
3

H 0.0 0.0 -0.7407827376179305
H 0.0 0.0 0.0
H 0.0 0.0 2.8947444497655126
3

H 0.0 0.0 -0.7407827376179305
H 0.0 0.0 0.0
H 0.0 0.0 2.8957444497655125
3

H 0.0 0.0 -0.7407827376179305
H 0.0 0.0 0.0
H 0.0 0.0 2.8967444497655124
3

H 0.0 0.0 -0.7407827376179305
H 0.0 0.0 0.0
H 0.0 0.0 2.8977444497655123
3

H 0.0 0.0 -0.7407827376179305
H 0.0 0.0 0.0
H 0.0 0.0 2.898744449765512
3

H 0.0 0.0 -0.7407827376179305
H 0.0 0.0 0.0
H 0.0 0.0 2.899744449765512
3

H 0.0 0.0 -0.7407827376179305
H 0.0 0.0 0.0
H 0.0 0.0 2.900744449765512
3

H 0.0 0.0 -0.7407827376179305
H 0.0 0.0 0.0
H 0.0 0.0 2.901744449765512
3

H 0.0 0.0 -0.7407827376179305
H 0.0 0.0 0.0
H 0.0 0.0 2.902744449765512
3

H 0.0 0.0 -0.7407827376179305
H 0.0 0.0 0.0
H 0.0 0.0 2.903744449765512
3

H 0.0 0.0 -0.7407827376179305
H 0.0 0.0 0.0
H 0.0 0.0 2.9047444497655115
3

H 0.0 0.0 -0.7407827376179305
H 0.0 0.0 0.0
H 0.0 0.0 2.9057444497655114
3

H 0.0 0.0 -0.7407827376179305
H 0.0 0.0 0.0
H 0.0 0.0 2.9067444497655117
3

H 0.0 0.0 -0.7407827376179305
H 0.0 0.0 0.0
H 0.0 0.0 2.907744449765511
3

H 0.0 0.0 -0.7407827376179305
H 0.0 0.0 0.0
H 0.0 0.0 2.908744449765511
3

H 0.0 0.0 -0.7407827376179305
H 0.0 0.0 0.0
H 0.0 0.0 2.909744449765511
3

H 0.0 0.0 -0.7407827376179305
H 0.0 0.0 0.0
H 0.0 0.0 2.910744449765511
3

H 0.0 0.0 -0.7407827376179305
H 0.0 0.0 0.0
H 0.0 0.0 2.9117444497655107
3

H 0.0 0.0 -0.7407827376179305
H 0.0 0.0 0.0
H 0.0 0.0 2.9127444497655106
3

H 0.0 0.0 -0.7407827376179305
H 0.0 0.0 0.0
H 0.0 0.0 2.9137444497655105
3

H 0.0 0.0 -0.7407827376179305
H 0.0 0.0 0.0
H 0.0 0.0 2.9147444497655104
3

H 0.0 0.0 -0.7407827376179305
H 0.0 0.0 0.0
H 0.0 0.0 2.9157444497655103
3

H 0.0 0.0 -0.7407827376179305
H 0.0 0.0 0.0
H 0.0 0.0 2.91674444976551
3

H 0.0 0.0 -0.7407827376179305
H 0.0 0.0 0.0
H 0.0 0.0 2.91774444976551
3

H 0.0 0.0 -0.7407827376179305
H 0.0 0.0 0.0
H 0.0 0.0 2.91874444976551
3

H 0.0 0.0 -0.7407827376179305
H 0.0 0.0 0.0
H 0.0 0.0 2.91974444976551
3

H 0.0 0.0 -0.7407827376179305
H 0.0 0.0 0.0
H 0.0 0.0 2.9207444497655097
3

H 0.0 0.0 -0.7407827376179305
H 0.0 0.0 0.0
H 0.0 0.0 2.9217444497655096
3

H 0.0 0.0 -0.7407827376179305
H 0.0 0.0 0.0
H 0.0 0.0 2.922744449765509
3

H 0.0 0.0 -0.7407827376179305
H 0.0 0.0 0.0
H 0.0 0.0 2.9237444497655094
3

H 0.0 0.0 -0.7407827376179305
H 0.0 0.0 0.0
H 0.0 0.0 2.9247444497655093
3

H 0.0 0.0 -0.7407827376179305
H 0.0 0.0 0.0
H 0.0 0.0 2.925744449765509
3

H 0.0 0.0 -0.7407827376179305
H 0.0 0.0 0.0
H 0.0 0.0 2.926744449765509
3

H 0.0 0.0 -0.7407827376179305
H 0.0 0.0 0.0
H 0.0 0.0 2.927744449765509
3

H 0.0 0.0 -0.7407827376179305
H 0.0 0.0 0.0
H 0.0 0.0 2.928744449765509
3

H 0.0 0.0 -0.7407827376179305
H 0.0 0.0 0.0
H 0.0 0.0 2.9297444497655087
3

H 0.0 0.0 -0.7407827376179305
H 0.0 0.0 0.0
H 0.0 0.0 2.9307444497655086
3

H 0.0 0.0 -0.7407827376179305
H 0.0 0.0 0.0
H 0.0 0.0 2.9317444497655085
3

H 0.0 0.0 -0.7407827376179305
H 0.0 0.0 0.0
H 0.0 0.0 2.9327444497655084
3

H 0.0 0.0 -0.7407827376179305
H 0.0 0.0 0.0
H 0.0 0.0 2.9337444497655083
3

H 0.0 0.0 -0.7407827376179305
H 0.0 0.0 0.0
H 0.0 0.0 2.934744449765508
3

H 0.0 0.0 -0.7407827376179305
H 0.0 0.0 0.0
H 0.0 0.0 2.935744449765508
3

H 0.0 0.0 -0.7407827376179305
H 0.0 0.0 0.0
H 0.0 0.0 2.936744449765508
3

H 0.0 0.0 -0.7407827376179305
H 0.0 0.0 0.0
H 0.0 0.0 2.937744449765508
3

H 0.0 0.0 -0.7407827376179305
H 0.0 0.0 0.0
H 0.0 0.0 2.938744449765508
3

H 0.0 0.0 -0.7407827376179305
H 0.0 0.0 0.0
H 0.0 0.0 2.939744449765508
3

H 0.0 0.0 -0.7407827376179305
H 0.0 0.0 0.0
H 0.0 0.0 2.9407444497655075
3

H 0.0 0.0 -0.7407827376179305
H 0.0 0.0 0.0
H 0.0 0.0 2.9417444497655074
3

H 0.0 0.0 -0.7407827376179305
H 0.0 0.0 0.0
H 0.0 0.0 2.9427444497655078
3

H 0.0 0.0 -0.7407827376179305
H 0.0 0.0 0.0
H 0.0 0.0 2.943744449765507
3

H 0.0 0.0 -0.7407827376179305
H 0.0 0.0 0.0
H 0.0 0.0 2.944744449765507
3

H 0.0 0.0 -0.7407827376179305
H 0.0 0.0 0.0
H 0.0 0.0 2.945744449765507
3

H 0.0 0.0 -0.7407827376179305
H 0.0 0.0 0.0
H 0.0 0.0 2.946744449765507
3

H 0.0 0.0 -0.7407827376179305
H 0.0 0.0 0.0
H 0.0 0.0 2.9477444497655068
3

H 0.0 0.0 -0.7407827376179305
H 0.0 0.0 0.0
H 0.0 0.0 2.948744449765506
3

H 0.0 0.0 -0.7407827376179305
H 0.0 0.0 0.0
H 0.0 0.0 2.9497444497655065
3

H 0.0 0.0 -0.7407827376179305
H 0.0 0.0 0.0
H 0.0 0.0 2.9507444497655064
3

H 0.0 0.0 -0.7407827376179305
H 0.0 0.0 0.0
H 0.0 0.0 2.9517444497655063
3

H 0.0 0.0 -0.7407827376179305
H 0.0 0.0 0.0
H 0.0 0.0 2.952744449765506
3

H 0.0 0.0 -0.7407827376179305
H 0.0 0.0 0.0
H 0.0 0.0 2.953744449765506
3

H 0.0 0.0 -0.7407827376179305
H 0.0 0.0 0.0
H 0.0 0.0 2.954744449765506
3

H 0.0 0.0 -0.7407827376179305
H 0.0 0.0 0.0
H 0.0 0.0 2.955744449765506
3

H 0.0 0.0 -0.7407827376179305
H 0.0 0.0 0.0
H 0.0 0.0 2.9567444497655058
3

H 0.0 0.0 -0.7407827376179305
H 0.0 0.0 0.0
H 0.0 0.0 2.9577444497655057
3

H 0.0 0.0 -0.7407827376179305
H 0.0 0.0 0.0
H 0.0 0.0 2.958744449765505
3

H 0.0 0.0 -0.7407827376179305
H 0.0 0.0 0.0
H 0.0 0.0 2.959744449765505
3

H 0.0 0.0 -0.7407827376179305
H 0.0 0.0 0.0
H 0.0 0.0 2.9607444497655053
3

H 0.0 0.0 -0.7407827376179305
H 0.0 0.0 0.0
H 0.0 0.0 2.961744449765505
3

H 0.0 0.0 -0.7407827376179305
H 0.0 0.0 0.0
H 0.0 0.0 2.962744449765505
3

H 0.0 0.0 -0.7407827376179305
H 0.0 0.0 0.0
H 0.0 0.0 2.963744449765505
3

H 0.0 0.0 -0.7407827376179305
H 0.0 0.0 0.0
H 0.0 0.0 2.964744449765505
3

H 0.0 0.0 -0.7407827376179305
H 0.0 0.0 0.0
H 0.0 0.0 2.9657444497655048
3

H 0.0 0.0 -0.7407827376179305
H 0.0 0.0 0.0
H 0.0 0.0 2.9667444497655047
3

H 0.0 0.0 -0.7407827376179305
H 0.0 0.0 0.0
H 0.0 0.0 2.967744449765505
3

H 0.0 0.0 -0.7407652852114932
H 0.0 0.0 0.0
H 0.0 0.0 2.968744297460661
3

H 0.0 0.0 -0.7407652852114932
H 0.0 0.0 0.0
H 0.0 0.0 2.969744297460661
3

H 0.0 0.0 -0.7407652852114932
H 0.0 0.0 0.0
H 0.0 0.0 2.970744297460661
3

H 0.0 0.0 -0.7407652852114932
H 0.0 0.0 0.0
H 0.0 0.0 2.9717442974606607
3

H 0.0 0.0 -0.7407652852114932
H 0.0 0.0 0.0
H 0.0 0.0 2.9727442974606606
3

H 0.0 0.0 -0.7407652852114932
H 0.0 0.0 0.0
H 0.0 0.0 2.9737442974606605
3

H 0.0 0.0 -0.7407652852114932
H 0.0 0.0 0.0
H 0.0 0.0 2.9747442974606604
3

H 0.0 0.0 -0.7407652852114932
H 0.0 0.0 0.0
H 0.0 0.0 2.9757442974606603
3

H 0.0 0.0 -0.7407652852114932
H 0.0 0.0 0.0
H 0.0 0.0 2.97674429746066
3

H 0.0 0.0 -0.7407652852114932
H 0.0 0.0 0.0
H 0.0 0.0 2.97774429746066
3

H 0.0 0.0 -0.7407652852114932
H 0.0 0.0 0.0
H 0.0 0.0 2.97874429746066
3

H 0.0 0.0 -0.7407652852114932
H 0.0 0.0 0.0
H 0.0 0.0 2.97974429746066
3

H 0.0 0.0 -0.7407652852114932
H 0.0 0.0 0.0
H 0.0 0.0 2.98074429746066
3

H 0.0 0.0 -0.7407652852114932
H 0.0 0.0 0.0
H 0.0 0.0 2.98174429746066
3

H 0.0 0.0 -0.7407652852114932
H 0.0 0.0 0.0
H 0.0 0.0 2.9827442974606595
3

H 0.0 0.0 -0.7407652852114932
H 0.0 0.0 0.0
H 0.0 0.0 2.9837442974606594
3

H 0.0 0.0 -0.7407827376179305
H 0.0 0.0 0.0
H 0.0 0.0 2.984744145155816
3

H 0.0 0.0 -0.7407827376179305
H 0.0 0.0 0.0
H 0.0 0.0 2.985744145155816
3

H 0.0 0.0 -0.7407827376179305
H 0.0 0.0 0.0
H 0.0 0.0 2.986744145155816
3

H 0.0 0.0 -0.7407652852114932
H 0.0 0.0 0.0
H 0.0 0.0 2.987743992850972
3

H 0.0 0.0 -0.7407652852114932
H 0.0 0.0 0.0
H 0.0 0.0 2.988743992850972
3

H 0.0 0.0 -0.7407652852114932
H 0.0 0.0 0.0
H 0.0 0.0 2.989743992850972
3

H 0.0 0.0 -0.7407652852114932
H 0.0 0.0 0.0
H 0.0 0.0 2.990743992850972
3

H 0.0 0.0 -0.7407652852114932
H 0.0 0.0 0.0
H 0.0 0.0 2.991743992850972
3

H 0.0 0.0 -0.7407827376179305
H 0.0 0.0 0.0
H 0.0 0.0 2.992743840546128
3

H 0.0 0.0 -0.7408001900243677
H 0.0 0.0 0.0
H 0.0 0.0 2.9937436882412847
3

H 0.0 0.0 -0.740817642430805
H 0.0 0.0 0.0
H 0.0 0.0 2.994743535936441
3

H 0.0 0.0 -0.740817642430805
H 0.0 0.0 0.0
H 0.0 0.0 2.995743535936441
3

H 0.0 0.0 -0.7408001900243677
H 0.0 0.0 0.0
H 0.0 0.0 2.996743383631597
3

H 0.0 0.0 -0.7407827376179305
H 0.0 0.0 0.0
H 0.0 0.0 2.997743231326754
3

H 0.0 0.0 -0.7407478381212279
H 0.0 0.0 0.0
H 0.0 0.0 2.998742622153773
