Jobname.Temp
SP        U                             aug-cc-pVTZ         
Number of atoms                            I                3
Charge                                     I                0
Multiplicity                               I                2
Number of electrons                        I                3
Number of alpha electrons                  I                2
Number of beta electrons                   I                1
Atomic numbers                             I   N=           3
           1           1           1
Current cartesian coordinates              R   N=           9
  0.00000000E+00  0.00000000E+00 -1.42713765E+00  0.00000000E+00  0.00000000E+00
  0.00000000E+00  0.00000000E+00  0.00000000E+00  4.71672656E+00
Nuclear charges                            R   N=           3
  1.00000000E+00  1.00000000E+00  1.00000000E+00
Number of basis functions                  I               69
Number of contracted shells                I               27
Number of primitive shells                 I               33
Highest angular momentum                   I                2
Largest degree of contraction              I                3
Shell types                                I   N=          27
           0           0           0           0           1           1
           1          -2          -2           0           0           0
           0           1           1           1          -2          -2
           0           0           0           0           1           1
           1          -2          -2
Number of primitives per shell             I   N=          27
           3           1           1           1           1           1
           1           1           1           3           1           1
           1           1           1           1           1           1
           3           1           1           1           1           1
           1           1           1
Shell to atom map                          I   N=          27
           1           1           1           1           1           1
           1           1           1           2           2           2
           2           2           2           2           2           2
           3           3           3           3           3           3
           3           3           3
Primitive exponents                        R   N=          33
  3.38700000E+01  5.09500000E+00  1.15900000E+00  3.25800000E-01  1.02700000E-01
  2.52600000E-02  1.40700000E+00  3.88000000E-01  1.02000000E-01  1.05700000E+00
  2.47000000E-01  3.38700000E+01  5.09500000E+00  1.15900000E+00  3.25800000E-01
  1.02700000E-01  2.52600000E-02  1.40700000E+00  3.88000000E-01  1.02000000E-01
  1.05700000E+00  2.47000000E-01  3.38700000E+01  5.09500000E+00  1.15900000E+00
  3.25800000E-01  1.02700000E-01  2.52600000E-02  1.40700000E+00  3.88000000E-01
  1.02000000E-01  1.05700000E+00  2.47000000E-01
Contraction coefficients                   R   N=          33
  2.54948632E-02  1.90362766E-01  8.52162022E-01  1.00000000E+00  1.00000000E+00
  1.00000000E+00  1.00000000E+00  1.00000000E+00  1.00000000E+00  1.00000000E+00
  1.00000000E+00  2.54948632E-02  1.90362766E-01  8.52162022E-01  1.00000000E+00
  1.00000000E+00  1.00000000E+00  1.00000000E+00  1.00000000E+00  1.00000000E+00
  1.00000000E+00  1.00000000E+00  2.54948632E-02  1.90362766E-01  8.52162022E-01
  1.00000000E+00  1.00000000E+00  1.00000000E+00  1.00000000E+00  1.00000000E+00
  1.00000000E+00  1.00000000E+00  1.00000000E+00
Coordinates of each shell                  R   N=          81
  0.00000000E+00  0.00000000E+00 -1.42713765E+00  0.00000000E+00  0.00000000E+00
 -1.42713765E+00  0.00000000E+00  0.00000000E+00 -1.42713765E+00  0.00000000E+00
  0.00000000E+00 -1.42713765E+00  0.00000000E+00  0.00000000E+00 -1.42713765E+00
  0.00000000E+00  0.00000000E+00 -1.42713765E+00  0.00000000E+00  0.00000000E+00
 -1.42713765E+00  0.00000000E+00  0.00000000E+00 -1.42713765E+00  0.00000000E+00
  0.00000000E+00 -1.42713765E+00  0.00000000E+00  0.00000000E+00  0.00000000E+00
  0.00000000E+00  0.00000000E+00  0.00000000E+00  0.00000000E+00  0.00000000E+00
  0.00000000E+00  0.00000000E+00  0.00000000E+00  0.00000000E+00  0.00000000E+00
  0.00000000E+00  0.00000000E+00  0.00000000E+00  0.00000000E+00  0.00000000E+00
  0.00000000E+00  0.00000000E+00  0.00000000E+00  0.00000000E+00  0.00000000E+00
  0.00000000E+00  0.00000000E+00  0.00000000E+00  0.00000000E+00  0.00000000E+00
  0.00000000E+00  4.71672656E+00  0.00000000E+00  0.00000000E+00  4.71672656E+00
  0.00000000E+00  0.00000000E+00  4.71672656E+00  0.00000000E+00  0.00000000E+00
  4.71672656E+00  0.00000000E+00  0.00000000E+00  4.71672656E+00  0.00000000E+00
  0.00000000E+00  4.71672656E+00  0.00000000E+00  0.00000000E+00  4.71672656E+00
  0.00000000E+00  0.00000000E+00  4.71672656E+00  0.00000000E+00  0.00000000E+00
  4.71672656E+00
Orthonormalization Matrix                  R   N=        2415
 -1.30839935E-13  6.28358802E-02 -1.57760256E-02  9.22537608E-16 -1.50290840E-01
 -1.95467824E-16 -5.44284422E-02 -1.44243607E-02  5.42027848E-16  3.44664830E-02
 -9.46595210E-03  8.10926966E-01 -8.06781094E-01  5.61301747E-01  1.57961669E-16
 -8.09557554E-16 -1.66041613E+00 -2.99905555E-02  1.41461236E-14 -3.16186721E-16
  6.95405477E-15  3.41479203E-16 -3.51451238E-16  2.22222991E-02 -6.86795948E-14
  4.98000208E-16 -5.19800651E-15  2.94067111E-16  2.62442406E-16 -9.70368861E-16
  3.69733707E-14 -4.66362684E-01 -3.46032237E-16 -8.63542838E-16  8.56996755E-15
 -1.65189671E-16 -6.81700111E-16  1.80941124E-13 -1.12786358E-13 -3.34634890E-02
 -1.84190219E-15  2.34729034E-15  1.95504708E+00  1.48064634E-15 -4.20745916E-14
  3.60633018E-16  8.59520586E-16  2.32802147E-15 -3.11677136E-16  5.37071439E-03
  1.00528128E+00 -1.62826721E-15 -1.26032930E-01  7.35882841E-17  2.68498712E-02
  1.14508332E-16  1.65566966E-01 -6.93428013E-14  1.70101597E-14 -4.86856597E-01
  1.43464729E-16  1.23021953E-16  7.39694549E-17  8.42130020E-16 -1.02579884E-16
  8.74545547E-17 -1.01506401E-15 -5.73670744E-01  2.92543654E-14  9.73467598E-02
  1.34368995E-14  1.61666227E-15 -4.62800719E-16  4.03088553E-16  4.40848216E-16
  7.14690712E-14 -2.30127342E-02 -2.47389003E+00 -9.44992673E-16 -1.18023379E-15
  1.36412936E-15  1.35455287E-16 -6.04355176E-03 -1.92650521E-16 -3.52891635E-16
 -7.24508849E-03 -1.05844854E+00 -2.75416497E-02 -2.26719509E-16  4.92288253E-14
  1.44163616E-15 -5.00647465E-15 -4.16077130E-16  5.65127137E-17  1.38584270E-16
 -1.53437430E-01  2.17138738E-18 -6.64744107E-17  3.99530377E-15 -3.50675369E-14
  1.54377076E-17  6.89902329E-16  1.50092470E-17  7.98790234E-16  8.67482099E-17
  3.94133068E-16 -1.69307376E-03  3.29125644E-16 -1.20980282E-15  4.43423753E-15
  6.85161888E-16 -4.44879193E-02  5.15484459E-16 -2.77385389E+00 -1.88316512E+00
  8.49737928E-02 -2.18089648E-01 -2.65606064E+00 -6.89426267E-16  7.92419453E-15
  2.43166247E-16 -2.59907887E-14  3.01456277E-14 -4.94194125E-03 -1.08676968E-16
  1.22122968E-15  1.11300484E-14  7.65964657E-14 -9.84352046E-16 -1.71711554E-16
 -5.91076127E-15  5.65127137E-17 -9.15949982E-16 -1.78153927E-13  3.95018943E-02
  6.83042723E-02 -2.83090282E-16  1.15190625E-03 -7.99750697E-18  1.49969867E-16
 -6.15463359E-02  9.83102725E-01  5.27643273E-16  6.70749011E-02  8.30339859E-03
  1.16846944E-01 -3.32698793E-02  1.39816629E-15  3.86133483E-04 -2.51783076E-15
  1.40941306E+00 -2.04012414E-02 -1.03740643E-14 -1.19429468E-16 -2.83661792E+00
 -5.35922446E-16 -9.70668146E-02  4.43480832E-16 -2.04421325E-16 -2.77856684E-16
 -6.18716952E-16  3.25292789E-15  1.54245210E+00  1.97530163E-15  1.05101753E-16
  3.95892904E-16  1.43694933E-15 -2.84039455E-16 -1.46635887E-16 -4.83456926E-15
  3.69733707E-14 -5.33326308E-16  1.15550609E-16  1.19251638E-17 -2.13700766E-17
  2.46235777E-15  2.03577692E-17  9.76031753E-17  1.00927098E-14 -4.62800719E-16
 -6.93129186E-17 -1.94720117E-16 -7.32876252E-15  1.50161125E-17  2.52835462E-02
  4.46904944E+00 -2.78266141E-16  4.92372470E-14 -3.05834165E-15 -4.07679402E-15
  8.23947705E-16  7.02520419E-16 -3.11677136E-16 -1.35637164E-15 -5.95762853E-01
 -7.47506009E-02 -3.04138053E+01 -7.39472408E-17  8.48250810E-15  4.92288253E-14
 -4.67914127E-03 -1.03316898E-13  2.91589537E-15 -1.22641727E-13  1.83021597E-16
  1.41599086E-14 -1.53225861E-15  1.02106760E-14  8.25677916E-02 -1.86192915E-15
 -1.01648454E-15 -2.34529217E-16  7.78837530E-14 -4.61864225E-16 -5.23809158E-15
 -8.80640160E-16  2.11212781E-17  9.29452699E-01  1.15771705E-02 -9.54012522E-02
  1.00528128E+00 -3.94595063E-18  8.21010025E-05 -1.36656360E+00 -2.34170858E-15
  7.80719969E-16  4.35610491E-17 -1.17484714E-01 -5.53407072E-01 -2.84999115E-15
 -1.61999083E-02 -2.53981609E-16 -7.73251016E-16 -4.72592536E-03  5.26972450E-02
  4.63296082E-15 -9.96336671E-15 -8.76131639E-04 -6.69822164E-15 -1.14261231E-15
 -5.00188287E-16  5.52334402E-14 -7.15117371E-01 -1.89287645E-15 -5.73490577E-02
  3.70719812E+00  9.03884885E-16  3.09120411E-14 -8.39141224E-17  7.54518179E-16
  2.03300917E-14  6.32854696E-01 -3.04138053E+01  3.85728614E-02  2.20334565E-15
 -1.15587115E-14 -7.26679331E-02  1.97361183E-16 -8.38891164E-17  5.27576747E-16
  3.95642094E-17  5.64607628E-17  4.00397774E-15 -4.72592536E-03  5.26031606E-02
  4.84622210E-16 -8.76131639E-04  7.05812560E-01  1.29500685E-16  1.01289936E-15
  8.91321705E-16 -8.22710186E-15 -1.74357162E+00  4.68522093E-17 -8.46017874E-15
 -3.12093703E-16  2.37462545E-14 -5.76421586E-16 -2.43126550E-02 -5.55412763E-16
  6.36876068E-03 -2.10836782E-16  8.23795631E-16  2.08792259E-16  1.38192517E+00
 -1.63683316E-01  1.64698816E-15  3.54481744E-15  6.39790222E-15  4.56342023E-16
 -8.80640160E-16 -5.13937061E-03  9.01207051E-16 -5.29845941E-03 -3.52891635E-16
  4.89556727E-14 -1.34093586E-02  5.44290297E-01 -1.09803640E-02  5.76017931E-01
  2.05832350E-02  4.93819202E-01 -1.39972715E-01  3.58952342E-16  7.65964657E-14
  1.16510324E-13 -1.96988534E-01  1.11477062E+01 -1.22493787E-01  2.03386430E-15
 -3.42000289E-14 -4.67297805E-15  5.62012970E-15  5.14262182E-16  5.40614564E-17
 -8.73591816E-02  2.64699165E-16  1.17536075E-15 -1.55797593E-16  7.71879918E-20
 -2.29839451E+01 -3.95821412E-17 -5.10777538E-15 -5.62742303E-04  6.94203687E-02
  5.85770437E-16  1.44163616E-15 -7.47327370E-16  1.37933960E-16  1.24098109E-15
  6.30654520E-14  1.38192517E+00 -5.00218890E+00 -2.49454928E-16 -5.79185446E-15
 -5.36384686E-14  3.34670085E+01  1.12674764E+00  2.91589537E-15 -8.12258644E-15
  1.10710505E-02  8.38300988E-21  2.57206916E-02  1.76510368E-16 -3.42000289E-14
 -1.62209090E-14 -1.53483211E-02 -3.07409439E-17  6.39470164E-03  3.05378741E-16
  1.35455287E-16  1.26282313E-16  4.92740142E-16 -2.22462398E-01 -1.01648454E-15
 -1.82200935E-16  1.23144652E-15 -1.63683316E-01  4.87635604E-14  1.27113734E+00
  1.85655769E-01  1.40941306E+00 -5.66852706E-02  1.04369573E-17  5.26031606E-02
 -3.62898533E-01  4.10010644E-15  1.45107321E+00 -4.66633335E-16 -2.94185708E-16
 -1.46010446E-17  3.57276915E-01  4.37731044E-17  2.75076744E-16  6.14968875E-16
 -4.44879193E-02 -4.48188879E-17 -5.99790821E-16 -1.17897761E-16 -1.50408214E-14
 -8.37597460E-14 -7.01260980E-15  1.92000906E-17 -2.42534577E-15 -5.81662237E-14
 -3.40563795E-01  2.53520332E-03  9.29452699E-01  2.35280435E-15  2.06161526E-02
 -2.47389003E+00  1.50727152E-15  1.40971309E-16 -7.48430575E-02 -6.14006058E-14
 -1.53483211E-02  1.15858457E-15 -5.18391726E-02  1.91173082E+00  4.99112064E-17
 -9.70368861E-16 -4.02918454E-16  1.58278411E-13 -1.70637752E-14 -1.97884145E-14
 -3.00804489E-03 -1.94423958E-16  1.12960914E+00  2.89070088E+00  1.76698379E+00
 -3.42430655E-02  6.21506501E-02  5.08844754E-01 -1.64939383E-15  2.23049687E-18
  6.78575482E-01 -5.58285790E-01  3.53957035E-15 -1.24409787E+01  5.99817309E-17
  2.93288163E+01  8.99247430E-02 -6.28591870E-15  1.18847315E-17 -1.15191005E-16
  9.32675353E-01  3.67162446E-01 -1.94873442E-15 -1.56150795E-16 -4.85483306E-15
 -1.08890690E+02 -1.94672100E-14 -1.45798149E-14 -1.31326286E-16  5.96778731E-15
 -7.07413221E-16  4.10239358E-02  1.03691313E-15  4.99112064E-17 -3.67432875E-02
  9.13429091E-17  1.17687259E-15  3.05969452E-15 -8.46017874E-15  7.14690712E-14
 -4.75517995E-17  4.50190445E-15  2.49069125E-17 -7.28133920E-16  3.57722898E-13
 -2.61540497E-16  7.07868675E-14  9.62690334E-18  1.53314275E-02  1.05812040E-13
 -2.47659018E-15 -1.86727360E-01  5.31282425E-02 -2.57698860E-15 -1.88111523E-16
  1.64949588E-15 -2.25587442E-14 -9.53109314E-18  7.02520419E-16 -3.07909293E-15
 -3.00804489E-03  2.89548697E-14 -2.63793087E+01 -3.10551170E-16  5.76017931E-01
 -5.75200717E-17 -1.09722342E-14 -3.95287062E-18 -4.68093971E-01  2.83818666E-16
  4.93819202E-01  1.10991442E-15  4.86456252E-15  1.91173082E+00  7.89186574E-16
  9.84605012E-15 -1.58299333E-14  9.97302869E-16 -9.95339904E-01 -7.07998505E-17
  3.24040808E-15 -1.44243607E-02 -1.02667804E-15 -1.11567234E-16 -9.73153758E-15
 -9.96336671E-15 -4.05706800E-14 -9.46595210E-03  2.79043227E-01  3.85030363E+00
  6.36876068E-03  2.41086168E-16 -3.50675369E-14  1.69042266E-01  1.00593761E+00
 -6.73858138E-16 -2.23427711E-16 -1.43641801E-14  3.08703090E-15  1.00869041E-14
 -5.81662237E-14 -3.20603419E-17 -2.23404101E-15 -3.18279357E-17  5.46897141E-17
  5.35773264E-16  8.06967648E-16  6.66985327E-16 -1.53767961E-17  6.90197173E-17
  1.60004497E-13 -1.84124251E-16  7.86616250E-02  5.46684794E-16  1.85655769E-01
  3.47488344E-13 -9.17989041E-15 -4.38825421E-15  2.54947932E-15 -1.47990941E-14
  1.11477062E+01  1.85512383E-15 -1.92936803E-15 -2.98520209E-16 -9.38179700E-16
 -3.96475024E-02  4.37731044E-17 -1.55719305E-01 -2.83661792E+00  6.45877128E-01
  9.40493530E-15  1.86998313E-14  1.58278411E-13  2.13111449E-14 -4.42994619E-14
  3.56966020E-15  4.14055501E-17 -2.27384919E-14  1.16131040E-01 -7.58658432E-16
 -1.43790010E-15  3.31534889E-02 -1.02214211E-14 -2.39724472E-18 -1.95927507E-14
 -7.52905585E-15  3.63616632E-01 -9.27318839E-15  1.20772420E-01 -1.19338752E-16
  4.88171236E-16 -1.12933377E-14  3.26802776E-17  1.22935089E-14  8.29997939E-17
 -1.48471474E-15 -8.56229110E-17 -2.03473251E-16  1.60964688E+00 -1.58016138E-13
  8.48559052E-16 -7.66595536E-16  5.86832651E-16 -5.74621254E-20  4.64322916E-02
 -1.86994349E-16 -1.36077201E-16 -1.33917636E-16  3.29125644E-16  8.69949466E-02
 -9.44946927E-16  3.99530377E-15  8.32462752E-03  3.68726210E-16 -2.79293335E-14
 -7.68771292E-16  3.13926929E-17 -1.66041613E+00  1.11265673E-17  4.36388668E-16
  2.35496766E-14  1.10432061E-13  7.53471245E-16  1.60940218E-15 -5.48489067E-03
  6.21506501E-02  3.35320887E-16  1.08543538E-16  4.60505899E-01 -8.64736461E-17
 -2.75416497E-02 -7.12921596E-14  3.31880104E-14 -4.58600412E+00 -1.46220441E-15
  3.54513068E-15 -7.94318683E-01 -3.83731079E-02  3.97809051E-01  9.90670963E-01
 -2.96260102E-15 -9.68702101E-15  1.89235643E-14  1.54245210E+00 -6.22673860E-16
  1.78616010E-15  9.50902639E-01  2.82583208E-16  9.62690334E-18 -4.89898004E-16
 -2.22462398E-01  2.35211022E-16 -4.89440304E-18 -7.48430575E-02 -5.52764726E-14
 -1.72240772E-13  2.52670571E-14 -2.14816515E-13 -4.01458064E-16 -2.55390712E-14
  7.95933038E-16 -6.70846107E-14 -5.50063953E-14  3.20410212E-15 -1.11444905E-14
  1.33567184E-01  4.28928389E-15  5.73059623E-01  2.18553815E-15 -2.46597572E-15
  3.61063726E-15  8.07992258E-17 -2.77552813E-15 -9.55395014E-15  2.35280435E-15
 -2.51023008E-03  1.27499712E-01 -2.98984942E-14  5.31235350E-16 -4.99746045E-03
 -1.74875293E-16 -2.11450947E-16  5.41467742E-17 -4.27741099E-01  5.45048105E-14
  1.77828363E-02  2.88631891E-16 -8.39141224E-17 -1.23589697E-01 -2.75416497E-02
 -4.57023778E-01 -1.56406230E-16 -6.64175241E-15 -2.45305066E-16  6.58667136E-15
 -1.69917159E-14 -1.45841463E-15 -1.18023379E-15  1.46772711E-01  1.12732270E-13
 -6.62803024E-18 -1.12575207E-16 -3.18279357E-17 -2.77108109E-16 -8.54111988E-18
  5.56279405E-17  4.21110330E-18 -7.36757471E-18 -5.86621119E-15 -8.68420232E-16
 -1.80868090E-17  1.04654099E-15  5.56279405E-17  4.80910031E-16 -1.23898139E-02
  2.67198289E-01  1.03719581E-14 -1.15133897E+01 -3.45594199E-14  1.19318062E-15
 -2.57698860E-15 -2.85158729E-14 -2.06958371E-01 -1.05844854E+00 -1.11367188E-16
  2.83818666E-16 -4.69078753E-16  8.32749268E-17 -1.37968522E-15 -4.70140692E-02
  4.80503946E-17  1.96772403E-16 -1.03397198E-15  6.83147702E-17  9.29113194E-16
  1.14217626E-16  1.15550609E-16 -1.99227559E-18 -3.30465037E-16 -2.27954801E-16
 -6.46790815E-02  5.06157592E-16 -1.22788865E-16 -6.52697784E-02  2.79419148E-01
  4.66040396E-02  5.36266304E-14 -6.86795948E-14  1.49686488E-15 -1.29862065E-15
  3.41541467E-14  3.81639552E-17  3.14673688E-02  1.29728651E-01 -7.57135530E-16
  8.67719707E-16  1.11300484E-14 -5.73563402E-17 -7.84668826E-17 -5.73490577E-02
  2.92717358E-02  6.90197173E-17  1.04521024E-18 -4.49351218E-16  4.10281700E-14
 -3.98757761E-15  8.83204885E-15  1.02548773E-16 -1.02894478E-16 -8.10711742E-14
 -1.08890690E+02  4.29485835E-19 -6.57449707E-01 -1.78153927E-13  3.01456277E-14
  3.89920028E+00 -4.98292140E-16 -7.32876252E-15 -5.19507596E-15 -7.67425826E-15
 -7.68680654E-16  2.87041464E-16  6.18932847E-17 -5.73658825E-14 -1.40939803E-02
 -7.27873783E-16  7.28034648E-15  4.25814820E-01 -6.92491202E-02  1.43306562E-15
 -2.63920674E-16  5.23282748E-18 -4.33741473E-15  1.56409357E-15 -2.84506204E-16
 -1.13713116E-15  5.15240772E-16 -8.67689914E-16  5.48902385E-16 -2.93797072E-18
  1.15670628E+00  2.41159051E-01 -4.33816504E-15 -3.63205891E-16  2.47774865E-15
  2.05759130E-01  5.42027848E-16 -1.06879888E-15 -1.16143073E+00  2.09312202E-15
  1.15670628E+00 -7.35542012E-16  7.99994356E-14 -5.23290802E-16  1.41831868E-15
  8.25677916E-02  1.52892348E-16  1.44438866E-16 -1.35637164E-15 -9.05490662E-01
 -5.22396626E-15  8.48250810E-15 -1.13106008E-14 -7.14413469E-16  7.33660921E-17
 -2.19836388E-16 -1.07110150E-15 -7.11181616E-16  1.29176336E-01  1.97085302E-01
  7.92419453E-15 -1.95927507E-14 -3.40314519E-15 -3.80116697E-16 -6.70846107E-14
  1.58962634E-14  1.66933459E-01  8.25677916E-02  3.51199991E-16 -6.36083364E-16
 -5.52614229E-17 -5.47595137E-02  1.82606474E-14  1.44638209E-14  3.18753785E-16
 -2.32127802E-14 -2.80030202E-15 -1.17234198E-15 -1.20980282E-15 -5.27266433E-02
 -3.90462600E-16 -5.45279527E-15  5.01105481E-03 -1.90389789E-15 -2.79293335E-14
  6.52948348E-03 -1.54153182E-14  1.06164023E-15  2.92062593E-15  9.13798703E-16
  4.72098530E-17  1.96772403E-16 -1.62466404E-03  1.28271866E-18  2.56714646E-16
  1.09697941E-14 -1.43134288E-17 -7.25459433E-16  1.30119367E-15  3.80201238E-01
 -5.00188287E-16 -1.94720117E-16  1.16205387E-15  2.60222115E-16 -1.32330927E-01
  4.96829243E-16 -5.05308330E-01  6.21506501E-02  6.32876702E-04 -6.32551568E-15
 -4.71620816E-17 -9.70751793E-17 -3.09019274E-16 -2.46394966E-17 -9.35064611E-16
  8.09061988E-16 -6.16251418E-17 -3.41972211E-17  8.07992258E-17  6.25545785E-04
 -2.58738229E-16 -1.52669687E-14 -1.50906843E-16 -3.01455534E-16 -2.42534577E-15
  3.58952342E-16 -6.46790815E-02 -1.15174705E-15  1.11860112E+00 -6.17487541E-17
  1.53235142E-16 -2.53612746E-17 -1.22493787E-01 -2.33328405E-14 -4.96218271E-17
 -1.79942711E-16 -5.62589590E-15 -2.66231841E-01 -4.38432932E-02  3.55136711E-16
  1.06290085E-14  3.80803053E+00 -2.65606064E+00 -9.55395014E-15 -1.05825597E-15
  1.12960914E+00 -2.64439720E-15  2.23081186E-01 -2.47389003E+00  1.21075780E-16
 -4.87143340E-18  1.21075780E-16  4.19512202E-16  5.44376777E-03 -3.37898425E-17
  3.94133068E-16  1.05812040E-13 -3.25301299E-17 -1.95822975E-17 -5.24913570E-16
 -2.33148189E-17 -1.00297531E-02 -9.39262063E-16  1.00869041E-14  5.82967272E-14
 -5.72175824E-01 -4.10985895E-01 -4.65437530E-15  8.83204885E-15  1.17795547E-16
 -5.99790821E-16 -5.33326308E-16 -7.47170778E-17  1.47578886E-14 -2.11235143E-01
  1.58216829E-16 -1.22641727E-13  4.89556727E-14  2.06400696E-02  6.72488545E-01
  4.00397774E-15 -5.23809158E-15 -3.47885834E-16 -3.44376903E-15  2.03979080E-15
 -5.13086344E-02  1.63101721E-16 -3.14079130E-15 -8.95104524E-15 -3.07553850E-16
 -3.71375785E-14 -3.62898533E-01 -1.43641801E-14  6.31356316E-16  1.48240540E+00
  8.23436217E-18 -2.21713855E-14 -2.51139150E-14 -3.21317977E-01  1.89072504E+00
 -1.40015341E+00 -1.18099799E-02 -5.05568068E-01 -2.29839451E+01 -3.98757761E-15
 -7.83416398E-01  1.16510324E-13  1.57718787E-15 -2.58771021E-15  5.97422525E-15
  5.90620885E-16 -2.83955704E-16 -2.44440565E+00 -1.60123389E+00 -1.88808302E-14
  2.56714646E-16  1.60964688E+00 -4.29625101E-16 -1.53437430E-01  9.93489935E-16
  6.93588721E-02 -3.30465037E-16 -4.08400415E-19  1.28727679E-15 -4.10985895E-01
 -1.89860355E-15 -3.19439885E-16  2.45643428E-15  2.38042974E-01 -5.99129878E-16
  9.43241056E-14  6.12231533E-17  2.52835462E-02 -1.60980223E-16 -1.37979349E-17
  3.70719812E+00 -2.65171328E-02 -1.23809669E-15  3.25239138E-14 -1.79757603E-01
 -8.20566366E-16  4.86456252E-15  4.55448554E-17  3.35120350E-15  5.57664233E-15
  1.02375088E-16  2.54229604E-16  1.06626232E-14  4.99335254E-16 -8.79028138E-18
  1.70099610E-02 -1.18907389E-02 -1.89287645E-15  5.09456551E-17 -8.54327097E-16
  6.04755554E-17 -1.62466404E-03  1.46313718E-16  1.45490138E-02 -7.36730692E+00
 -2.52206061E-01 -3.00812473E-16  4.23305799E-15  9.00787145E-16 -1.90389789E-15
 -6.98768434E-01  6.23969237E-15 -1.82084565E-16 -5.23121028E-17 -9.85606162E-14
  3.89920028E+00 -1.69114873E-15  1.45522120E-15  1.25082388E-15  6.39790222E-15
 -6.72566286E-14  9.83102725E-01 -2.83661792E+00 -2.54560562E-16  1.91836452E-02
  4.11132117E-17  8.72193250E-01 -5.99696807E-16  4.92740142E-16  1.24581473E-16
  3.78523096E-02  8.43175972E-15  1.38124664E+00  1.93744999E-14  1.94360079E-01
 -5.53407072E-01  3.92763982E-16 -1.54153182E-14  5.36361099E-15  7.11095207E-02
 -6.16251418E-17 -4.04097249E-02 -5.78072591E-01  7.33933387E-15  6.72488545E-01
  4.74120787E-16 -4.94016704E-02 -5.51947124E-16 -3.11848773E-16 -9.27782645E-17
  2.60233204E-17  1.66161240E-15 -3.71529000E-16 -1.05324566E-15 -1.74504059E-16
  1.91836452E-02  5.00774534E-17  3.81639552E-17 -1.14455360E-16  2.41326147E-01
  1.38124664E+00  9.01086663E-17  1.23021953E-16  1.26170444E-16  9.23747783E-22
 -1.06323653E-15 -5.13337219E-02 -1.63683316E-01 -1.03773932E-15  6.67535876E-15
  8.15408790E-01 -9.90363821E-16 -1.46010446E-17 -4.37372487E-17 -1.01530459E-15
 -2.30363108E-16  1.59581371E-17  1.47519126E-14  2.86638059E-16  2.71530983E-16
  5.27643273E-16 -1.54692937E-17 -7.07413221E-16  1.62113588E-14 -7.96608527E-02
  1.27499712E-01 -2.04502303E-15  8.23043108E-15 -4.20595287E-16 -7.31236288E-14
  1.36413093E-15  0.00000000E+00  1.00593761E+00  6.27208140E-18 -5.94062349E-16
  0.00000000E+00  0.00000000E+00  0.00000000E+00 -4.50020696E-17 -2.19836388E-16
  1.82193911E-16  3.98344613E-18  4.21110330E-18 -7.51912536E-18  1.31026745E-16
 -5.76215862E-16  2.71388382E-16  1.85069951E-01 -2.38962584E-15 -4.25131162E-17
 -4.23664661E-15  1.85655769E-01 -1.40145394E-16  5.20401573E-16 -1.10268914E-16
  3.01452819E+01  3.82271634E-02 -1.17566907E-16 -1.07207755E-13 -5.78072591E-01
 -5.06783872E-16 -7.12068448E-15  9.55309874E-15 -4.66930508E-16 -2.15940126E-17
  8.66340301E-18  2.13082660E-17  5.70458295E-16  1.47560243E-01 -3.75669695E-16
  2.83734304E-16 -7.53076173E-16  1.48240540E+00 -4.10985895E-01 -4.87237986E-14
  9.65987747E-02  2.06937631E-15 -7.12068448E-15  2.21493675E+00 -3.62994967E-16
  2.40225461E-16 -3.19038219E-16 -5.73658825E-14  1.41599086E-14 -1.22530953E-16
  1.09697941E-14 -1.52669687E-14  1.78569208E-16  5.82690939E-17  1.34368995E-14
  5.46897141E-17  6.25545785E-04  1.46153442E-16  1.23144652E-15  5.97422525E-15
 -9.55172256E-15  3.58157156E-17  2.30071038E-17 -8.99963517E-02  3.80292605E-16
 -1.84667919E-14  6.94203687E-02 -2.29865705E-01 -3.58120120E-16  5.01105481E-03
  5.26972450E-02  6.43174528E-02 -3.04619740E-15  2.16937219E-14  9.84605012E-15
  1.33567184E-01  1.13505428E-13  7.85688883E-01 -4.61154352E-03 -1.37163188E-16
  5.43232244E-16 -2.03473251E-16 -3.05834165E-15 -8.12258644E-15 -1.70070911E-01
  7.98790234E-16  7.06427567E-02 -5.19800651E-15 -1.24974446E-17 -4.59969151E-03
  2.03725628E+00 -4.85676151E-17  1.12711174E-16  3.55931476E-16  7.00849424E-16
 -3.18470411E-15 -2.42560228E-15 -8.11340756E-17 -3.56090551E-13 -9.18686374E-15
  2.03300917E-14 -1.34503086E-02  1.23053886E-01 -5.95267869E-16 -2.15173700E-16
  9.65987747E-02 -8.27642527E-16  4.75724565E-01  8.41013219E+00  1.01060183E-17
 -1.50506397E-14  9.29551504E-02  3.24040808E-15  2.31182580E+01  3.93334255E-16
 -6.58809706E-01 -4.14609758E-16  7.80719969E-16  1.95504708E+00  1.53314275E-02
 -1.29516755E-16  8.38058219E-15  1.03691313E-15  4.73736089E-17 -4.27741099E-01
 -2.98393203E-14 -7.79449607E-16  5.23036516E-17 -1.09427041E-16  1.16101850E-15
 -6.70667143E-01 -9.11878611E-02 -7.21530758E-17 -1.53437430E-01  5.79462055E-15
  2.52444008E-01 -5.97991387E-15 -3.27500408E-16 -9.57753462E-16 -3.34634890E-02
 -2.62647486E-17 -2.67822021E-16  8.41835479E-01 -4.38432932E-02 -2.98984942E-14
 -1.88316512E+00  3.63616632E-01  2.21493675E+00  1.45490138E-02 -3.36416041E-16
 -1.61311549E-02  2.63362402E-15 -1.46220441E-15  1.89706671E-16  9.06353716E-16
 -5.06120128E-15  1.45727819E-01 -3.52487380E-14 -2.18328454E-16 -5.99129878E-16
  1.40571151E-15  1.97361183E-16 -1.39972715E-01 -3.55158194E-03 -1.56275138E-15
  3.80201238E-01 -9.95177848E-17  1.27113734E+00  3.68726210E-16  1.43694933E-15
 -2.23436784E-02  3.83817895E-02  1.78616010E-15 -3.39889458E+00  1.51095892E-14
  6.93050178E-14  1.58336624E-16  8.25677916E-02  1.17502395E-14 -1.37968522E-15
  1.51401541E-14  1.45522120E-15  4.31799488E-16 -3.94165777E-02  2.25343902E-15
  2.68498712E-02 -8.31411743E-16 -5.95762853E-01 -9.27782645E-17  1.45916238E-16
  0.00000000E+00 -2.37516435E-15  2.31182580E+01 -5.76451716E-14  0.00000000E+00
  0.00000000E+00  0.00000000E+00 -3.89893883E-01  2.42320509E-16  1.00333546E-15
  1.61222738E-16 -9.13945898E-17  1.95246649E-15  0.00000000E+00  0.00000000E+00
  0.00000000E+00  0.00000000E+00  0.00000000E+00 -5.06488856E-16  1.12732270E-13
 -2.69180610E-15 -1.06323653E-15 -1.02214211E-14  3.67162446E-01 -3.91639997E-14
 -2.14816515E-13  1.14405926E+02 -3.33371860E-01 -3.07330405E-18  1.76544767E-14
 -2.05599763E-01 -8.22841895E-16  3.97809051E-01  2.52444008E-01  7.07736502E-16
 -4.83456926E-15 -6.56588208E-16  3.13447914E-14 -2.98477570E-16 -2.06958371E-01
  4.64751231E-17 -1.40939803E-02 -2.37759357E+00 -2.05372156E-14 -4.60943117E-01
  1.11860112E+00  8.55387499E-16 -1.02804827E-13  5.06260192E-16 -6.19568925E-15
 -1.96013812E-16  0.00000000E+00  2.67198289E-01 -7.36730692E+00 -1.59289016E+00
  0.00000000E+00  0.00000000E+00  0.00000000E+00  1.82746582E-17  5.16763022E-16
  6.61556787E-17 -3.52487380E-14  1.07152375E-15 -3.45594199E-14  0.00000000E+00
  0.00000000E+00  0.00000000E+00  0.00000000E+00  0.00000000E+00 -2.70317887E-17
 -1.03242145E-14 -4.60943117E-01  1.46635432E-15  8.93507987E-17 -1.47533758E-14
  1.36413093E-15 -8.68420232E-16 -1.77055806E-15  8.93507987E-17 -9.51729346E-17
 -7.06224768E-15  4.60505899E-01 -2.37213857E-15  6.07003350E-14  1.89235643E-14
 -1.11077974E-15  1.40920502E-14  1.26166365E-15 -2.50009330E-01  1.06626232E-14
  3.80292605E-16 -2.38962584E-15  8.04402246E-19  3.94465739E-14 -1.43790010E-15
 -2.42560228E-15 -4.48188879E-17 -5.58285790E-01 -2.37759357E+00 -3.97951506E-15
  5.08844754E-01  1.46544169E+00  9.29452699E-01  0.00000000E+00  1.52130933E-16
 -5.30541314E-16 -3.71476705E-16  0.00000000E+00  0.00000000E+00  0.00000000E+00
  6.99640521E-15  3.05951613E-15 -5.55166715E-15  8.48559052E-16  2.57206916E-02
  2.07832219E-14  0.00000000E+00  0.00000000E+00  0.00000000E+00  0.00000000E+00
  0.00000000E+00 -7.58658432E-16 -2.82115430E-14 -2.55390712E-14 -3.15608509E-17
 -3.69874054E-16 -1.82700504E-15 -1.00622033E-16  1.54624917E-16  6.41465240E-02
 -1.84667919E-14  2.75033366E-01 -1.05844854E+00  1.05282880E-14 -9.36481679E-16
  1.46635432E-15 -1.45798149E-14 -1.26475800E-15 -2.33148189E-17  1.56798374E-15
 -2.44817519E-02  3.95784036E-17  7.77988548E-04  3.31534889E-02 -1.79741059E-15
  3.05869963E-14 -5.36384686E-14  3.17127697E-16 -3.53305902E-16  6.41465240E-02
 -3.94280002E-02 -1.37846554E-15  4.80910031E-16 -9.65205820E-02  5.14262182E-16
  3.44590435E-15  2.16937219E-14 -4.87237986E-14 -3.40563795E-01 -1.57760256E-02
  5.99817309E-17 -1.23693935E-02  2.82359122E-16  6.30954034E-16 -2.92402673E-16
  2.47112583E-16 -1.54451953E-16  1.34994190E-15 -5.79803797E-14  3.58981050E-17
 -2.44440565E+00  1.01468859E-17 -1.54246977E-14  3.18753785E-16  2.79474831E-15
 -3.33371860E-01 -9.74942225E-17  1.89072504E+00 -3.87091388E-16 -1.95467824E-16
  6.93050178E-14 -5.66925061E-01 -1.54770711E-15  1.38364101E-15 -1.38952638E-17
  1.58481834E-15  4.56342023E-16 -2.66274893E-16 -9.85606162E-14  1.79982035E+00
 -5.25584295E-16  3.57722898E-13  2.89587613E-16 -4.20745916E-14  8.38219151E-17
  1.03173673E+01  9.76031753E-17 -1.16781718E-16 -5.60301350E-16 -1.79741059E-15
 -1.47990941E-14  8.66340301E-18 -1.87596941E-16  8.72193250E-01 -6.98768434E-01
 -8.61334124E-16  1.36556353E-16 -2.04502303E-15  1.90331705E-15  1.50315157E-18
 -2.27384919E-14  1.67151010E-14  4.25814820E-01  6.31356316E-16 -1.11367188E-16
 -3.83731079E-02 -4.12900665E-01  2.25343902E-15 -8.86104731E-17 -7.31236288E-14
  8.56996755E-15  2.04281425E-02 -6.73550697E-01 -3.44339359E-17  6.19090327E-15
  2.58018009E-15  4.19512202E-16  7.35882841E-17  5.31282425E-02  3.71173435E-01
 -1.15191005E-16  6.21506501E-02  4.73736089E-17  5.31235350E-16 -3.86604520E-15
  7.39586310E+00 -4.50020696E-17 -4.16077130E-16 -2.30127342E-02  4.46904944E+00
  1.05282880E-14 -3.42430655E-02  2.77143978E-01  3.05378741E-16  4.55755140E-15
  3.63961400E-14 -1.90789302E-17  3.64127214E-15 -2.77385389E+00 -3.49873613E-15
  1.61222738E-16  5.35773264E-16 -2.68638881E-14 -2.05599763E-01  4.47501523E-16
 -8.48992936E-18  2.71388382E-16 -1.32330927E-01 -8.95208899E-15 -6.42759728E-15
  2.04281425E-02  2.14553238E-13 -1.50290840E-01  2.45391933E-15 -3.25301299E-17
  4.23500170E-16 -1.23589697E-01  1.25375312E-15 -3.12093703E-16  3.63724868E+00
 -3.41593799E-15  3.10164186E-15 -5.50063953E-14 -7.26679331E-02  1.27499712E-01
 -1.02804827E-13  5.51357973E-17  1.33624707E-14 -5.05308330E-01 -2.68957221E-01
  4.27466952E-15  6.77856239E-18 -1.01186287E-16  2.04735449E+00  6.49826997E-15
 -5.68493213E-16  1.83694349E-16 -2.48556798E-16  1.41770647E-16  1.06290085E-14
  2.28911445E-16 -7.68680654E-16  6.45877128E-01  3.02924706E-15 -1.43049452E-14
 -2.75416497E-02  3.69727143E-15 -3.91140361E-15  2.68808653E-18  2.91482412E-15
 -1.15174705E-15 -4.99746045E-03  2.24191833E+00  9.29452699E-01 -2.82392933E-16
  1.04258335E-15  4.46667244E-16  1.09912825E+02 -1.55788873E-01  1.73531099E-15
  1.38524187E-18 -2.49809676E-16  5.11293944E-02 -1.03059526E-15  1.51401541E-14
 -3.84081201E-14  5.57664233E-15 -1.01987459E-17  6.29503780E-15 -6.46790815E-02
  8.84141522E-16 -7.43078921E-03  1.04517982E-14 -9.90494989E-02  7.64389120E-01
 -7.62372933E-17 -4.29534779E-03 -1.08073843E-16 -9.11878611E-02  7.61471124E-18
 -8.22710186E-15 -5.95267869E-16 -1.06895592E-01  4.46667244E-16  2.06557178E-15
 -2.25587442E-14  8.69949466E-02  9.69348071E-16  3.13926929E-17  5.37361348E-15
 -1.02329151E-02  5.45048105E-14  1.86998313E-14 -1.02579884E-16  1.80352799E-03
  1.30830504E+01 -1.03397198E-15  2.12693163E-14 -4.49351218E-16  7.49092042E-02
 -1.01599861E+00 -1.94423958E-16 -2.76245963E-02  1.24020500E-13  3.83817895E-02
  7.01572575E-03  4.24275707E-17 -3.81119452E-16 -3.32376159E-17  1.13598417E-15
 -1.60123389E+00 -3.63926081E-16 -6.25423621E-15  8.39794323E-03 -4.69078753E-16
  7.57280596E-15 -1.66386669E-16  3.54675642E-17 -4.09396607E-15  2.41326147E-01
 -1.62252401E-16  1.90331705E-15  5.46626791E-17  1.09233407E-14 -7.43078921E-03
  1.90281738E-16 -2.38588542E-15  1.80352799E-03 -5.68493213E-16 -1.37713349E-14
  5.87780235E-14  6.48697441E-15  6.45877128E-01 -1.71614460E-16  4.82415448E-14
  1.60940218E-15  8.35532797E-16 -1.40015341E+00  1.66133173E-01  1.46544169E+00
 -3.63926081E-16 -2.05559640E-17  2.62581061E-15  1.99582397E+00 -2.98520209E-16
 -2.37516435E-15  9.69348071E-16  8.27226250E-14  5.96778731E-15 -2.83087935E-15
 -4.10702641E-17 -1.12575207E-16 -1.33021236E-01 -8.76597261E-18  7.95892584E-15
  3.85030363E+00 -1.74593703E-16 -3.49873613E-15  2.45344916E-17  5.48820326E-15
 -6.09894360E-15 -3.41948691E-15 -2.22582581E-16 -5.00647465E-15  1.55173920E-17
  3.92479952E-02 -1.12933377E-14  1.43018213E-15 -7.26200232E-17  4.53571445E-18
 -1.15133897E+01 -4.70140692E-02 -3.49327378E-15  4.67185543E-16 -6.15210988E-16
 -1.93833861E-14 -7.92487952E-01 -3.64061469E-14  2.89548697E-14  2.08198191E-17
  1.40512711E+00  8.85264566E-16 -1.01599861E+00  7.66244653E+00 -3.69928386E-15
  2.93372618E-15  9.17386072E-17 -7.48430575E-02  2.41086168E-16 -5.58285790E-01
 -8.09557554E-16 -5.15325850E-15 -1.58644960E-13 -7.47327370E-16  8.15408790E-01
  1.00528128E+00  9.93217601E-03 -3.77738236E-16  3.63724868E+00  1.50727152E-15
  2.36666445E-15 -9.18686374E-15  7.84452094E-16  3.33137125E-16 -7.94318683E-01
  7.07868675E-14  1.00049473E-17  2.34041774E-16  1.12875688E-16  1.76497106E-17
 -5.52975497E-16  3.35980135E-15  2.37462545E-14 -5.76451716E-14 -2.88909044E-16
  4.27466952E-15  4.14868138E-15  1.95074631E-15  3.86140286E-15 -1.75004072E-15
 -1.22623159E-14  6.99640521E-15 -3.91140361E-15  4.20614748E-01  5.83191884E-16
 -4.92144720E-16 -5.27507365E-16  1.41477767E-16  1.45727819E-01  3.45673631E-01
 -2.04012414E-02 -3.23270880E-16  6.05712638E-16  1.02586777E-14  1.73243871E-15
 -1.19219161E-15 -2.92579791E-15 -4.94016704E-02 -6.46790815E-02 -1.05251559E-15
 -1.86839793E-16  1.41461236E-14  2.39327144E-01  3.36085106E-15 -9.70668146E-02
  2.82097991E-16 -2.98575521E-16 -2.19008012E-16 -4.96959613E-16  0.00000000E+00
  0.00000000E+00  0.00000000E+00  1.15771705E-02 -7.26957845E-01 -2.88840549E-16
 -3.00682557E-15  3.07016098E-18 -1.69835299E-01  4.56936602E-17 -4.23664661E-15
 -1.07803083E-15 -7.75349484E-15  1.50092470E-17  4.48419762E-17 -1.50506397E-14
  2.93641794E-16  7.11095207E-02 -8.65904613E-15 -5.39010679E-16  3.47895714E-16
  3.88461838E-16 -1.00033195E-16 -1.01486016E-16 -2.74511112E-16 -5.61288035E-16
 -1.61593516E-15 -5.43672490E-18 -6.52697784E-02  2.01865304E-01  7.33660921E-17
  3.36085106E-15 -5.16009367E-18  3.80307299E-02 -1.00007475E+00  3.20766138E-16
 -6.25423621E-15  1.70099610E-02  2.41159051E-01 -3.07652945E-16  4.87880203E-14
 -1.74504059E-16  4.60505899E-01 -1.54451953E-16 -2.66231841E-01  1.57216392E-17
  4.31799488E-16 -6.13700941E-16 -1.20029094E-16 -3.87091388E-16 -9.95177848E-17
  5.24146165E-17 -2.59465606E-16  9.01086663E-17 -8.73591816E-02 -4.00748772E-15
  3.64635718E-16  1.24000256E-17  8.20475594E-16  5.44290297E-01  0.00000000E+00
  0.00000000E+00  0.00000000E+00 -1.58644960E-13 -1.02470292E-16  1.20160629E-01
 -1.59289016E+00  2.29736193E-01 -1.84397834E-01  8.69016554E-15  1.10969829E-15
 -2.83661792E+00  1.25375312E-15 -3.26026229E-01  1.78263916E-15 -4.04097249E-02
 -9.68702101E-15  3.31880104E-14  1.23250019E-16  1.59080563E-15  4.10273255E-15
 -1.13693459E-14 -5.24655884E-16 -2.77108109E-16  1.64440942E-14  2.38843283E+00
  1.24020500E-13 -6.74257984E-15  1.11371553E-13  5.38914989E-16 -9.75468073E-16
  1.95505391E-15  6.32854696E-01 -2.48220053E-15  6.07003350E-14 -1.47533758E-14
  2.05305958E-14 -2.04012414E-02 -6.80595883E-15 -8.63542838E-16 -1.56275138E-15
 -1.65099818E-14 -1.53437430E-01 -2.52727334E-16  1.85655769E-01  3.13447914E-14
  2.23081186E-01 -7.97936034E-01  7.07763698E-15  2.08899997E-02  1.47519126E-14
 -5.00218890E+00  7.55557552E-16  3.20120655E-02 -3.49317866E-13 -6.32551568E-15
  4.87880203E-14 -1.19338752E-16 -3.18470411E-15 -1.79680456E-15  5.15146146E-16
  0.00000000E+00  0.00000000E+00  0.00000000E+00  2.60232658E-15 -1.17234198E-15
  1.00528128E+00 -6.03038530E-17  7.28034648E-15 -1.07207755E-13  4.10486061E-16
 -1.12834079E-16 -2.47389003E+00 -6.93428013E-14  4.60011087E-02 -1.54246977E-14
 -2.27175534E-15  8.23795631E-16  2.15026045E-18 -2.88542180E-16 -2.06286038E-03
  1.45916238E-16  1.28894895E-02  1.26571911E-14  3.06875148E-16 -5.13337219E-02
 -2.59907887E-14 -1.47468382E-17 -1.69835299E-01  6.30954034E-16 -1.04941399E-14
  1.40512711E+00  3.88440576E-03 -5.53407072E-01 -1.34478411E-15 -1.59346181E-15
 -4.14609758E-16 -6.61665361E-16 -1.03316898E-13 -3.09794517E-16  1.67151010E-14
  2.94583886E-15 -8.52840639E-17 -1.55625601E-17 -4.68243285E-15  2.63715599E-14
 -2.45691359E-16 -1.73609259E-16  2.72370874E-15 -8.65904613E-15  1.08791485E-19
  5.44376777E-03 -1.34432555E-14  1.16846944E-01  1.33624707E-14 -2.18696670E-17
  1.56798374E-15  3.85533239E-15 -6.94652646E-16 -7.05962019E-15  3.80307299E-02
  1.10928438E-15 -7.97936034E-01  0.00000000E+00  0.00000000E+00  0.00000000E+00
 -7.96608527E-02 -1.62209090E-14 -2.14879780E-16  1.00927098E-14 -1.63683316E-01
 -5.02109960E-03  5.69361630E-16 -2.05372156E-14  4.37554777E-16 -2.44297968E-15
 -2.51139150E-14  2.43364535E-01  3.25292789E-15 -2.77240122E-15 -8.87826116E-02
  4.43423753E-15 -1.88692204E-15  1.43306562E-15 -4.96218271E-17 -1.79757603E-01
  1.68821682E-14  5.06157592E-16  4.06419361E-16  1.02324473E+00  2.34729034E-15
 -3.07153504E-16 -1.43049452E-14 -1.18688563E-16  1.16495048E-16 -2.78686921E-15
  1.66161240E-15 -1.33551977E-17  7.05492219E-16  1.60004497E-13 -3.20624663E-18
  1.85069951E-01 -7.83416398E-01  5.09689483E-16 -5.62589590E-15 -1.37362699E-14
  5.40893821E-16  1.82930599E-16  6.58667136E-15  4.16561873E-15 -1.80110630E-14
 -3.62898533E-01  3.59277382E-14  1.09224326E-15  1.13598417E-15 -1.27174721E-15
 -2.54591536E-15  2.06235419E-15  8.46011255E-17  1.28591746E-18  1.44638209E-14
 -1.16143073E+00  1.97530163E-15 -5.47595137E-02  3.86140286E-15 -7.90191706E-14
  0.00000000E+00  0.00000000E+00  0.00000000E+00 -5.99696807E-16 -6.09894360E-15
 -2.09295173E-16 -3.41972211E-17 -1.50408214E-14 -2.17475921E-16  3.00940940E-16
 -6.17487541E-17 -5.44685084E-18 -4.19766601E-15  1.16846944E-01 -3.10627445E-16
  3.10164186E-15 -1.14880003E-15 -5.72175824E-01  8.74316657E-18  8.86184530E-17
 -1.55797593E-16  3.54481744E-15  1.76698379E+00  8.74316657E-18  2.49069125E-17
 -2.29106951E-18 -2.66231841E-01 -6.15210988E-16  7.76944440E-17  1.82746582E-17
 -2.92024864E-17  2.04216540E-15  1.28112819E-03 -2.65171328E-02  3.37098855E-16
  1.78263916E-15  4.84622210E-16 -5.02109960E-03  2.77143978E-01  7.30706622E-16
 -1.09980285E-15  1.10928438E-15 -9.49320377E-02  6.84871490E-14  1.71793724E-15
  1.08146584E-17  5.61824152E-16 -2.84506204E-16 -2.66231841E-01  1.15190625E-03
  1.63101721E-16 -4.25131162E-17  8.29997939E-17  2.00218925E-16  3.02439237E-18
  1.80941124E-13 -6.60354144E-01  1.66933459E-01  1.33567184E-01  9.57074955E-18
  8.77918485E-17  4.40581756E-17  1.97073373E-16 -2.29434828E-16  1.84258098E-16
  1.59264885E-16 -4.66281845E-02  8.99247430E-02 -1.05067904E-16 -6.26501413E-17
  2.13613699E-15  3.41541467E-14 -1.92936803E-15 -4.32478606E-16 -7.21530758E-17
 -2.77954167E-17 -6.72566286E-14 -1.36656360E+00  3.82056448E-15 -4.42994619E-14
 -4.45979429E-01 -2.85158729E-14 -5.34225434E-16 -2.77934712E-16 -1.46737767E-15
  2.28658758E-16 -6.89426267E-16 -1.26429387E-15 -1.03740643E-14 -9.40393657E-17
  8.73889635E-16 -6.26501413E-17 -3.89893883E-01 -1.36656360E+00 -4.87143340E-18
 -2.12367546E-16  2.18417108E-16  6.84871490E-14  3.42942518E-15  8.12978121E+00
 -2.46394966E-17  2.19610270E-02  2.79043227E-01  8.69016554E-15 -4.83285754E-15
  2.63715599E-14 -9.55172256E-15  3.95784036E-17  1.49969867E-16 -1.27174721E-15
 -1.05700149E-15 -7.35966036E-16 -6.70667143E-01  5.36266304E-14  4.24275707E-17
 -1.67638539E-17  1.16846944E-01  9.13429091E-17  7.76240512E-17 -1.09994961E-16
 -5.79803797E-14  6.32854696E-01  1.62113588E-14  2.28658758E-16 -7.44135862E-16
 -5.34225434E-16 -6.71218676E-16 -4.10985895E-01 -6.61868483E-16 -1.24409787E+01
  4.37699283E-03  1.71550379E-13  9.55309874E-15 -4.81200241E-14  8.46275562E-15
  1.62771654E-16  1.83888779E+00  1.02324473E+00  1.29500685E-16  4.72989373E-15
 -1.01599861E+00 -1.58016138E-13 -2.72287419E-01 -1.05215855E-13  1.68823410E-16
  1.33567184E-01  2.43364535E-01  7.77539636E-02 -5.22994544E-16  4.53571445E-18
 -9.35064611E-16 -1.95363741E-15 -2.63793087E+01  1.74659895E-15  7.42340989E-16
 -7.85856447E-02 -1.59618997E-14  1.71691588E+00  1.00548439E-01  7.99994356E-14
  4.10281700E-14 -1.80110630E-14  1.59805099E-15  3.41479203E-16  2.21506967E-17
  4.07588207E-16 -9.95339904E-01 -3.22124631E-15  7.00849424E-16 -9.79499708E-17
  5.23107024E-01  1.33119727E-15  4.60505899E-01 -3.91639997E-14  1.76510368E-16
 -1.12784084E-15  1.97522168E-15 -1.05215855E-13 -1.37689664E-15  1.71691588E+00
  2.14553238E-13  5.79026653E-17 -3.50201993E-14  2.07832219E-14 -3.37898425E-17
 -5.12424238E-15  1.13505428E-13  1.68168016E-18  4.22123884E-02 -5.24655884E-16
  3.09120411E-14 -1.77055806E-15 -1.10057273E-14  4.69918483E-15 -3.17689426E-04
  2.01865304E-01 -2.11235143E-01  6.95405477E-15 -3.15235555E-15 -5.86621119E-15
 -7.48430575E-02 -8.10711742E-14 -1.09722342E-14  5.28635498E-16 -3.49317866E-13
  3.20020371E-16  6.41465240E-02 -8.95070218E-02 -9.61064395E-03  1.14217626E-16
 -1.64027026E-14  1.10432061E-13  6.53268341E-16 -1.71581075E-03 -9.73153758E-15
  5.46143954E-02 -3.94505621E-14  1.78807345E-02 -9.95339904E-01  1.25196131E-16
  1.37933960E-16 -2.53612746E-17 -1.01506401E-15  3.18224720E-15 -4.68243285E-15
 -2.92183339E-16 -2.09984466E-02 -5.61288035E-16 -1.00007475E+00  3.47488344E-13
  1.54073372E-15  4.57893992E-16 -3.23270880E-16 -4.45979429E-01  5.15626449E-03
 -6.72475286E-16  3.85568519E-17  3.62854480E-16 -3.40314519E-15  8.91321705E-16
  4.10982032E-16 -1.36656360E+00 -1.95363741E-15  1.76010594E-02  1.38364101E-15
 -2.72169540E-15  1.08402939E-15  3.63961400E-14 -2.60115392E-16 -7.43179409E-15
 -5.91076127E-15  5.99691094E-16  8.42618295E-17 -6.04873718E-16  8.45663081E-03
  1.68821682E-14  4.47921186E-15  3.47219857E-16  6.87979959E-18 -3.32698793E-02
 -2.77856684E-16 -2.77934712E-16  1.98064261E-15  1.27499712E-01  1.28112819E-03
 -4.66281845E-02  3.20823294E-16 -1.28354195E-15 -6.73550697E-01  1.05833568E-02
  7.70948638E-02  1.27820364E-16 -1.37362699E-14  1.01110103E-14 -9.24137974E-15
  2.03577692E-17  8.61249291E-17 -1.46737767E-15  5.62998234E-17  1.58962634E-14
 -9.95339904E-01  2.64864996E-15  6.78575482E-01 -6.81700111E-16 -2.38588542E-15
 -1.04941399E-14 -7.12921596E-14 -1.58595433E-15  1.09233407E-14 -9.80738053E-16
  5.93932933E-16 -3.78957917E-01 -2.40962061E+00 -4.83285754E-15 -1.24097915E-16
 -1.13693459E-14 -4.26409715E-17  1.58113070E+01 -1.34432555E-14 -5.15515226E-01
 -4.12900665E-01 -1.18641641E-15  9.43241056E-14 -7.05962019E-15 -1.90542902E-16
 -2.19795268E-16  5.89453664E-16  3.44664830E-02  1.33119727E-15  1.77413622E-16
  4.40139236E-16 -5.73347049E-14 -1.49646318E-02  1.98064261E-15 -2.75152870E-15
 -3.92538273E-02  1.01289936E-15  5.34807955E-15 -1.22623159E-14  3.14673688E-02
  5.82967272E-14  9.01207051E-16 -1.39321001E-15  3.34670085E+01 -4.19766601E-15
  2.08899997E-02  5.26172132E-02  9.90670963E-01  8.10926966E-01 -6.90932522E-19
  6.85161888E-16 -1.86994349E-16 -1.00297531E-02  1.25196131E-16 -3.86604520E-15
  5.10009649E-16 -7.62372933E-17  2.48732185E-16 -7.26957845E-01 -1.57259480E-15
 -1.45841463E-15 -1.86727360E-01 -2.64439720E-15  8.23947705E-16  3.89894283E-16
  5.86832651E-16 -2.04012414E-02  4.96829243E-16 -2.13700766E-17 -8.39493765E-16
 -1.65643681E-16  2.75033366E-01 -3.10686782E-16  8.77918485E-17 -1.69307376E-03
 -2.08875435E-16  2.28911445E-16 -1.25012725E-16  5.16501337E-16  3.55620555E-18
 -3.69128198E-16  5.17044660E-16 -1.71559495E-16  2.93372618E-15 -1.69114873E-15
  1.81562737E+00 -3.62898533E-01  3.86133483E-04  6.43174528E-02  4.10486061E-16
 -5.05568068E-01  1.40920502E-14  2.71413799E-17 -3.58438101E-16 -7.27399220E-17
 -3.79864625E-16  1.19251638E-17  1.52967812E-16 -1.48877965E-15 -1.48520471E-16
 -1.70070911E-01 -9.40393657E-17  6.24098899E-16 -6.09601508E-17  4.63296082E-15
 -2.69208186E-16 -3.36416041E-16 -5.53407072E-01  4.20614748E-01 -1.86839793E-16
  6.41465240E-02  7.79998287E-15 -2.53660217E-01 -1.01599861E+00 -4.67297805E-15
Overlap Matrix                             R   N=        2415
  1.00000000E+00  7.06285045E-01  1.00000000E+00  3.73527845E-01  7.88878095E-01
  1.00000000E+00  1.42678975E-01  3.71544888E-01  7.10291289E-01  1.00000000E+00
  0.00000000E+00  0.00000000E+00  0.00000000E+00  0.00000000E+00  1.00000000E+00
  0.00000000E+00  0.00000000E+00  0.00000000E+00  0.00000000E+00  0.00000000E+00
  1.00000000E+00 -4.42452819E-16  0.00000000E+00  0.00000000E+00 -7.11500241E-17
  0.00000000E+00  0.00000000E+00  1.00000000E+00  0.00000000E+00  0.00000000E+00
  0.00000000E+00  0.00000000E+00  6.14923564E-01  0.00000000E+00  0.00000000E+00
  1.00000000E+00  0.00000000E+00  0.00000000E+00  0.00000000E+00  0.00000000E+00
  0.00000000E+00  6.14923564E-01  0.00000000E+00  0.00000000E+00  1.00000000E+00
  1.90284824E-16 -2.75044754E-16 -2.03005880E-16  0.00000000E+00  0.00000000E+00
  0.00000000E+00  6.14923564E-01  0.00000000E+00  0.00000000E+00  1.00000000E+00
  0.00000000E+00  0.00000000E+00  0.00000000E+00  0.00000000E+00  1.78636305E-01
  0.00000000E+00  0.00000000E+00  5.94120668E-01  0.00000000E+00  0.00000000E+00
  1.00000000E+00  0.00000000E+00  0.00000000E+00  0.00000000E+00  0.00000000E+00
  0.00000000E+00  1.78636305E-01  0.00000000E+00  0.00000000E+00  5.94120668E-01
  0.00000000E+00  0.00000000E+00  1.00000000E+00 -1.30887400E-19  1.11588019E-16
 -1.41829476E-16 -2.02107559E-16  0.00000000E+00  0.00000000E+00  1.78636305E-01
  0.00000000E+00  0.00000000E+00  5.94120668E-01  0.00000000E+00  0.00000000E+00
  1.00000000E+00  0.00000000E+00  0.00000000E+00  0.00000000E+00  0.00000000E+00
  0.00000000E+00  0.00000000E+00  0.00000000E+00  0.00000000E+00  0.00000000E+00
  0.00000000E+00  0.00000000E+00  0.00000000E+00  0.00000000E+00  1.00000000E+00
  0.00000000E+00  0.00000000E+00  0.00000000E+00  0.00000000E+00  0.00000000E+00
  0.00000000E+00  0.00000000E+00  0.00000000E+00  0.00000000E+00  0.00000000E+00
  0.00000000E+00  0.00000000E+00  0.00000000E+00  0.00000000E+00  1.00000000E+00
  0.00000000E+00  0.00000000E+00  0.00000000E+00  0.00000000E+00  0.00000000E+00
  0.00000000E+00  0.00000000E+00  0.00000000E+00  0.00000000E+00  0.00000000E+00
  0.00000000E+00  0.00000000E+00  0.00000000E+00  0.00000000E+00  0.00000000E+00
  1.00000000E+00 -2.14806471E-17  3.34106111E-17 -2.71169641E-17 -7.94154292E-18
  0.00000000E+00  0.00000000E+00  0.00000000E+00  0.00000000E+00  0.00000000E+00
  0.00000000E+00  0.00000000E+00  0.00000000E+00  0.00000000E+00  1.73531962E-17
  0.00000000E+00  0.00000000E+00  1.00000000E+00  0.00000000E+00  0.00000000E+00
  0.00000000E+00  0.00000000E+00  0.00000000E+00  0.00000000E+00  0.00000000E+00
  0.00000000E+00  0.00000000E+00  0.00000000E+00  0.00000000E+00  0.00000000E+00
  0.00000000E+00  0.00000000E+00  0.00000000E+00  0.00000000E+00  0.00000000E+00
  1.00000000E+00  0.00000000E+00  0.00000000E+00  0.00000000E+00  0.00000000E+00
  0.00000000E+00  0.00000000E+00 -1.09335981E-16  0.00000000E+00  0.00000000E+00
  2.39243193E-16  0.00000000E+00  0.00000000E+00  0.00000000E+00  4.26073291E-01
  0.00000000E+00  0.00000000E+00 -4.68941419E-18  0.00000000E+00  1.00000000E+00
  0.00000000E+00  0.00000000E+00  0.00000000E+00  0.00000000E+00 -9.46877370E-17
  0.00000000E+00  0.00000000E+00  2.07190683E-16  0.00000000E+00  0.00000000E+00
  0.00000000E+00  0.00000000E+00  0.00000000E+00  0.00000000E+00  4.26073291E-01
  0.00000000E+00  0.00000000E+00  0.00000000E+00  0.00000000E+00  1.00000000E+00
  0.00000000E+00  0.00000000E+00  0.00000000E+00  0.00000000E+00  0.00000000E+00
 -9.46877370E-17  0.00000000E+00  0.00000000E+00  2.07190683E-16  0.00000000E+00
  0.00000000E+00  0.00000000E+00  0.00000000E+00  0.00000000E+00  0.00000000E+00
  4.26073291E-01  0.00000000E+00  0.00000000E+00  0.00000000E+00  0.00000000E+00
  1.00000000E+00  1.33656906E-18 -5.94919387E-18 -2.83320046E-17 -1.26821802E-17
  0.00000000E+00  0.00000000E+00  1.92709174E-34  0.00000000E+00  0.00000000E+00
  5.96015979E-34  0.00000000E+00  0.00000000E+00  0.00000000E+00  5.68579452E-18
  0.00000000E+00  0.00000000E+00  4.26073291E-01  0.00000000E+00 -4.95805605E-18
  0.00000000E+00  0.00000000E+00  1.00000000E+00  0.00000000E+00  0.00000000E+00
  0.00000000E+00  0.00000000E+00  0.00000000E+00  0.00000000E+00  0.00000000E+00
  0.00000000E+00  0.00000000E+00  0.00000000E+00  0.00000000E+00  0.00000000E+00
  0.00000000E+00  0.00000000E+00  0.00000000E+00  0.00000000E+00  0.00000000E+00
  4.26073291E-01  0.00000000E+00  0.00000000E+00  0.00000000E+00  0.00000000E+00
  1.00000000E+00  2.56712803E-01  4.16859598E-01  3.07922394E-01  1.35664581E-01
  0.00000000E+00  0.00000000E+00  3.95911141E-01  0.00000000E+00  0.00000000E+00
  5.64296360E-01  0.00000000E+00  0.00000000E+00  2.58506033E-01  4.49781387E-01
  0.00000000E+00  0.00000000E+00  1.14247049E-17  0.00000000E+00  3.30180603E-01
  0.00000000E+00  0.00000000E+00  3.93440184E-18  0.00000000E+00  1.00000000E+00
  4.16859598E-01  7.17643758E-01  6.72884198E-01  3.54222032E-01  0.00000000E+00
  0.00000000E+00  2.56568554E-01  0.00000000E+00  0.00000000E+00  5.62543954E-01
  0.00000000E+00  0.00000000E+00  4.66275362E-01  1.29951440E-01  0.00000000E+00
  0.00000000E+00 -3.57382222E-18  0.00000000E+00  2.78312164E-01  0.00000000E+00
  0.00000000E+00 -1.52339172E-17  0.00000000E+00  7.06285045E-01  1.00000000E+00
  3.07922394E-01  6.72884198E-01  9.00697633E-01  6.81559526E-01  0.00000000E+00
  0.00000000E+00  6.77279359E-02  0.00000000E+00  0.00000000E+00  2.31451103E-01
  0.00000000E+00  0.00000000E+00  4.12077670E-01  1.38012684E-02  0.00000000E+00
  0.00000000E+00 -1.43192293E-17  0.00000000E+00  7.51478041E-02  0.00000000E+00
  0.00000000E+00 -4.63445233E-17  0.00000000E+00  3.73527845E-01  7.88878095E-01
  1.00000000E+00  1.35664581E-01  3.54222032E-01  6.81559526E-01  9.74604241E-01
  0.00000000E+00  0.00000000E+00  7.66765960E-03  0.00000000E+00  0.00000000E+00
  3.43401939E-02  0.00000000E+00  0.00000000E+00  1.23711818E-01  4.27382246E-04
  0.00000000E+00  0.00000000E+00  4.22322755E-18  0.00000000E+00  4.21865106E-03
  0.00000000E+00  0.00000000E+00 -2.72098579E-17  0.00000000E+00  1.42678975E-01
  3.71544888E-01  7.10291289E-01  1.00000000E+00  0.00000000E+00  0.00000000E+00
  0.00000000E+00  0.00000000E+00  2.38631721E-01  0.00000000E+00  0.00000000E+00
  3.30982911E-01  0.00000000E+00  0.00000000E+00  1.47178883E-01  0.00000000E+00
  0.00000000E+00  0.00000000E+00  4.77793668E-01  0.00000000E+00  0.00000000E+00
  0.00000000E+00  0.00000000E+00  3.37461403E-01  0.00000000E+00  0.00000000E+00
  0.00000000E+00  0.00000000E+00  0.00000000E+00  0.00000000E+00  0.00000000E+00
  1.00000000E+00  0.00000000E+00  0.00000000E+00  0.00000000E+00  0.00000000E+00
  0.00000000E+00  2.38631721E-01  0.00000000E+00  0.00000000E+00  3.30982911E-01
  0.00000000E+00  0.00000000E+00  1.47178883E-01  0.00000000E+00  0.00000000E+00
  0.00000000E+00  4.77793668E-01  0.00000000E+00  0.00000000E+00  0.00000000E+00
  0.00000000E+00  3.37461403E-01  0.00000000E+00  0.00000000E+00  0.00000000E+00
  0.00000000E+00  0.00000000E+00  0.00000000E+00  0.00000000E+00  1.00000000E+00
 -3.95911141E-01 -2.56568554E-01 -6.77279359E-02 -7.66765960E-03  0.00000000E+00
  0.00000000E+00 -4.45207485E-01  0.00000000E+00  0.00000000E+00 -7.90593911E-02
  0.00000000E+00  0.00000000E+00  9.01608471E-02 -1.26510259E-01  0.00000000E+00
  0.00000000E+00 -5.93943336E-18  0.00000000E+00  2.22911141E-01  0.00000000E+00
  0.00000000E+00 -9.28464659E-19  0.00000000E+00  0.00000000E+00  0.00000000E+00
  0.00000000E+00  0.00000000E+00  0.00000000E+00  0.00000000E+00  1.00000000E+00
  0.00000000E+00  0.00000000E+00  0.00000000E+00  0.00000000E+00  3.30982911E-01
  0.00000000E+00  0.00000000E+00  6.73596480E-01  0.00000000E+00  0.00000000E+00
  5.04002799E-01  0.00000000E+00  0.00000000E+00  0.00000000E+00  3.26955818E-01
  0.00000000E+00  0.00000000E+00  0.00000000E+00  0.00000000E+00  5.98352374E-01
  0.00000000E+00  0.00000000E+00  0.00000000E+00  0.00000000E+00  0.00000000E+00
  0.00000000E+00  0.00000000E+00  6.14923564E-01  0.00000000E+00  0.00000000E+00
  1.00000000E+00  0.00000000E+00  0.00000000E+00  0.00000000E+00  0.00000000E+00
  0.00000000E+00  3.30982911E-01  0.00000000E+00  0.00000000E+00  6.73596480E-01
  0.00000000E+00  0.00000000E+00  5.04002799E-01  0.00000000E+00  0.00000000E+00
  0.00000000E+00  3.26955818E-01  0.00000000E+00  0.00000000E+00  0.00000000E+00
  0.00000000E+00  5.98352374E-01  0.00000000E+00  0.00000000E+00  0.00000000E+00
  0.00000000E+00  0.00000000E+00  0.00000000E+00  0.00000000E+00  6.14923564E-01
  0.00000000E+00  0.00000000E+00  1.00000000E+00 -5.64296360E-01 -5.62543954E-01
 -2.31451103E-01 -3.43401939E-02  0.00000000E+00  0.00000000E+00 -7.90593911E-02
  0.00000000E+00  0.00000000E+00  1.41288152E-01  0.00000000E+00  0.00000000E+00
  3.38185252E-01  1.59298734E-01  0.00000000E+00  0.00000000E+00 -2.38574995E-17
  0.00000000E+00  4.78538077E-01  0.00000000E+00  0.00000000E+00  1.25371025E-17
  0.00000000E+00  0.00000000E+00  0.00000000E+00  0.00000000E+00  0.00000000E+00
  0.00000000E+00  0.00000000E+00  6.14923564E-01  0.00000000E+00  0.00000000E+00
  1.00000000E+00  0.00000000E+00  0.00000000E+00  0.00000000E+00  0.00000000E+00
  1.47178883E-01  0.00000000E+00  0.00000000E+00  5.04002799E-01  0.00000000E+00
  0.00000000E+00  9.01339927E-01  0.00000000E+00  0.00000000E+00  0.00000000E+00
  5.16390071E-02  0.00000000E+00  0.00000000E+00  0.00000000E+00  0.00000000E+00
  2.82421635E-01  0.00000000E+00  0.00000000E+00  0.00000000E+00  0.00000000E+00
  0.00000000E+00  0.00000000E+00  0.00000000E+00  1.78636305E-01  0.00000000E+00
  0.00000000E+00  5.94120668E-01  0.00000000E+00  0.00000000E+00  1.00000000E+00
  0.00000000E+00  0.00000000E+00  0.00000000E+00  0.00000000E+00  0.00000000E+00
  1.47178883E-01  0.00000000E+00  0.00000000E+00  5.04002799E-01  0.00000000E+00
  0.00000000E+00  9.01339927E-01  0.00000000E+00  0.00000000E+00  0.00000000E+00
  5.16390071E-02  0.00000000E+00  0.00000000E+00  0.00000000E+00  0.00000000E+00
  2.82421635E-01  0.00000000E+00  0.00000000E+00  0.00000000E+00  0.00000000E+00
  0.00000000E+00  0.00000000E+00  0.00000000E+00  1.78636305E-01  0.00000000E+00
  0.00000000E+00  5.94120668E-01  0.00000000E+00  0.00000000E+00  1.00000000E+00
 -2.58506033E-01 -4.66275362E-01 -4.12077670E-01 -1.23711818E-01  0.00000000E+00
  0.00000000E+00  9.01608471E-02  0.00000000E+00  0.00000000E+00  3.38185252E-01
  0.00000000E+00  0.00000000E+00  7.14090496E-01  4.83303923E-02  0.00000000E+00
  0.00000000E+00  8.03962153E-18  0.00000000E+00  2.78164385E-01  0.00000000E+00
  0.00000000E+00  2.43090389E-17  0.00000000E+00  0.00000000E+00  0.00000000E+00
  0.00000000E+00  0.00000000E+00  0.00000000E+00  0.00000000E+00  1.78636305E-01
  0.00000000E+00  0.00000000E+00  5.94120668E-01  0.00000000E+00  0.00000000E+00
  1.00000000E+00  4.49781387E-01  1.29951440E-01  1.38012684E-02  4.27382246E-04
  0.00000000E+00  0.00000000E+00  1.26510259E-01  0.00000000E+00  0.00000000E+00
 -1.59298734E-01  0.00000000E+00  0.00000000E+00 -4.83303923E-02 -1.10952931E-01
  0.00000000E+00  0.00000000E+00  1.85588226E-18  0.00000000E+00  3.80593080E-02
  0.00000000E+00  0.00000000E+00  9.99852815E-19  0.00000000E+00  0.00000000E+00
  0.00000000E+00  0.00000000E+00  0.00000000E+00  0.00000000E+00  0.00000000E+00
  0.00000000E+00  0.00000000E+00  0.00000000E+00  0.00000000E+00  0.00000000E+00
  0.00000000E+00  0.00000000E+00  1.00000000E+00  0.00000000E+00  0.00000000E+00
  0.00000000E+00  0.00000000E+00 -4.77793668E-01  0.00000000E+00  0.00000000E+00
 -3.26955818E-01  0.00000000E+00  0.00000000E+00 -5.16390071E-02  0.00000000E+00
  0.00000000E+00  0.00000000E+00 -3.92899778E-01  0.00000000E+00  0.00000000E+00
  0.00000000E+00  0.00000000E+00  5.22687457E-02  0.00000000E+00  0.00000000E+00
  0.00000000E+00  0.00000000E+00  0.00000000E+00  0.00000000E+00  0.00000000E+00
  0.00000000E+00  0.00000000E+00  0.00000000E+00  0.00000000E+00  0.00000000E+00
  0.00000000E+00  0.00000000E+00  0.00000000E+00  0.00000000E+00  0.00000000E+00
  1.00000000E+00  0.00000000E+00  0.00000000E+00  0.00000000E+00  0.00000000E+00
  0.00000000E+00 -4.77793668E-01  0.00000000E+00  0.00000000E+00 -3.26955818E-01
  0.00000000E+00  0.00000000E+00 -5.16390071E-02  0.00000000E+00  0.00000000E+00
  0.00000000E+00 -3.92899778E-01  0.00000000E+00  0.00000000E+00  0.00000000E+00
  0.00000000E+00  5.22687457E-02  0.00000000E+00  0.00000000E+00  0.00000000E+00
  0.00000000E+00  0.00000000E+00  0.00000000E+00  0.00000000E+00  0.00000000E+00
  0.00000000E+00  0.00000000E+00  0.00000000E+00  0.00000000E+00  0.00000000E+00
  0.00000000E+00  0.00000000E+00  0.00000000E+00  0.00000000E+00  1.00000000E+00
  1.14247049E-17 -3.57382222E-18 -1.43192293E-17  4.22322755E-18  0.00000000E+00
  0.00000000E+00  5.93943336E-18  0.00000000E+00  0.00000000E+00  2.38574995E-17
  0.00000000E+00  0.00000000E+00  6.83454662E-18 -3.23792566E-18  0.00000000E+00
  0.00000000E+00  3.40817714E-01  0.00000000E+00  1.34967565E-17  0.00000000E+00
  0.00000000E+00  2.83392038E-01  0.00000000E+00 -2.14806471E-17  3.34106111E-17
 -2.71169641E-17 -7.94154292E-18  0.00000000E+00  0.00000000E+00  0.00000000E+00
  0.00000000E+00  0.00000000E+00  0.00000000E+00  0.00000000E+00  0.00000000E+00
  0.00000000E+00  1.73531962E-17  0.00000000E+00  0.00000000E+00  1.00000000E+00
  0.00000000E+00  0.00000000E+00  0.00000000E+00  0.00000000E+00  0.00000000E+00
  0.00000000E+00  0.00000000E+00  0.00000000E+00  0.00000000E+00  0.00000000E+00
  0.00000000E+00  0.00000000E+00  0.00000000E+00  0.00000000E+00  0.00000000E+00
  0.00000000E+00  0.00000000E+00  3.40817714E-01  0.00000000E+00  0.00000000E+00
  0.00000000E+00  0.00000000E+00  2.83392038E-01  0.00000000E+00  0.00000000E+00
  0.00000000E+00  0.00000000E+00  0.00000000E+00  0.00000000E+00  0.00000000E+00
  0.00000000E+00  0.00000000E+00  0.00000000E+00  0.00000000E+00  0.00000000E+00
  0.00000000E+00  0.00000000E+00  0.00000000E+00  0.00000000E+00  0.00000000E+00
  1.00000000E+00  3.30180603E-01  2.78312164E-01  7.51478041E-02  4.21865106E-03
  0.00000000E+00  0.00000000E+00 -2.22911141E-01  0.00000000E+00  0.00000000E+00
 -4.78538077E-01  0.00000000E+00  0.00000000E+00 -2.78164385E-01  3.80593080E-02
  0.00000000E+00  0.00000000E+00 -3.36090826E-18  0.00000000E+00  3.21617510E-01
  0.00000000E+00  0.00000000E+00  3.39362185E-17  0.00000000E+00  0.00000000E+00
  0.00000000E+00  0.00000000E+00  0.00000000E+00  0.00000000E+00  0.00000000E+00
  0.00000000E+00  0.00000000E+00  0.00000000E+00  0.00000000E+00  0.00000000E+00
  0.00000000E+00  0.00000000E+00  4.26073291E-01  0.00000000E+00  0.00000000E+00
 -4.68941419E-18  0.00000000E+00  1.00000000E+00  0.00000000E+00  0.00000000E+00
  0.00000000E+00  0.00000000E+00 -3.37461403E-01  0.00000000E+00  0.00000000E+00
 -5.98352374E-01  0.00000000E+00  0.00000000E+00 -2.82421635E-01  0.00000000E+00
  0.00000000E+00  0.00000000E+00  5.22687457E-02  0.00000000E+00  0.00000000E+00
  0.00000000E+00  0.00000000E+00  3.86415577E-01  0.00000000E+00  0.00000000E+00
  0.00000000E+00  0.00000000E+00  0.00000000E+00  0.00000000E+00  0.00000000E+00
  0.00000000E+00  0.00000000E+00  0.00000000E+00  0.00000000E+00  0.00000000E+00
  0.00000000E+00  0.00000000E+00  0.00000000E+00  0.00000000E+00  0.00000000E+00
  4.26073291E-01  0.00000000E+00  0.00000000E+00  0.00000000E+00  0.00000000E+00
  1.00000000E+00  0.00000000E+00  0.00000000E+00  0.00000000E+00  0.00000000E+00
  0.00000000E+00 -3.37461403E-01  0.00000000E+00  0.00000000E+00 -5.98352374E-01
  0.00000000E+00  0.00000000E+00 -2.82421635E-01  0.00000000E+00  0.00000000E+00
  0.00000000E+00  5.22687457E-02  0.00000000E+00  0.00000000E+00  0.00000000E+00
  0.00000000E+00  3.86415577E-01  0.00000000E+00  0.00000000E+00  0.00000000E+00
  0.00000000E+00  0.00000000E+00  0.00000000E+00  0.00000000E+00  0.00000000E+00
  0.00000000E+00  0.00000000E+00  0.00000000E+00  0.00000000E+00  0.00000000E+00
  0.00000000E+00  0.00000000E+00  0.00000000E+00  0.00000000E+00  4.26073291E-01
  0.00000000E+00  0.00000000E+00  0.00000000E+00  0.00000000E+00  1.00000000E+00
  3.93440184E-18 -1.52339172E-17 -4.63445233E-17 -2.72098579E-17  0.00000000E+00
  0.00000000E+00  9.28464659E-19  0.00000000E+00  0.00000000E+00  2.33706563E-18
  0.00000000E+00  0.00000000E+00 -9.43487076E-18 -5.18313563E-18  0.00000000E+00
  0.00000000E+00  2.83392038E-01  0.00000000E+00 -1.71989131E-18  0.00000000E+00
  0.00000000E+00  7.77606124E-01  0.00000000E+00  1.33656906E-18 -5.94919387E-18
 -2.83320046E-17 -1.26821802E-17  0.00000000E+00  0.00000000E+00  0.00000000E+00
  0.00000000E+00  0.00000000E+00  0.00000000E+00  0.00000000E+00  0.00000000E+00
  0.00000000E+00  5.68579452E-18  0.00000000E+00  0.00000000E+00  4.26073291E-01
  0.00000000E+00 -4.95805605E-18  0.00000000E+00  0.00000000E+00  1.00000000E+00
  0.00000000E+00  0.00000000E+00  0.00000000E+00  0.00000000E+00  0.00000000E+00
  0.00000000E+00  0.00000000E+00  0.00000000E+00  0.00000000E+00  0.00000000E+00
  0.00000000E+00  0.00000000E+00  0.00000000E+00  0.00000000E+00  0.00000000E+00
  0.00000000E+00  0.00000000E+00  2.83392038E-01  0.00000000E+00  0.00000000E+00
  0.00000000E+00  0.00000000E+00  7.77606124E-01  0.00000000E+00  0.00000000E+00
  0.00000000E+00  0.00000000E+00  0.00000000E+00  0.00000000E+00  0.00000000E+00
  0.00000000E+00  0.00000000E+00  0.00000000E+00  0.00000000E+00  0.00000000E+00
  0.00000000E+00  0.00000000E+00  0.00000000E+00  0.00000000E+00  0.00000000E+00
  4.26073291E-01  0.00000000E+00  0.00000000E+00  0.00000000E+00  0.00000000E+00
  1.00000000E+00  2.29668894E-10  4.40901277E-05  1.04355960E-02  5.60538837E-02
  0.00000000E+00  0.00000000E+00  2.12722527E-10  0.00000000E+00  0.00000000E+00
  6.83342281E-05  0.00000000E+00  0.00000000E+00  3.84901707E-02  1.85629290E-08
  0.00000000E+00  0.00000000E+00 -1.67571826E-26  0.00000000E+00  3.94613366E-03
  0.00000000E+00  0.00000000E+00 -1.21506743E-21  0.00000000E+00  1.82798328E-06
  2.30996950E-03  4.53251522E-02  8.22648143E-02  0.00000000E+00  0.00000000E+00
  3.09639354E-06  0.00000000E+00  0.00000000E+00  4.83358303E-03  0.00000000E+00
  0.00000000E+00  1.27213713E-01  5.76030736E-05  0.00000000E+00  0.00000000E+00
  2.81241528E-23  0.00000000E+00  5.58751268E-02  0.00000000E+00  0.00000000E+00
  4.18145335E-20  0.00000000E+00  1.00000000E+00  4.40901277E-05  2.13562213E-03
  4.13929727E-02  1.53359645E-01  0.00000000E+00  0.00000000E+00  8.71823803E-05
  0.00000000E+00  0.00000000E+00  4.34110656E-03  0.00000000E+00  0.00000000E+00
  1.25282578E-01  3.30705168E-04  0.00000000E+00  0.00000000E+00 -2.23157555E-21
  0.00000000E+00  3.41706682E-02  0.00000000E+00  0.00000000E+00 -6.78006569E-20
  0.00000000E+00  2.30996950E-03  2.66725779E-02  1.38851178E-01  2.20551993E-01
  0.00000000E+00  0.00000000E+00  4.03986813E-03  0.00000000E+00  0.00000000E+00
  5.18670856E-02  0.00000000E+00  0.00000000E+00  3.20615342E-01  9.25147252E-03
  0.00000000E+00  0.00000000E+00  1.00492465E-19  0.00000000E+00  1.77722057E-01
  0.00000000E+00  0.00000000E+00  1.30462878E-18  0.00000000E+00  7.06285045E-01
  1.00000000E+00  1.04355960E-02  4.13929727E-02  1.43946740E-01  3.30434523E-01
  0.00000000E+00  0.00000000E+00  9.55738604E-03  0.00000000E+00  0.00000000E+00
  5.48318276E-02  0.00000000E+00  0.00000000E+00  2.85299467E-01  9.03995518E-03
  0.00000000E+00  0.00000000E+00 -6.47256969E-19  0.00000000E+00  1.04441713E-01
  0.00000000E+00  0.00000000E+00  2.16629587E-18  0.00000000E+00  4.53251522E-02
  1.38851178E-01  3.19049311E-01  4.52432876E-01  0.00000000E+00  0.00000000E+00
  3.23461400E-02  0.00000000E+00  0.00000000E+00  1.48203043E-01  0.00000000E+00
  0.00000000E+00  4.84143395E-01  2.27329416E-02  0.00000000E+00  0.00000000E+00
  1.50984748E-18  0.00000000E+00  1.89478276E-01  0.00000000E+00  0.00000000E+00
 -5.36911191E-18  0.00000000E+00  3.73527845E-01  7.88878095E-01  1.00000000E+00
  5.60538837E-02  1.53359645E-01  3.30434523E-01  6.20800527E-01  0.00000000E+00
  0.00000000E+00  1.36080300E-02  0.00000000E+00  0.00000000E+00  6.33828008E-02
  0.00000000E+00  0.00000000E+00  2.58460356E-01  3.28215471E-03  0.00000000E+00
  0.00000000E+00  5.86039663E-18  0.00000000E+00  3.44920526E-02  0.00000000E+00
  0.00000000E+00  9.75732800E-18  0.00000000E+00  8.22648143E-02  2.20551993E-01
  4.52432876E-01  7.55038873E-01  0.00000000E+00  0.00000000E+00  1.53472303E-02
  0.00000000E+00  0.00000000E+00  7.02767781E-02  0.00000000E+00  0.00000000E+00
  2.71567091E-01  2.83545715E-03  0.00000000E+00  0.00000000E+00 -6.70021433E-18
  0.00000000E+00  2.89985359E-02  0.00000000E+00  0.00000000E+00 -5.06668089E-18
  0.00000000E+00  1.42678975E-01  3.71544888E-01  7.10291289E-01  1.00000000E+00
  0.00000000E+00  0.00000000E+00  0.00000000E+00  0.00000000E+00  2.93280473E-12
  0.00000000E+00  0.00000000E+00  6.35461882E-06  0.00000000E+00  0.00000000E+00
  4.93031655E-03  0.00000000E+00  0.00000000E+00  0.00000000E+00  8.96499874E-10
  0.00000000E+00  0.00000000E+00  0.00000000E+00  0.00000000E+00  8.00900242E-04
  0.00000000E+00  0.00000000E+00  0.00000000E+00  0.00000000E+00  0.00000000E+00
  0.00000000E+00  0.00000000E+00  1.59515797E-07  0.00000000E+00  0.00000000E+00
  7.08454167E-04  0.00000000E+00  0.00000000E+00  2.15310129E-02  0.00000000E+00
  0.00000000E+00  0.00000000E+00  7.95446005E-06  0.00000000E+00  0.00000000E+00
  0.00000000E+00  0.00000000E+00  1.59637502E-02  0.00000000E+00  0.00000000E+00
  0.00000000E+00  0.00000000E+00  0.00000000E+00  0.00000000E+00  0.00000000E+00
  1.00000000E+00  0.00000000E+00  0.00000000E+00  0.00000000E+00  0.00000000E+00
  0.00000000E+00  2.93280473E-12  0.00000000E+00  0.00000000E+00  6.35461882E-06
  0.00000000E+00  0.00000000E+00  4.93031655E-03  0.00000000E+00  0.00000000E+00
  0.00000000E+00  8.96499874E-10  0.00000000E+00  0.00000000E+00  0.00000000E+00
  0.00000000E+00  8.00900242E-04  0.00000000E+00  0.00000000E+00  0.00000000E+00
  0.00000000E+00  0.00000000E+00  0.00000000E+00  0.00000000E+00  1.59515797E-07
  0.00000000E+00  0.00000000E+00  7.08454167E-04  0.00000000E+00  0.00000000E+00
  2.15310129E-02  0.00000000E+00  0.00000000E+00  0.00000000E+00  7.95446005E-06
  0.00000000E+00  0.00000000E+00  0.00000000E+00  0.00000000E+00  1.59637502E-02
  0.00000000E+00  0.00000000E+00  0.00000000E+00  0.00000000E+00  0.00000000E+00
  0.00000000E+00  0.00000000E+00  1.00000000E+00 -2.12722527E-10 -8.71823803E-05
 -9.55738604E-03 -1.36080300E-02  0.00000000E+00  0.00000000E+00 -1.52828817E-10
  0.00000000E+00  0.00000000E+00 -1.39548336E-04  0.00000000E+00  0.00000000E+00
 -3.04688507E-02 -2.25495569E-08  0.00000000E+00  0.00000000E+00  7.98930250E-27
  0.00000000E+00 -6.40997099E-03  0.00000000E+00  0.00000000E+00  2.99757318E-21
  0.00000000E+00 -3.09639354E-06 -4.03986813E-03 -3.23461400E-02 -1.53472303E-02
  0.00000000E+00  0.00000000E+00 -4.83368687E-06  0.00000000E+00  0.00000000E+00
 -8.87858550E-03  0.00000000E+00  0.00000000E+00 -6.95821001E-02 -1.14150979E-04
  0.00000000E+00  0.00000000E+00  1.40253508E-22  0.00000000E+00 -6.77337014E-02
  0.00000000E+00  0.00000000E+00 -7.45732922E-20  0.00000000E+00  1.76981128E-15
 -1.45557128E-15  0.00000000E+00  0.00000000E+00  0.00000000E+00  0.00000000E+00
  1.00000000E+00  0.00000000E+00  0.00000000E+00  0.00000000E+00  0.00000000E+00
  6.35461882E-06  0.00000000E+00  0.00000000E+00  6.60224207E-04  0.00000000E+00
  0.00000000E+00  2.81726587E-02  0.00000000E+00  0.00000000E+00  0.00000000E+00
  5.58209666E-05  0.00000000E+00  0.00000000E+00  0.00000000E+00  0.00000000E+00
  1.17570888E-02  0.00000000E+00  0.00000000E+00  0.00000000E+00  0.00000000E+00
  0.00000000E+00  0.00000000E+00  0.00000000E+00  7.08454167E-04  0.00000000E+00
  0.00000000E+00  1.33529649E-02  0.00000000E+00  0.00000000E+00  9.85151291E-02
  0.00000000E+00  0.00000000E+00  0.00000000E+00  3.48719648E-03  0.00000000E+00
  0.00000000E+00  0.00000000E+00  0.00000000E+00  9.36303633E-02  0.00000000E+00
  0.00000000E+00  0.00000000E+00  0.00000000E+00  0.00000000E+00  0.00000000E+00
  0.00000000E+00  6.14923564E-01  0.00000000E+00  0.00000000E+00  1.00000000E+00
  0.00000000E+00  0.00000000E+00  0.00000000E+00  0.00000000E+00  0.00000000E+00
  6.35461882E-06  0.00000000E+00  0.00000000E+00  6.60224207E-04  0.00000000E+00
  0.00000000E+00  2.81726587E-02  0.00000000E+00  0.00000000E+00  0.00000000E+00
  5.58209666E-05  0.00000000E+00  0.00000000E+00  0.00000000E+00  0.00000000E+00
  1.17570888E-02  0.00000000E+00  0.00000000E+00  0.00000000E+00  0.00000000E+00
  0.00000000E+00  0.00000000E+00  0.00000000E+00  7.08454167E-04  0.00000000E+00
  0.00000000E+00  1.33529649E-02  0.00000000E+00  0.00000000E+00  9.85151291E-02
  0.00000000E+00  0.00000000E+00  0.00000000E+00  3.48719648E-03  0.00000000E+00
  0.00000000E+00  0.00000000E+00  0.00000000E+00  9.36303633E-02  0.00000000E+00
  0.00000000E+00  0.00000000E+00  0.00000000E+00  0.00000000E+00  0.00000000E+00
  0.00000000E+00  6.14923564E-01  0.00000000E+00  0.00000000E+00  1.00000000E+00
 -6.83342281E-05 -4.34110656E-03 -5.48318276E-02 -6.33828008E-02  0.00000000E+00
  0.00000000E+00 -1.39548336E-04  0.00000000E+00  0.00000000E+00 -9.00932852E-03
  0.00000000E+00  0.00000000E+00 -1.43609028E-01 -6.26083440E-04  0.00000000E+00
  0.00000000E+00  5.77351491E-21  0.00000000E+00 -6.37646477E-02  0.00000000E+00
  0.00000000E+00  4.91267869E-20  0.00000000E+00 -4.83358303E-03 -5.18670856E-02
 -1.48203043E-01 -7.02767781E-02  0.00000000E+00  0.00000000E+00 -8.87858550E-03
  0.00000000E+00  0.00000000E+00 -1.01910278E-01  0.00000000E+00  0.00000000E+00
 -2.55523087E-01 -2.13986303E-02  0.00000000E+00  0.00000000E+00  8.71437532E-20
  0.00000000E+00 -2.54898180E-01  0.00000000E+00  0.00000000E+00 -3.31277366E-19
  0.00000000E+00  0.00000000E+00 -1.10017902E-15  0.00000000E+00  0.00000000E+00
  0.00000000E+00  0.00000000E+00  6.14923564E-01  0.00000000E+00  0.00000000E+00
  1.00000000E+00  0.00000000E+00  0.00000000E+00  0.00000000E+00  0.00000000E+00
  4.93031655E-03  0.00000000E+00  0.00000000E+00  2.81726587E-02  0.00000000E+00
  0.00000000E+00  1.45861106E-01  0.00000000E+00  0.00000000E+00  0.00000000E+00
  8.02182858E-03  0.00000000E+00  0.00000000E+00  0.00000000E+00  0.00000000E+00
  9.23223346E-02  0.00000000E+00  0.00000000E+00  0.00000000E+00  0.00000000E+00
  0.00000000E+00  0.00000000E+00  0.00000000E+00  2.15310129E-02  0.00000000E+00
  0.00000000E+00  9.85151291E-02  0.00000000E+00  0.00000000E+00  3.21543327E-01
  0.00000000E+00  0.00000000E+00  0.00000000E+00  2.60403564E-02  0.00000000E+00
  0.00000000E+00  0.00000000E+00  0.00000000E+00  2.16988976E-01  0.00000000E+00
  0.00000000E+00  0.00000000E+00  0.00000000E+00  0.00000000E+00  0.00000000E+00
  0.00000000E+00  1.78636305E-01  0.00000000E+00  0.00000000E+00  5.94120668E-01
  0.00000000E+00  0.00000000E+00  1.00000000E+00  0.00000000E+00  0.00000000E+00
  0.00000000E+00  0.00000000E+00  0.00000000E+00  4.93031655E-03  0.00000000E+00
  0.00000000E+00  2.81726587E-02  0.00000000E+00  0.00000000E+00  1.45861106E-01
  0.00000000E+00  0.00000000E+00  0.00000000E+00  8.02182858E-03  0.00000000E+00
  0.00000000E+00  0.00000000E+00  0.00000000E+00  9.23223346E-02  0.00000000E+00
  0.00000000E+00  0.00000000E+00  0.00000000E+00  0.00000000E+00  0.00000000E+00
  0.00000000E+00  2.15310129E-02  0.00000000E+00  0.00000000E+00  9.85151291E-02
  0.00000000E+00  0.00000000E+00  3.21543327E-01  0.00000000E+00  0.00000000E+00
  0.00000000E+00  2.60403564E-02  0.00000000E+00  0.00000000E+00  0.00000000E+00
  0.00000000E+00  2.16988976E-01  0.00000000E+00  0.00000000E+00  0.00000000E+00
  0.00000000E+00  0.00000000E+00  0.00000000E+00  0.00000000E+00  1.78636305E-01
  0.00000000E+00  0.00000000E+00  5.94120668E-01  0.00000000E+00  0.00000000E+00
  1.00000000E+00 -3.84901707E-02 -1.25282578E-01 -2.85299467E-01 -2.58460356E-01
  0.00000000E+00  0.00000000E+00 -3.04688507E-02  0.00000000E+00  0.00000000E+00
 -1.43609028E-01  0.00000000E+00  0.00000000E+00 -4.15733453E-01 -2.32622187E-02
  0.00000000E+00  0.00000000E+00 -3.31923160E-19  0.00000000E+00 -1.83885267E-01
  0.00000000E+00  0.00000000E+00 -3.57159431E-18  0.00000000E+00 -1.27213713E-01
 -3.20615342E-01 -4.84143395E-01 -2.71567091E-01  0.00000000E+00  0.00000000E+00
 -6.95821001E-02  0.00000000E+00  0.00000000E+00 -2.55523087E-01  0.00000000E+00
  0.00000000E+00 -4.08117569E-01 -3.21596982E-02  0.00000000E+00  0.00000000E+00
  5.08332701E-18  0.00000000E+00 -1.51844718E-01  0.00000000E+00  0.00000000E+00
 -2.45979402E-17  0.00000000E+00  5.23549599E-19  0.00000000E+00  0.00000000E+00
  0.00000000E+00  0.00000000E+00  0.00000000E+00  1.78636305E-01  0.00000000E+00
  0.00000000E+00  5.94120668E-01  0.00000000E+00  0.00000000E+00  1.00000000E+00
  1.85629290E-08  3.30705168E-04  9.03995518E-03  3.28215471E-03  0.00000000E+00
  0.00000000E+00  2.25495569E-08  0.00000000E+00  0.00000000E+00  6.26083440E-04
  0.00000000E+00  0.00000000E+00  2.32622187E-02  1.03738973E-06  0.00000000E+00
  0.00000000E+00  3.52145902E-25  0.00000000E+00  1.26820629E-02  0.00000000E+00
  0.00000000E+00  4.75303452E-21  0.00000000E+00  5.76030736E-05  9.25147252E-03
  2.27329416E-02  2.83545715E-03  0.00000000E+00  0.00000000E+00  1.14150979E-04
  0.00000000E+00  0.00000000E+00  2.13986303E-02  0.00000000E+00  0.00000000E+00
  3.21596982E-02  1.20530164E-03  0.00000000E+00  0.00000000E+00  1.21440003E-21
  0.00000000E+00  7.71749058E-02  0.00000000E+00  0.00000000E+00 -4.81876971E-19
  0.00000000E+00  0.00000000E+00  0.00000000E+00  0.00000000E+00  0.00000000E+00
  0.00000000E+00  0.00000000E+00  0.00000000E+00  0.00000000E+00  0.00000000E+00
  0.00000000E+00  0.00000000E+00  0.00000000E+00 -5.09621125E-16  1.00000000E+00
  0.00000000E+00  0.00000000E+00  0.00000000E+00  0.00000000E+00 -8.96499874E-10
  0.00000000E+00  0.00000000E+00 -5.58209666E-05  0.00000000E+00  0.00000000E+00
 -8.02182858E-03  0.00000000E+00  0.00000000E+00  0.00000000E+00 -8.43437133E-08
  0.00000000E+00  0.00000000E+00  0.00000000E+00  0.00000000E+00 -3.14042536E-03
  0.00000000E+00  0.00000000E+00  0.00000000E+00  0.00000000E+00  0.00000000E+00
  0.00000000E+00  0.00000000E+00 -7.95446005E-06  0.00000000E+00  0.00000000E+00
 -3.48719648E-03  0.00000000E+00  0.00000000E+00 -2.60403564E-02  0.00000000E+00
  0.00000000E+00  0.00000000E+00 -1.76251333E-04  0.00000000E+00  0.00000000E+00
  0.00000000E+00  0.00000000E+00 -3.91848667E-02  0.00000000E+00  0.00000000E+00
  0.00000000E+00  0.00000000E+00  0.00000000E+00  0.00000000E+00  0.00000000E+00
  0.00000000E+00  0.00000000E+00  0.00000000E+00  0.00000000E+00  0.00000000E+00
  0.00000000E+00 -4.41344841E-16  0.00000000E+00  0.00000000E+00  0.00000000E+00
  1.00000000E+00  0.00000000E+00  0.00000000E+00  0.00000000E+00  0.00000000E+00
  0.00000000E+00 -8.96499874E-10  0.00000000E+00  0.00000000E+00 -5.58209666E-05
  0.00000000E+00  0.00000000E+00 -8.02182858E-03  0.00000000E+00  0.00000000E+00
  0.00000000E+00 -8.43437133E-08  0.00000000E+00  0.00000000E+00  0.00000000E+00
  0.00000000E+00 -3.14042536E-03  0.00000000E+00  0.00000000E+00  0.00000000E+00
  0.00000000E+00  0.00000000E+00  0.00000000E+00  0.00000000E+00 -7.95446005E-06
  0.00000000E+00  0.00000000E+00 -3.48719648E-03  0.00000000E+00  0.00000000E+00
 -2.60403564E-02  0.00000000E+00  0.00000000E+00  0.00000000E+00 -1.76251333E-04
  0.00000000E+00  0.00000000E+00  0.00000000E+00  0.00000000E+00 -3.91848667E-02
  0.00000000E+00  0.00000000E+00  0.00000000E+00  0.00000000E+00  0.00000000E+00
  0.00000000E+00  0.00000000E+00  0.00000000E+00  0.00000000E+00  0.00000000E+00
  0.00000000E+00  0.00000000E+00  0.00000000E+00 -4.41344841E-16  0.00000000E+00
  0.00000000E+00  0.00000000E+00  1.00000000E+00 -1.67571826E-26 -2.23157555E-21
 -6.47256969E-19 -2.43957813E-18  0.00000000E+00  0.00000000E+00 -7.98930250E-27
  0.00000000E+00  0.00000000E+00 -5.77351491E-21  0.00000000E+00  0.00000000E+00
 -1.52734786E-18 -6.79725150E-25  0.00000000E+00  0.00000000E+00  2.16829409E-09
  0.00000000E+00  3.59819101E-20  0.00000000E+00  0.00000000E+00  2.22488836E-04
  0.00000000E+00  9.59943778E-23  1.00492465E-19  1.50984748E-18 -6.70021433E-18
  0.00000000E+00  0.00000000E+00 -3.49201726E-23  0.00000000E+00  0.00000000E+00
 -8.71437532E-20  0.00000000E+00  0.00000000E+00 -1.25204111E-17 -1.17996554E-21
  0.00000000E+00  0.00000000E+00  7.82795911E-06  0.00000000E+00 -2.55486284E-18
  0.00000000E+00  0.00000000E+00  4.95476371E-03  0.00000000E+00 -2.14806471E-17
  3.34106111E-17 -2.71169641E-17 -7.94154292E-18  0.00000000E+00  0.00000000E+00
  0.00000000E+00  0.00000000E+00  0.00000000E+00  0.00000000E+00  0.00000000E+00
  0.00000000E+00 -1.23904637E-33  1.73531962E-17  0.00000000E+00  0.00000000E+00
  1.00000000E+00  0.00000000E+00  0.00000000E+00  0.00000000E+00  0.00000000E+00
  0.00000000E+00  0.00000000E+00  0.00000000E+00  0.00000000E+00  0.00000000E+00
  0.00000000E+00  0.00000000E+00  0.00000000E+00  0.00000000E+00  0.00000000E+00
  0.00000000E+00  0.00000000E+00  0.00000000E+00  2.16829409E-09  0.00000000E+00
  0.00000000E+00  0.00000000E+00  0.00000000E+00  2.22488836E-04  0.00000000E+00
  0.00000000E+00  0.00000000E+00  0.00000000E+00  0.00000000E+00  0.00000000E+00
  0.00000000E+00  0.00000000E+00  0.00000000E+00  0.00000000E+00  0.00000000E+00
  0.00000000E+00  0.00000000E+00  0.00000000E+00  0.00000000E+00  0.00000000E+00
  0.00000000E+00  7.82795911E-06  0.00000000E+00  0.00000000E+00  0.00000000E+00
  0.00000000E+00  4.95476371E-03  0.00000000E+00  0.00000000E+00  0.00000000E+00
  0.00000000E+00  0.00000000E+00  0.00000000E+00  0.00000000E+00  0.00000000E+00
  0.00000000E+00  0.00000000E+00  0.00000000E+00  0.00000000E+00  0.00000000E+00
  0.00000000E+00  0.00000000E+00  0.00000000E+00  0.00000000E+00  1.00000000E+00
  3.94613366E-03  3.41706682E-02  1.04441713E-01  3.44920526E-02  0.00000000E+00
  0.00000000E+00  6.40997099E-03  0.00000000E+00  0.00000000E+00  6.37646477E-02
  0.00000000E+00  0.00000000E+00  1.83885267E-01  1.26820629E-02  0.00000000E+00
  0.00000000E+00 -2.32437531E-19  0.00000000E+00  1.65793493E-01  0.00000000E+00
  0.00000000E+00 -3.70010064E-19  0.00000000E+00  5.58751268E-02  1.77722057E-01
  1.89478276E-01  2.89985359E-02  0.00000000E+00  0.00000000E+00  6.77337014E-02
  0.00000000E+00  0.00000000E+00  2.54898180E-01  0.00000000E+00  0.00000000E+00
  1.51844718E-01  7.71749058E-02  0.00000000E+00  0.00000000E+00 -2.73029048E-18
  0.00000000E+00  2.39586377E-01  0.00000000E+00  0.00000000E+00 -3.31377896E-18
  0.00000000E+00  0.00000000E+00  0.00000000E+00  0.00000000E+00  0.00000000E+00
  0.00000000E+00  0.00000000E+00  0.00000000E+00  0.00000000E+00  0.00000000E+00
  0.00000000E+00  0.00000000E+00  0.00000000E+00  0.00000000E+00  4.26073291E-01
  0.00000000E+00  0.00000000E+00 -4.68941419E-18  0.00000000E+00  1.00000000E+00
  0.00000000E+00  0.00000000E+00  0.00000000E+00  0.00000000E+00 -8.00900242E-04
  0.00000000E+00  0.00000000E+00 -1.17570888E-02  0.00000000E+00  0.00000000E+00
 -9.23223346E-02  0.00000000E+00  0.00000000E+00  0.00000000E+00 -3.14042536E-03
  0.00000000E+00  0.00000000E+00  0.00000000E+00  0.00000000E+00 -7.86555645E-02
  0.00000000E+00  0.00000000E+00  0.00000000E+00  0.00000000E+00  0.00000000E+00
  0.00000000E+00  0.00000000E+00 -1.59637502E-02  0.00000000E+00  0.00000000E+00
 -9.36303633E-02  0.00000000E+00  0.00000000E+00 -2.16988976E-01  0.00000000E+00
  0.00000000E+00  0.00000000E+00 -3.91848667E-02  0.00000000E+00  0.00000000E+00
  0.00000000E+00  0.00000000E+00 -2.88064245E-01  0.00000000E+00  0.00000000E+00
  0.00000000E+00  0.00000000E+00  0.00000000E+00  0.00000000E+00  0.00000000E+00
  0.00000000E+00  0.00000000E+00  0.00000000E+00  0.00000000E+00  0.00000000E+00
  0.00000000E+00  0.00000000E+00  0.00000000E+00  0.00000000E+00  0.00000000E+00
  4.26073291E-01  0.00000000E+00  0.00000000E+00  0.00000000E+00  0.00000000E+00
  1.00000000E+00  0.00000000E+00  0.00000000E+00  0.00000000E+00  0.00000000E+00
  0.00000000E+00 -8.00900242E-04  0.00000000E+00  0.00000000E+00 -1.17570888E-02
  0.00000000E+00  0.00000000E+00 -9.23223346E-02  0.00000000E+00  0.00000000E+00
  0.00000000E+00 -3.14042536E-03  0.00000000E+00  0.00000000E+00  0.00000000E+00
  0.00000000E+00 -7.86555645E-02  0.00000000E+00  0.00000000E+00  0.00000000E+00
  0.00000000E+00  0.00000000E+00  0.00000000E+00  0.00000000E+00 -1.59637502E-02
  0.00000000E+00  0.00000000E+00 -9.36303633E-02  0.00000000E+00  0.00000000E+00
 -2.16988976E-01  0.00000000E+00  0.00000000E+00  0.00000000E+00 -3.91848667E-02
  0.00000000E+00  0.00000000E+00  0.00000000E+00  0.00000000E+00 -2.88064245E-01
  0.00000000E+00  0.00000000E+00  0.00000000E+00  0.00000000E+00  0.00000000E+00
  0.00000000E+00  0.00000000E+00  0.00000000E+00  0.00000000E+00  0.00000000E+00
  0.00000000E+00  0.00000000E+00  0.00000000E+00  0.00000000E+00  0.00000000E+00
  0.00000000E+00  0.00000000E+00  4.26073291E-01  0.00000000E+00  0.00000000E+00
  0.00000000E+00  0.00000000E+00  1.00000000E+00 -1.21506743E-21 -6.78006569E-20
  2.16629587E-18  1.34758700E-17  0.00000000E+00  0.00000000E+00  6.08089859E-21
  0.00000000E+00  0.00000000E+00  6.70776517E-20  0.00000000E+00  0.00000000E+00
  3.57159431E-18  1.07904473E-21  0.00000000E+00  0.00000000E+00  2.22488836E-04
  0.00000000E+00 -1.13080769E-18  0.00000000E+00  0.00000000E+00  9.44978941E-03
  0.00000000E+00 -7.19243096E-22 -3.05547153E-19 -5.36911191E-18 -5.06668089E-18
  0.00000000E+00  0.00000000E+00  2.98840597E-21  0.00000000E+00  0.00000000E+00
 -5.98358143E-19  0.00000000E+00  0.00000000E+00  2.45979402E-17  1.21448575E-20
  0.00000000E+00  0.00000000E+00  4.95476371E-03  0.00000000E+00 -4.13883571E-18
  0.00000000E+00  0.00000000E+00  6.40835605E-02  0.00000000E+00  1.33656906E-18
 -5.94919387E-18 -2.83320046E-17 -1.26821802E-17  0.00000000E+00  0.00000000E+00
  0.00000000E+00  0.00000000E+00  0.00000000E+00  0.00000000E+00  0.00000000E+00
  0.00000000E+00  0.00000000E+00  5.68579452E-18  0.00000000E+00  0.00000000E+00
  4.26073291E-01  0.00000000E+00 -4.95805605E-18  0.00000000E+00  0.00000000E+00
  1.00000000E+00  0.00000000E+00  0.00000000E+00  0.00000000E+00  0.00000000E+00
  0.00000000E+00  0.00000000E+00  0.00000000E+00  0.00000000E+00  0.00000000E+00
  0.00000000E+00  0.00000000E+00  0.00000000E+00  0.00000000E+00  0.00000000E+00
  0.00000000E+00  0.00000000E+00  0.00000000E+00  2.22488836E-04  0.00000000E+00
  0.00000000E+00  0.00000000E+00  0.00000000E+00  9.44978941E-03  0.00000000E+00
  0.00000000E+00  0.00000000E+00  0.00000000E+00  0.00000000E+00  0.00000000E+00
  0.00000000E+00  0.00000000E+00  0.00000000E+00  0.00000000E+00  0.00000000E+00
  0.00000000E+00  0.00000000E+00  0.00000000E+00  0.00000000E+00  0.00000000E+00
  0.00000000E+00  4.95476371E-03  0.00000000E+00  0.00000000E+00  0.00000000E+00
  0.00000000E+00  6.40835605E-02  0.00000000E+00  0.00000000E+00  0.00000000E+00
  0.00000000E+00  0.00000000E+00  0.00000000E+00  0.00000000E+00  0.00000000E+00
  0.00000000E+00  0.00000000E+00  0.00000000E+00  0.00000000E+00  0.00000000E+00
  0.00000000E+00  0.00000000E+00  0.00000000E+00  0.00000000E+00  4.26073291E-01
  0.00000000E+00  0.00000000E+00  0.00000000E+00  0.00000000E+00  1.00000000E+00
Kinetic Energy Matrix                      R   N=        2415
  2.30467957E+00  5.49013001E-01  4.88700000E-01  1.06269592E-01  1.84799950E-01
  1.54050000E-01  1.05945050E-02  2.61297722E-02  4.32003536E-02  3.78900000E-02
  0.00000000E+00  0.00000000E+00  0.00000000E+00  0.00000000E+00  3.51750000E+00
  0.00000000E+00  0.00000000E+00  0.00000000E+00  0.00000000E+00  0.00000000E+00
  3.51750000E+00  0.00000000E+00  0.00000000E+00  0.00000000E+00  0.00000000E+00
  0.00000000E+00  0.00000000E+00  3.51750000E+00  0.00000000E+00  0.00000000E+00
  0.00000000E+00  0.00000000E+00  9.35088057E-01  0.00000000E+00  0.00000000E+00
  9.70000000E-01  0.00000000E+00  0.00000000E+00  0.00000000E+00  0.00000000E+00
  0.00000000E+00  9.35088057E-01  0.00000000E+00  0.00000000E+00  9.70000000E-01
  0.00000000E+00  0.00000000E+00  0.00000000E+00  0.00000000E+00  0.00000000E+00
  0.00000000E+00  9.35088057E-01  0.00000000E+00  0.00000000E+00  9.70000000E-01
  0.00000000E+00  0.00000000E+00  0.00000000E+00  0.00000000E+00  8.49463573E-02
  0.00000000E+00  0.00000000E+00  2.39927751E-01  0.00000000E+00  0.00000000E+00
  2.55000000E-01  0.00000000E+00  0.00000000E+00  0.00000000E+00  0.00000000E+00
  0.00000000E+00  8.49463573E-02  0.00000000E+00  0.00000000E+00  2.39927751E-01
  0.00000000E+00  0.00000000E+00  2.55000000E-01  0.00000000E+00  0.00000000E+00
  0.00000000E+00  0.00000000E+00  0.00000000E+00  0.00000000E+00  8.49463573E-02
  0.00000000E+00  0.00000000E+00  2.39927751E-01  0.00000000E+00  0.00000000E+00
  2.55000000E-01  0.00000000E+00  0.00000000E+00 -4.44089210E-16  0.00000000E+00
  0.00000000E+00  0.00000000E+00  0.00000000E+00  0.00000000E+00  0.00000000E+00
  0.00000000E+00  0.00000000E+00  0.00000000E+00  0.00000000E+00  3.69950000E+00
  0.00000000E+00  0.00000000E+00  0.00000000E+00  0.00000000E+00  0.00000000E+00
  0.00000000E+00  0.00000000E+00  0.00000000E+00  0.00000000E+00  0.00000000E+00
  0.00000000E+00  0.00000000E+00  0.00000000E+00  0.00000000E+00  3.69950000E+00
  0.00000000E+00  0.00000000E+00  0.00000000E+00  0.00000000E+00  0.00000000E+00
  0.00000000E+00  0.00000000E+00  0.00000000E+00  0.00000000E+00  0.00000000E+00
  0.00000000E+00  0.00000000E+00  0.00000000E+00  0.00000000E+00  0.00000000E+00
  3.69950000E+00  3.23694547E-18 -4.77966341E-18  6.77092070E-19 -6.78928523E-19
  0.00000000E+00  0.00000000E+00  0.00000000E+00  0.00000000E+00  0.00000000E+00
  0.00000000E+00  0.00000000E+00  0.00000000E+00  0.00000000E+00 -7.23594526E-17
  0.00000000E+00  0.00000000E+00  3.69950000E+00  0.00000000E+00  0.00000000E+00
  0.00000000E+00  0.00000000E+00  0.00000000E+00  0.00000000E+00  0.00000000E+00
  0.00000000E+00  0.00000000E+00  0.00000000E+00  0.00000000E+00  0.00000000E+00
  0.00000000E+00  0.00000000E+00  0.00000000E+00  0.00000000E+00  0.00000000E+00
  3.69950000E+00  5.55111512E-17  0.00000000E+00  0.00000000E+00  0.00000000E+00
  0.00000000E+00  0.00000000E+00  0.00000000E+00  0.00000000E+00  0.00000000E+00
  0.00000000E+00  0.00000000E+00  0.00000000E+00  0.00000000E+00  5.97140737E-01
  0.00000000E+00  0.00000000E+00 -4.81360961E-18  0.00000000E+00  8.64500000E-01
  0.00000000E+00  0.00000000E+00  0.00000000E+00  0.00000000E+00  0.00000000E+00
  0.00000000E+00  0.00000000E+00  0.00000000E+00  0.00000000E+00  0.00000000E+00
  0.00000000E+00  0.00000000E+00  0.00000000E+00  0.00000000E+00  5.97140737E-01
  0.00000000E+00  0.00000000E+00  0.00000000E+00  0.00000000E+00  8.64500000E-01
  0.00000000E+00  0.00000000E+00  0.00000000E+00  0.00000000E+00  0.00000000E+00
  0.00000000E+00  0.00000000E+00  0.00000000E+00  0.00000000E+00  0.00000000E+00
  0.00000000E+00  0.00000000E+00  0.00000000E+00  0.00000000E+00  0.00000000E+00
  5.97140737E-01  0.00000000E+00  0.00000000E+00  0.00000000E+00  0.00000000E+00
  8.64500000E-01 -4.14016277E-19  1.00155171E-18 -4.33662876E-18  3.70999418E-20
  0.00000000E+00  0.00000000E+00  0.00000000E+00  0.00000000E+00  0.00000000E+00
  0.00000000E+00  0.00000000E+00  0.00000000E+00  0.00000000E+00  9.55397079E-18
  0.00000000E+00  0.00000000E+00  5.97140737E-01  0.00000000E+00 -1.34936179E-17
  0.00000000E+00  0.00000000E+00  8.64500000E-01  0.00000000E+00  0.00000000E+00
  0.00000000E+00  0.00000000E+00  0.00000000E+00  0.00000000E+00  0.00000000E+00
  0.00000000E+00  0.00000000E+00  0.00000000E+00  0.00000000E+00  0.00000000E+00
  0.00000000E+00  0.00000000E+00  0.00000000E+00  0.00000000E+00  0.00000000E+00
  5.97140737E-01  0.00000000E+00  0.00000000E+00  0.00000000E+00  0.00000000E+00
  8.64500000E-01  5.12008240E-02  2.09510406E-01  7.63164020E-02  9.73508834E-03
  0.00000000E+00  0.00000000E+00  5.65012335E-01  0.00000000E+00  0.00000000E+00
  6.35441953E-01  0.00000000E+00  0.00000000E+00  1.12475424E-01  1.20869564E+00
  0.00000000E+00  0.00000000E+00 -1.37034566E-17  0.00000000E+00  4.20747041E-01
  0.00000000E+00  0.00000000E+00  3.94782314E-18  0.00000000E+00  2.30467957E+00
  2.09510406E-01  2.73139109E-01  1.40915029E-01  2.41185557E-02  0.00000000E+00
  0.00000000E+00  2.66226819E-01  0.00000000E+00  0.00000000E+00  4.26251368E-01
  0.00000000E+00  0.00000000E+00  1.69640805E-01  1.93710085E-01  0.00000000E+00
  0.00000000E+00  1.66247394E-18  0.00000000E+00  2.51324209E-01  0.00000000E+00
  0.00000000E+00 -7.31951950E-21  0.00000000E+00  5.49013001E-01  4.88700000E-01
  7.63164020E-02  1.40915029E-01  1.29078124E-01  4.03117677E-02  0.00000000E+00
  0.00000000E+00  2.98850208E-02  0.00000000E+00  0.00000000E+00  8.77584805E-02
  0.00000000E+00  0.00000000E+00  1.01043256E-01  8.55050522E-03  0.00000000E+00
  0.00000000E+00 -2.83648759E-18  0.00000000E+00  3.65473180E-02  0.00000000E+00
  0.00000000E+00 -1.73868684E-18  0.00000000E+00  1.06269592E-01  1.84799950E-01
  1.54050000E-01  9.73508834E-03  2.41185557E-02  4.03117677E-02  3.62944733E-02
  0.00000000E+00  0.00000000E+00  9.32113310E-04  0.00000000E+00  0.00000000E+00
  3.99338561E-03  0.00000000E+00  0.00000000E+00  1.23168509E-02  7.27463529E-05
  0.00000000E+00  0.00000000E+00 -5.64817557E-19  0.00000000E+00  6.67709562E-04
  0.00000000E+00  0.00000000E+00 -5.51554652E-19  0.00000000E+00  1.05945050E-02
  2.61297722E-02  4.32003536E-02  3.78900000E-02  0.00000000E+00  0.00000000E+00
  0.00000000E+00  0.00000000E+00  3.58306196E-01  0.00000000E+00  0.00000000E+00
  3.78604836E-01  0.00000000E+00  0.00000000E+00  6.45647878E-02  0.00000000E+00
  0.00000000E+00  0.00000000E+00  1.30965626E+00  0.00000000E+00  0.00000000E+00
  0.00000000E+00  0.00000000E+00  4.35651016E-01  0.00000000E+00  0.00000000E+00
  0.00000000E+00  0.00000000E+00  0.00000000E+00  0.00000000E+00  0.00000000E+00
  3.51750000E+00  0.00000000E+00  0.00000000E+00  0.00000000E+00  0.00000000E+00
  0.00000000E+00  3.58306196E-01  0.00000000E+00  0.00000000E+00  3.78604836E-01
  0.00000000E+00  0.00000000E+00  6.45647878E-02  0.00000000E+00  0.00000000E+00
  0.00000000E+00  1.30965626E+00  0.00000000E+00  0.00000000E+00  0.00000000E+00
  0.00000000E+00  4.35651016E-01  0.00000000E+00  0.00000000E+00  0.00000000E+00
  0.00000000E+00  0.00000000E+00  0.00000000E+00  0.00000000E+00  3.51750000E+00
 -5.65012335E-01 -2.66226819E-01 -2.98850208E-02 -9.32113310E-04  0.00000000E+00
  0.00000000E+00 -1.63064205E+00  0.00000000E+00  0.00000000E+00 -3.39848022E-01
  0.00000000E+00  0.00000000E+00  2.87065355E-02 -1.16547743E+00  0.00000000E+00
  0.00000000E+00  7.90145393E-19  0.00000000E+00  2.17695070E-01  0.00000000E+00
  0.00000000E+00  9.30205778E-19  0.00000000E+00  0.00000000E+00  0.00000000E+00
  0.00000000E+00  0.00000000E+00  0.00000000E+00  0.00000000E+00  3.51750000E+00
  0.00000000E+00  0.00000000E+00  0.00000000E+00  0.00000000E+00  3.78604836E-01
  0.00000000E+00  0.00000000E+00  5.50120770E-01  0.00000000E+00  0.00000000E+00
  1.90142201E-01  0.00000000E+00  0.00000000E+00  0.00000000E+00  5.42287615E-01
  0.00000000E+00  0.00000000E+00  0.00000000E+00  0.00000000E+00  5.76617915E-01
  0.00000000E+00  0.00000000E+00  0.00000000E+00  0.00000000E+00  0.00000000E+00
  0.00000000E+00  0.00000000E+00  9.35088057E-01  0.00000000E+00  0.00000000E+00
  9.70000000E-01  0.00000000E+00  0.00000000E+00  0.00000000E+00  0.00000000E+00
  0.00000000E+00  3.78604836E-01  0.00000000E+00  0.00000000E+00  5.50120770E-01
  0.00000000E+00  0.00000000E+00  1.90142201E-01  0.00000000E+00  0.00000000E+00
  0.00000000E+00  5.42287615E-01  0.00000000E+00  0.00000000E+00  0.00000000E+00
  0.00000000E+00  5.76617915E-01  0.00000000E+00  0.00000000E+00  0.00000000E+00
  0.00000000E+00  0.00000000E+00  0.00000000E+00  0.00000000E+00  9.35088057E-01
  0.00000000E+00  0.00000000E+00  9.70000000E-01 -6.35441953E-01 -4.26251368E-01
 -8.77584805E-02 -3.99338561E-03  0.00000000E+00  0.00000000E+00 -3.39848022E-01
  0.00000000E+00  0.00000000E+00 -9.11467456E-02  0.00000000E+00  0.00000000E+00
  1.00799894E-01  1.40333187E-01  0.00000000E+00  0.00000000E+00  2.07264902E-17
  0.00000000E+00  3.97049832E-01  0.00000000E+00  0.00000000E+00 -7.73839550E-19
  0.00000000E+00  0.00000000E+00  0.00000000E+00  0.00000000E+00  0.00000000E+00
  0.00000000E+00  0.00000000E+00  9.35088057E-01  0.00000000E+00  0.00000000E+00
  9.70000000E-01  0.00000000E+00  0.00000000E+00  0.00000000E+00  0.00000000E+00
  6.45647878E-02  0.00000000E+00  0.00000000E+00  1.90142201E-01  0.00000000E+00
  0.00000000E+00  2.20291960E-01  0.00000000E+00  0.00000000E+00  0.00000000E+00
  3.18051979E-02  0.00000000E+00  0.00000000E+00  0.00000000E+00  0.00000000E+00
  1.36719177E-01  0.00000000E+00  0.00000000E+00  0.00000000E+00  0.00000000E+00
  0.00000000E+00  0.00000000E+00  0.00000000E+00  8.49463573E-02  0.00000000E+00
  0.00000000E+00  2.39927751E-01  0.00000000E+00  0.00000000E+00  2.55000000E-01
  0.00000000E+00  0.00000000E+00  0.00000000E+00  0.00000000E+00  0.00000000E+00
  6.45647878E-02  0.00000000E+00  0.00000000E+00  1.90142201E-01  0.00000000E+00
  0.00000000E+00  2.20291960E-01  0.00000000E+00  0.00000000E+00  0.00000000E+00
  3.18051979E-02  0.00000000E+00  0.00000000E+00  0.00000000E+00  0.00000000E+00
  1.36719177E-01  0.00000000E+00  0.00000000E+00  0.00000000E+00  0.00000000E+00
  0.00000000E+00  0.00000000E+00  0.00000000E+00  8.49463573E-02  0.00000000E+00
  0.00000000E+00  2.39927751E-01  0.00000000E+00  0.00000000E+00  2.55000000E-01
 -1.12475424E-01 -1.69640805E-01 -1.01043256E-01 -1.23168509E-02  0.00000000E+00
  0.00000000E+00  2.87065355E-02  0.00000000E+00  0.00000000E+00  1.00799894E-01
  0.00000000E+00  0.00000000E+00  1.55427826E-01  2.76655701E-02  0.00000000E+00
  0.00000000E+00 -9.89013520E-19  0.00000000E+00  1.27735608E-01  0.00000000E+00
  0.00000000E+00  5.99815868E-18  0.00000000E+00  0.00000000E+00  0.00000000E+00
  0.00000000E+00  0.00000000E+00  0.00000000E+00  0.00000000E+00  8.49463573E-02
  0.00000000E+00  0.00000000E+00  2.39927751E-01  0.00000000E+00  0.00000000E+00
  2.55000000E-01  1.20869564E+00  1.93710085E-01  8.55050522E-03  7.27463529E-05
  0.00000000E+00  0.00000000E+00  1.16547743E+00  0.00000000E+00  0.00000000E+00
 -1.40333187E-01  0.00000000E+00  0.00000000E+00 -2.76655701E-02 -2.05222884E-01
  0.00000000E+00  0.00000000E+00  4.01928355E-18  0.00000000E+00 -2.59530636E-02
  0.00000000E+00  0.00000000E+00 -1.35168880E-18  0.00000000E+00  0.00000000E+00
  0.00000000E+00 -4.44089210E-16  0.00000000E+00  0.00000000E+00  0.00000000E+00
  0.00000000E+00  0.00000000E+00  0.00000000E+00  0.00000000E+00  0.00000000E+00
  0.00000000E+00  0.00000000E+00  3.69950000E+00  0.00000000E+00  0.00000000E+00
  0.00000000E+00  0.00000000E+00 -1.30965626E+00  0.00000000E+00  0.00000000E+00
 -5.42287615E-01  0.00000000E+00  0.00000000E+00 -3.18051979E-02  0.00000000E+00
  0.00000000E+00  0.00000000E+00 -1.78204539E+00  0.00000000E+00  0.00000000E+00
  0.00000000E+00  0.00000000E+00 -2.78284742E-02  0.00000000E+00  0.00000000E+00
  0.00000000E+00  0.00000000E+00  0.00000000E+00  0.00000000E+00  0.00000000E+00
  0.00000000E+00  0.00000000E+00  0.00000000E+00  0.00000000E+00  0.00000000E+00
  0.00000000E+00  0.00000000E+00  0.00000000E+00  0.00000000E+00  0.00000000E+00
  3.69950000E+00  0.00000000E+00  0.00000000E+00  0.00000000E+00  0.00000000E+00
  0.00000000E+00 -1.30965626E+00  0.00000000E+00  0.00000000E+00 -5.42287615E-01
  0.00000000E+00  0.00000000E+00 -3.18051979E-02  0.00000000E+00  0.00000000E+00
  0.00000000E+00 -1.78204539E+00  0.00000000E+00  0.00000000E+00  0.00000000E+00
  0.00000000E+00 -2.78284742E-02  0.00000000E+00  0.00000000E+00  0.00000000E+00
  0.00000000E+00  0.00000000E+00  0.00000000E+00  0.00000000E+00  0.00000000E+00
  0.00000000E+00  0.00000000E+00  0.00000000E+00  0.00000000E+00  0.00000000E+00
  0.00000000E+00  0.00000000E+00  0.00000000E+00  0.00000000E+00  3.69950000E+00
 -1.37034566E-17  1.66247394E-18 -2.83648759E-18 -5.64817557E-19  0.00000000E+00
  0.00000000E+00 -7.90145393E-19  0.00000000E+00  0.00000000E+00 -2.07264902E-17
  0.00000000E+00  0.00000000E+00  9.89013520E-19  1.89307178E-18  0.00000000E+00
  0.00000000E+00  8.73085440E-01  0.00000000E+00 -1.97533376E-18  0.00000000E+00
  0.00000000E+00  3.50899180E-01  0.00000000E+00  3.23694547E-18 -4.77966341E-18
  6.77092070E-19 -6.78928523E-19  0.00000000E+00  0.00000000E+00  0.00000000E+00
  0.00000000E+00  0.00000000E+00  0.00000000E+00  0.00000000E+00  0.00000000E+00
  0.00000000E+00 -7.23594526E-17  0.00000000E+00  0.00000000E+00  3.69950000E+00
  0.00000000E+00  0.00000000E+00  0.00000000E+00  0.00000000E+00  0.00000000E+00
  0.00000000E+00  0.00000000E+00  0.00000000E+00  0.00000000E+00  0.00000000E+00
  0.00000000E+00  0.00000000E+00  0.00000000E+00  0.00000000E+00  0.00000000E+00
  0.00000000E+00  0.00000000E+00  8.73085440E-01  0.00000000E+00  0.00000000E+00
  0.00000000E+00  0.00000000E+00  3.50899180E-01  0.00000000E+00  0.00000000E+00
  0.00000000E+00  0.00000000E+00  0.00000000E+00  0.00000000E+00  0.00000000E+00
  0.00000000E+00  0.00000000E+00  0.00000000E+00  0.00000000E+00  0.00000000E+00
  0.00000000E+00  0.00000000E+00  0.00000000E+00  0.00000000E+00  0.00000000E+00
  3.69950000E+00  4.20747041E-01  2.51324209E-01  3.65473180E-02  6.67709562E-04
  0.00000000E+00  0.00000000E+00 -2.17695070E-01  0.00000000E+00  0.00000000E+00
 -3.97049832E-01  0.00000000E+00  0.00000000E+00 -1.27735608E-01 -2.59530636E-02
  0.00000000E+00  0.00000000E+00  1.33206666E-17  0.00000000E+00  1.61630216E-01
  0.00000000E+00  0.00000000E+00  5.00753106E-19  0.00000000E+00  5.55111512E-17
  0.00000000E+00  0.00000000E+00  0.00000000E+00  0.00000000E+00  0.00000000E+00
  0.00000000E+00  0.00000000E+00  0.00000000E+00  0.00000000E+00  0.00000000E+00
  0.00000000E+00  0.00000000E+00  5.97140737E-01  0.00000000E+00  0.00000000E+00
 -4.81360961E-18  0.00000000E+00  8.64500000E-01  0.00000000E+00  0.00000000E+00
  0.00000000E+00  0.00000000E+00 -4.35651016E-01  0.00000000E+00  0.00000000E+00
 -5.76617915E-01  0.00000000E+00  0.00000000E+00 -1.36719177E-01  0.00000000E+00
  0.00000000E+00  0.00000000E+00 -2.78284742E-02  0.00000000E+00  0.00000000E+00
  0.00000000E+00  0.00000000E+00  2.13424518E-01  0.00000000E+00  0.00000000E+00
  0.00000000E+00  0.00000000E+00  0.00000000E+00  0.00000000E+00  0.00000000E+00
  0.00000000E+00  0.00000000E+00  0.00000000E+00  0.00000000E+00  0.00000000E+00
  0.00000000E+00  0.00000000E+00  0.00000000E+00  0.00000000E+00  0.00000000E+00
  5.97140737E-01  0.00000000E+00  0.00000000E+00  0.00000000E+00  0.00000000E+00
  8.64500000E-01  0.00000000E+00  0.00000000E+00  0.00000000E+00  0.00000000E+00
  0.00000000E+00 -4.35651016E-01  0.00000000E+00  0.00000000E+00 -5.76617915E-01
  0.00000000E+00  0.00000000E+00 -1.36719177E-01  0.00000000E+00  0.00000000E+00
  0.00000000E+00 -2.78284742E-02  0.00000000E+00  0.00000000E+00  0.00000000E+00
  0.00000000E+00  2.13424518E-01  0.00000000E+00  0.00000000E+00  0.00000000E+00
  0.00000000E+00  0.00000000E+00  0.00000000E+00  0.00000000E+00  0.00000000E+00
  0.00000000E+00  0.00000000E+00  0.00000000E+00  0.00000000E+00  0.00000000E+00
  0.00000000E+00  0.00000000E+00  0.00000000E+00  0.00000000E+00  5.97140737E-01
  0.00000000E+00  0.00000000E+00  0.00000000E+00  0.00000000E+00  8.64500000E-01
  3.94782314E-18 -7.31951950E-21 -1.73868684E-18 -5.51554652E-19  0.00000000E+00
  0.00000000E+00 -9.30205778E-19  0.00000000E+00  0.00000000E+00  7.73839550E-19
  0.00000000E+00  0.00000000E+00 -5.99815868E-18  1.21562000E-18  0.00000000E+00
  0.00000000E+00  3.50899180E-01  0.00000000E+00  1.92513011E-19  0.00000000E+00
  0.00000000E+00  6.23928462E-01  0.00000000E+00 -4.14016277E-19  1.00155171E-18
 -4.33662876E-18  3.70999418E-20  0.00000000E+00  0.00000000E+00  0.00000000E+00
  0.00000000E+00  0.00000000E+00  0.00000000E+00  0.00000000E+00  0.00000000E+00
  0.00000000E+00  9.55397079E-18  0.00000000E+00  0.00000000E+00  5.97140737E-01
  0.00000000E+00 -1.34936179E-17  0.00000000E+00  0.00000000E+00  8.64500000E-01
  0.00000000E+00  0.00000000E+00  0.00000000E+00  0.00000000E+00  0.00000000E+00
  0.00000000E+00  0.00000000E+00  0.00000000E+00  0.00000000E+00  0.00000000E+00
  0.00000000E+00  0.00000000E+00  0.00000000E+00  0.00000000E+00  0.00000000E+00
  0.00000000E+00  0.00000000E+00  3.50899180E-01  0.00000000E+00  0.00000000E+00
  0.00000000E+00  0.00000000E+00  6.23928462E-01  0.00000000E+00  0.00000000E+00
  0.00000000E+00  0.00000000E+00  0.00000000E+00  0.00000000E+00  0.00000000E+00
  0.00000000E+00  0.00000000E+00  0.00000000E+00  0.00000000E+00  0.00000000E+00
  0.00000000E+00  0.00000000E+00  0.00000000E+00  0.00000000E+00  0.00000000E+00
  5.97140737E-01  0.00000000E+00  0.00000000E+00  0.00000000E+00  0.00000000E+00
  8.64500000E-01  0.00000000E+00 -1.82881264E-04 -4.10650713E-03  1.56970817E-03
  0.00000000E+00  0.00000000E+00  0.00000000E+00  0.00000000E+00  0.00000000E+00
 -3.38521640E-04  0.00000000E+00  0.00000000E+00 -7.65036501E-03 -3.56453930E-07
  0.00000000E+00  0.00000000E+00 -5.38043084E-25  0.00000000E+00 -6.84664541E-03
  0.00000000E+00  0.00000000E+00 -1.05634943E-20  0.00000000E+00 -2.41341646E-05
 -4.96575237E-03 -5.23265216E-03  3.86598537E-03  0.00000000E+00  0.00000000E+00
 -4.58035209E-05  0.00000000E+00  0.00000000E+00 -1.13644578E-02  0.00000000E+00
  0.00000000E+00  9.67285716E-03 -5.60694754E-04  0.00000000E+00  0.00000000E+00
 -2.71577319E-22  0.00000000E+00 -2.47519199E-02  0.00000000E+00  0.00000000E+00
  1.76708321E-19  0.00000000E+00  2.30467957E+00 -1.82881264E-04 -3.23470578E-03
 -9.35720374E-03  4.42284034E-03  0.00000000E+00  0.00000000E+00 -3.45294607E-04
  0.00000000E+00  0.00000000E+00 -6.43447480E-03  0.00000000E+00  0.00000000E+00
 -8.41233542E-03 -9.71907268E-04  0.00000000E+00  0.00000000E+00 -1.22953428E-20
  0.00000000E+00 -1.73118575E-02  0.00000000E+00  0.00000000E+00 -1.46186039E-19
  0.00000000E+00 -4.96575237E-03 -1.84584392E-02 -5.14377088E-03  1.01178634E-02
  0.00000000E+00  0.00000000E+00 -7.23615157E-03  0.00000000E+00  0.00000000E+00
 -2.64525274E-02  0.00000000E+00  0.00000000E+00  3.84445083E-02 -9.40246683E-03
  0.00000000E+00  0.00000000E+00  2.61236912E-19  0.00000000E+00  1.86986569E-02
  0.00000000E+00  0.00000000E+00 -5.36256873E-19  0.00000000E+00  5.49013001E-01
  4.88700000E-01 -4.10650713E-03 -9.35720374E-03 -6.47970969E-03  9.84407095E-03
  0.00000000E+00  0.00000000E+00 -2.03611790E-03  0.00000000E+00  0.00000000E+00
 -5.03393937E-03  0.00000000E+00  0.00000000E+00  1.65948729E-02 -5.63901173E-05
  0.00000000E+00  0.00000000E+00  4.16654464E-19  0.00000000E+00  1.15439204E-02
  0.00000000E+00  0.00000000E+00 -8.08741042E-19  0.00000000E+00 -5.23265216E-03
 -5.14377088E-03  1.17169370E-02  1.92430718E-02  0.00000000E+00  0.00000000E+00
  2.29479051E-03  0.00000000E+00  0.00000000E+00  1.66894768E-02  0.00000000E+00
  0.00000000E+00  6.74642154E-02  6.03273308E-03  0.00000000E+00  0.00000000E+00
 -2.13254212E-19  0.00000000E+00  5.18496670E-02  0.00000000E+00  0.00000000E+00
  1.21486677E-19  0.00000000E+00  1.06269592E-01  1.84799950E-01  1.54050000E-01
  1.56970817E-03  4.42284034E-03  9.84407095E-03  1.60460855E-02  0.00000000E+00
  0.00000000E+00  1.05579642E-03  0.00000000E+00  0.00000000E+00  4.82460026E-03
  0.00000000E+00  0.00000000E+00  1.81659196E-02  4.15996723E-04  0.00000000E+00
  0.00000000E+00  4.83742206E-20  0.00000000E+00  4.16554337E-03  0.00000000E+00
  0.00000000E+00  3.17492172E-20  0.00000000E+00  3.86598537E-03  1.01178634E-02
  1.92430718E-02  2.32493778E-02  0.00000000E+00  0.00000000E+00  1.48368247E-03
  0.00000000E+00  0.00000000E+00  6.57466507E-03  0.00000000E+00  0.00000000E+00
  2.25378476E-02  4.12876596E-04  0.00000000E+00  0.00000000E+00  4.12580770E-19
  0.00000000E+00  3.97418413E-03  0.00000000E+00  0.00000000E+00  9.65167482E-20
  0.00000000E+00  1.05945050E-02  2.61297722E-02  4.32003536E-02  3.78900000E-02
  0.00000000E+00  0.00000000E+00  0.00000000E+00  0.00000000E+00  0.00000000E+00
  0.00000000E+00  0.00000000E+00 -3.47104830E-05  0.00000000E+00  0.00000000E+00
 -1.02215298E-03  0.00000000E+00  0.00000000E+00  0.00000000E+00  0.00000000E+00
  0.00000000E+00  0.00000000E+00  0.00000000E+00  0.00000000E+00 -1.49136885E-03
  0.00000000E+00  0.00000000E+00  0.00000000E+00  0.00000000E+00  0.00000000E+00
  0.00000000E+00  0.00000000E+00 -2.95162126E-06  0.00000000E+00  0.00000000E+00
 -1.83840447E-03  0.00000000E+00  0.00000000E+00  1.57322837E-03  0.00000000E+00
  0.00000000E+00  0.00000000E+00 -9.53298152E-05  0.00000000E+00  0.00000000E+00
  0.00000000E+00  0.00000000E+00 -7.87917186E-03  0.00000000E+00  0.00000000E+00
  0.00000000E+00  0.00000000E+00  0.00000000E+00  0.00000000E+00  0.00000000E+00
  3.51750000E+00  0.00000000E+00  0.00000000E+00  0.00000000E+00  0.00000000E+00
  0.00000000E+00  0.00000000E+00  0.00000000E+00  0.00000000E+00 -3.47104830E-05
  0.00000000E+00  0.00000000E+00 -1.02215298E-03  0.00000000E+00  0.00000000E+00
  0.00000000E+00  0.00000000E+00  0.00000000E+00  0.00000000E+00  0.00000000E+00
  0.00000000E+00 -1.49136885E-03  0.00000000E+00  0.00000000E+00  0.00000000E+00
  0.00000000E+00  0.00000000E+00  0.00000000E+00  0.00000000E+00 -2.95162126E-06
  0.00000000E+00  0.00000000E+00 -1.83840447E-03  0.00000000E+00  0.00000000E+00
  1.57322837E-03  0.00000000E+00  0.00000000E+00  0.00000000E+00 -9.53298152E-05
  0.00000000E+00  0.00000000E+00  0.00000000E+00  0.00000000E+00 -7.87917186E-03
  0.00000000E+00  0.00000000E+00  0.00000000E+00  0.00000000E+00  0.00000000E+00
  0.00000000E+00  0.00000000E+00  3.51750000E+00  0.00000000E+00  3.45294607E-04
  2.03611790E-03 -1.05579642E-03  0.00000000E+00  0.00000000E+00  0.00000000E+00
  0.00000000E+00  0.00000000E+00  6.73499797E-04  0.00000000E+00  0.00000000E+00
 -4.16501066E-04  0.00000000E+00  0.00000000E+00  0.00000000E+00  0.00000000E+00
  0.00000000E+00  8.85382706E-03  0.00000000E+00  0.00000000E+00  2.34738352E-21
  0.00000000E+00  4.58035209E-05  7.23615157E-03 -2.29479051E-03 -1.48368247E-03
  0.00000000E+00  0.00000000E+00  8.24153167E-05  0.00000000E+00  0.00000000E+00
  1.72080610E-02  0.00000000E+00  0.00000000E+00 -2.24149182E-02  1.21915244E-03
  0.00000000E+00  0.00000000E+00 -2.85766938E-21  0.00000000E+00 -2.77877034E-03
  0.00000000E+00  0.00000000E+00 -7.51462270E-20  0.00000000E+00  0.00000000E+00
  0.00000000E+00  0.00000000E+00  0.00000000E+00  0.00000000E+00  0.00000000E+00
  3.51750000E+00  0.00000000E+00  0.00000000E+00  0.00000000E+00  0.00000000E+00
 -3.47104830E-05  0.00000000E+00  0.00000000E+00 -1.23547575E-03  0.00000000E+00
  0.00000000E+00 -2.49719661E-03  0.00000000E+00  0.00000000E+00  0.00000000E+00
 -2.28559065E-04  0.00000000E+00  0.00000000E+00  0.00000000E+00  0.00000000E+00
 -7.79639676E-03  0.00000000E+00  0.00000000E+00  0.00000000E+00  0.00000000E+00
  0.00000000E+00  0.00000000E+00  0.00000000E+00 -1.83840447E-03  0.00000000E+00
  0.00000000E+00 -9.40869308E-03  0.00000000E+00  0.00000000E+00  1.11893007E-02
  0.00000000E+00  0.00000000E+00  0.00000000E+00 -5.57063330E-03  0.00000000E+00
  0.00000000E+00  0.00000000E+00  0.00000000E+00  4.02288116E-03  0.00000000E+00
  0.00000000E+00  0.00000000E+00  0.00000000E+00  0.00000000E+00  0.00000000E+00
  0.00000000E+00  9.35088057E-01  0.00000000E+00  0.00000000E+00  9.70000000E-01
  0.00000000E+00  0.00000000E+00  0.00000000E+00  0.00000000E+00  0.00000000E+00
 -3.47104830E-05  0.00000000E+00  0.00000000E+00 -1.23547575E-03  0.00000000E+00
  0.00000000E+00 -2.49719661E-03  0.00000000E+00  0.00000000E+00  0.00000000E+00
 -2.28559065E-04  0.00000000E+00  0.00000000E+00  0.00000000E+00  0.00000000E+00
 -7.79639676E-03  0.00000000E+00  0.00000000E+00  0.00000000E+00  0.00000000E+00
  0.00000000E+00  0.00000000E+00  0.00000000E+00 -1.83840447E-03  0.00000000E+00
  0.00000000E+00 -9.40869308E-03  0.00000000E+00  0.00000000E+00  1.11893007E-02
  0.00000000E+00  0.00000000E+00  0.00000000E+00 -5.57063330E-03  0.00000000E+00
  0.00000000E+00  0.00000000E+00  0.00000000E+00  4.02288116E-03  0.00000000E+00
  0.00000000E+00  0.00000000E+00  0.00000000E+00  0.00000000E+00  0.00000000E+00
  0.00000000E+00  9.35088057E-01  0.00000000E+00  0.00000000E+00  9.70000000E-01
  3.38521640E-04  6.43447480E-03  5.03393937E-03 -4.82460026E-03  0.00000000E+00
  0.00000000E+00  6.73499797E-04  0.00000000E+00  0.00000000E+00  1.31073453E-02
  0.00000000E+00  0.00000000E+00 -1.50193399E-02  2.17152559E-03  0.00000000E+00
  0.00000000E+00  6.51232662E-22  0.00000000E+00  1.89388941E-02  0.00000000E+00
  0.00000000E+00  2.95242546E-19  0.00000000E+00  1.13644578E-02  2.64525274E-02
 -1.66894768E-02 -6.57466507E-03  0.00000000E+00  0.00000000E+00  1.72080610E-02
  0.00000000E+00  0.00000000E+00  2.70853242E-02  0.00000000E+00  0.00000000E+00
 -8.62116432E-02  1.97510323E-02  0.00000000E+00  0.00000000E+00 -2.91424092E-19
  0.00000000E+00 -1.20525809E-01  0.00000000E+00  0.00000000E+00 -3.92648516E-19
  0.00000000E+00  0.00000000E+00  0.00000000E+00  0.00000000E+00  0.00000000E+00
  0.00000000E+00  0.00000000E+00  9.35088057E-01  0.00000000E+00  0.00000000E+00
  9.70000000E-01  0.00000000E+00  0.00000000E+00  0.00000000E+00  0.00000000E+00
 -1.02215298E-03  0.00000000E+00  0.00000000E+00 -2.49719661E-03  0.00000000E+00
  0.00000000E+00  8.55325961E-03  0.00000000E+00  0.00000000E+00  0.00000000E+00
 -1.69490050E-05  0.00000000E+00  0.00000000E+00  0.00000000E+00  0.00000000E+00
  1.03312039E-02  0.00000000E+00  0.00000000E+00  0.00000000E+00  0.00000000E+00
  0.00000000E+00  0.00000000E+00  0.00000000E+00  1.57322837E-03  0.00000000E+00
  0.00000000E+00  1.11893007E-02  0.00000000E+00  0.00000000E+00  4.47808426E-02
  0.00000000E+00  0.00000000E+00  0.00000000E+00  6.93019376E-03  0.00000000E+00
  0.00000000E+00  0.00000000E+00  0.00000000E+00  5.93352712E-02  0.00000000E+00
  0.00000000E+00  0.00000000E+00  0.00000000E+00  0.00000000E+00  0.00000000E+00
  0.00000000E+00  8.49463573E-02  0.00000000E+00  0.00000000E+00  2.39927751E-01
  0.00000000E+00  0.00000000E+00  2.55000000E-01  0.00000000E+00  0.00000000E+00
  0.00000000E+00  0.00000000E+00  0.00000000E+00 -1.02215298E-03  0.00000000E+00
  0.00000000E+00 -2.49719661E-03  0.00000000E+00  0.00000000E+00  8.55325961E-03
  0.00000000E+00  0.00000000E+00  0.00000000E+00 -1.69490050E-05  0.00000000E+00
  0.00000000E+00  0.00000000E+00  0.00000000E+00  1.03312039E-02  0.00000000E+00
  0.00000000E+00  0.00000000E+00  0.00000000E+00  0.00000000E+00  0.00000000E+00
  0.00000000E+00  1.57322837E-03  0.00000000E+00  0.00000000E+00  1.11893007E-02
  0.00000000E+00  0.00000000E+00  4.47808426E-02  0.00000000E+00  0.00000000E+00
  0.00000000E+00  6.93019376E-03  0.00000000E+00  0.00000000E+00  0.00000000E+00
  0.00000000E+00  5.93352712E-02  0.00000000E+00  0.00000000E+00  0.00000000E+00
  0.00000000E+00  0.00000000E+00  0.00000000E+00  0.00000000E+00  8.49463573E-02
  0.00000000E+00  0.00000000E+00  2.39927751E-01  0.00000000E+00  0.00000000E+00
  2.55000000E-01  7.65036501E-03  8.41233542E-03 -1.65948729E-02 -1.81659196E-02
  0.00000000E+00  0.00000000E+00 -4.16501066E-04  0.00000000E+00  0.00000000E+00
 -1.50193399E-02  0.00000000E+00  0.00000000E+00 -8.16611530E-02 -6.00202087E-03
  0.00000000E+00  0.00000000E+00  1.62366849E-19  0.00000000E+00 -6.25178458E-02
  0.00000000E+00  0.00000000E+00  1.74751259E-19  0.00000000E+00 -9.67285716E-03
 -3.84445083E-02 -6.74642154E-02 -2.25378476E-02  0.00000000E+00  0.00000000E+00
 -2.24149182E-02  0.00000000E+00  0.00000000E+00 -8.62116432E-02  0.00000000E+00
  0.00000000E+00 -1.31263315E-01 -2.01361541E-02  0.00000000E+00  0.00000000E+00
 -3.13250528E-19  0.00000000E+00 -9.96197699E-02  0.00000000E+00  0.00000000E+00
  2.01750575E-19  0.00000000E+00  0.00000000E+00  0.00000000E+00  0.00000000E+00
  0.00000000E+00  0.00000000E+00  0.00000000E+00  8.49463573E-02  0.00000000E+00
  0.00000000E+00  2.39927751E-01  0.00000000E+00  0.00000000E+00  2.55000000E-01
 -3.56453930E-07 -9.71907268E-04 -5.63901173E-05  4.15996723E-04  0.00000000E+00
  0.00000000E+00  0.00000000E+00  0.00000000E+00  0.00000000E+00 -2.17152559E-03
  0.00000000E+00  0.00000000E+00  6.00202087E-03 -1.57266471E-05  0.00000000E+00
  0.00000000E+00 -7.08081085E-23  0.00000000E+00 -8.83115984E-03  0.00000000E+00
  0.00000000E+00  1.74541860E-20  0.00000000E+00 -5.60694754E-04 -9.40246683E-03
  6.03273308E-03  4.12876596E-04  0.00000000E+00  0.00000000E+00 -1.21915244E-03
  0.00000000E+00  0.00000000E+00 -1.97510323E-02  0.00000000E+00  0.00000000E+00
  2.01361541E-02 -7.72959154E-03  0.00000000E+00  0.00000000E+00  1.84135996E-20
  0.00000000E+00  5.19146993E-02  0.00000000E+00  0.00000000E+00  3.05527422E-19
  0.00000000E+00  0.00000000E+00  0.00000000E+00 -4.44089210E-16  0.00000000E+00
  0.00000000E+00  0.00000000E+00  0.00000000E+00  0.00000000E+00  0.00000000E+00
  0.00000000E+00  0.00000000E+00  0.00000000E+00  0.00000000E+00  3.69950000E+00
  0.00000000E+00  0.00000000E+00  0.00000000E+00  0.00000000E+00  0.00000000E+00
  0.00000000E+00  0.00000000E+00  2.28559065E-04  0.00000000E+00  0.00000000E+00
  1.69490050E-05  0.00000000E+00  0.00000000E+00  0.00000000E+00  1.37503561E-06
  0.00000000E+00  0.00000000E+00  0.00000000E+00  0.00000000E+00  3.75574532E-03
  0.00000000E+00  0.00000000E+00  0.00000000E+00  0.00000000E+00  0.00000000E+00
  0.00000000E+00  0.00000000E+00  9.53298152E-05  0.00000000E+00  0.00000000E+00
  5.57063330E-03  0.00000000E+00  0.00000000E+00 -6.93019376E-03  0.00000000E+00
  0.00000000E+00  0.00000000E+00  1.34383862E-03  0.00000000E+00  0.00000000E+00
  0.00000000E+00  0.00000000E+00 -2.70168921E-03  0.00000000E+00  0.00000000E+00
  0.00000000E+00  0.00000000E+00  0.00000000E+00  0.00000000E+00  0.00000000E+00
  0.00000000E+00  0.00000000E+00  0.00000000E+00  0.00000000E+00  0.00000000E+00
  0.00000000E+00  0.00000000E+00  0.00000000E+00  0.00000000E+00  0.00000000E+00
  3.69950000E+00  0.00000000E+00  0.00000000E+00  0.00000000E+00  0.00000000E+00
  0.00000000E+00  0.00000000E+00  0.00000000E+00  0.00000000E+00  2.28559065E-04
  0.00000000E+00  0.00000000E+00  1.69490050E-05  0.00000000E+00  0.00000000E+00
  0.00000000E+00  1.37503561E-06  0.00000000E+00  0.00000000E+00  0.00000000E+00
  0.00000000E+00  3.75574532E-03  0.00000000E+00  0.00000000E+00  0.00000000E+00
  0.00000000E+00  0.00000000E+00  0.00000000E+00  0.00000000E+00  9.53298152E-05
  0.00000000E+00  0.00000000E+00  5.57063330E-03  0.00000000E+00  0.00000000E+00
 -6.93019376E-03  0.00000000E+00  0.00000000E+00  0.00000000E+00  1.34383862E-03
  0.00000000E+00  0.00000000E+00  0.00000000E+00  0.00000000E+00 -2.70168921E-03
  0.00000000E+00  0.00000000E+00  0.00000000E+00  0.00000000E+00  0.00000000E+00
  0.00000000E+00  0.00000000E+00  0.00000000E+00  0.00000000E+00  0.00000000E+00
  0.00000000E+00  0.00000000E+00  0.00000000E+00  0.00000000E+00  0.00000000E+00
  0.00000000E+00  0.00000000E+00  3.69950000E+00 -5.38043084E-25 -1.22953428E-20
  4.16654464E-19  4.83742206E-20  0.00000000E+00  0.00000000E+00  0.00000000E+00
  0.00000000E+00  0.00000000E+00 -6.51232662E-22  0.00000000E+00  0.00000000E+00
 -1.62366849E-19  2.07692442E-23  0.00000000E+00  0.00000000E+00 -3.76999919E-08
  0.00000000E+00 -9.40952263E-20  0.00000000E+00  0.00000000E+00 -3.61484765E-04
  0.00000000E+00 -2.71577319E-22  2.61236912E-19 -2.13254212E-19  4.12580770E-19
  0.00000000E+00  0.00000000E+00  2.85766938E-21  0.00000000E+00  0.00000000E+00
  2.91424092E-19  0.00000000E+00  0.00000000E+00  3.13250528E-19 -2.07411960E-20
  0.00000000E+00  0.00000000E+00 -6.83263711E-05  0.00000000E+00  1.66086330E-18
  0.00000000E+00  0.00000000E+00 -1.89328013E-03  0.00000000E+00  3.23694547E-18
 -4.77966341E-18  6.77092070E-19 -6.78928523E-19  0.00000000E+00  0.00000000E+00
  0.00000000E+00  0.00000000E+00  0.00000000E+00  0.00000000E+00  0.00000000E+00
  0.00000000E+00  0.00000000E+00 -1.28627800E-17  0.00000000E+00  0.00000000E+00
  3.69950000E+00  0.00000000E+00  0.00000000E+00  0.00000000E+00  0.00000000E+00
  0.00000000E+00  0.00000000E+00  0.00000000E+00  0.00000000E+00  0.00000000E+00
  0.00000000E+00  0.00000000E+00  0.00000000E+00  0.00000000E+00  0.00000000E+00
  0.00000000E+00  0.00000000E+00  0.00000000E+00 -3.76999919E-08  0.00000000E+00
  0.00000000E+00  0.00000000E+00  0.00000000E+00 -3.61484765E-04  0.00000000E+00
  0.00000000E+00  0.00000000E+00  0.00000000E+00  0.00000000E+00  0.00000000E+00
  0.00000000E+00  0.00000000E+00  0.00000000E+00  0.00000000E+00  0.00000000E+00
  0.00000000E+00  0.00000000E+00  0.00000000E+00  0.00000000E+00  0.00000000E+00
  0.00000000E+00 -6.83263711E-05  0.00000000E+00  0.00000000E+00  0.00000000E+00
  0.00000000E+00 -1.89328013E-03  0.00000000E+00  0.00000000E+00  0.00000000E+00
  0.00000000E+00  0.00000000E+00  0.00000000E+00  0.00000000E+00  0.00000000E+00
  0.00000000E+00  0.00000000E+00  0.00000000E+00  0.00000000E+00  0.00000000E+00
  0.00000000E+00  0.00000000E+00  0.00000000E+00  0.00000000E+00  3.69950000E+00
 -6.84664541E-03 -1.73118575E-02  1.15439204E-02  4.16554337E-03  0.00000000E+00
  0.00000000E+00 -8.85382706E-03  0.00000000E+00  0.00000000E+00 -1.89388941E-02
  0.00000000E+00  0.00000000E+00  6.25178458E-02 -8.83115984E-03  0.00000000E+00
  0.00000000E+00  5.92376308E-21  0.00000000E+00  5.86744785E-02  0.00000000E+00
  0.00000000E+00 -1.49769622E-18  0.00000000E+00 -2.47519199E-02  1.86986569E-02
  5.18496670E-02  3.97418413E-03  0.00000000E+00  0.00000000E+00  2.77877034E-03
  0.00000000E+00  0.00000000E+00  1.20525809E-01  0.00000000E+00  0.00000000E+00
  9.96197699E-02  5.19146993E-02  0.00000000E+00  0.00000000E+00 -1.78815683E-18
  0.00000000E+00  2.47199733E-01  0.00000000E+00  0.00000000E+00 -5.05514728E-19
  0.00000000E+00  5.55111512E-17  0.00000000E+00  0.00000000E+00  0.00000000E+00
  0.00000000E+00  0.00000000E+00  0.00000000E+00  0.00000000E+00  0.00000000E+00
  0.00000000E+00  0.00000000E+00  0.00000000E+00  0.00000000E+00  5.97140737E-01
  0.00000000E+00  0.00000000E+00 -4.81360961E-18  0.00000000E+00  8.64500000E-01
  0.00000000E+00  0.00000000E+00  0.00000000E+00  0.00000000E+00  1.49136885E-03
  0.00000000E+00  0.00000000E+00  7.79639676E-03  0.00000000E+00  0.00000000E+00
 -1.03312039E-02  0.00000000E+00  0.00000000E+00  0.00000000E+00  3.75574532E-03
  0.00000000E+00  0.00000000E+00  0.00000000E+00  0.00000000E+00  8.08617899E-04
  0.00000000E+00  0.00000000E+00  0.00000000E+00  0.00000000E+00  0.00000000E+00
  0.00000000E+00  0.00000000E+00  7.87917186E-03  0.00000000E+00  0.00000000E+00
 -4.02288116E-03  0.00000000E+00  0.00000000E+00 -5.93352712E-02  0.00000000E+00
  0.00000000E+00  0.00000000E+00 -2.70168921E-03  0.00000000E+00  0.00000000E+00
  0.00000000E+00  0.00000000E+00 -1.40517492E-01  0.00000000E+00  0.00000000E+00
  0.00000000E+00  0.00000000E+00  0.00000000E+00  0.00000000E+00  0.00000000E+00
  0.00000000E+00  0.00000000E+00  0.00000000E+00  0.00000000E+00  0.00000000E+00
  0.00000000E+00  0.00000000E+00  0.00000000E+00  0.00000000E+00  0.00000000E+00
  5.97140737E-01  0.00000000E+00  0.00000000E+00  0.00000000E+00  0.00000000E+00
  8.64500000E-01  0.00000000E+00  0.00000000E+00  0.00000000E+00  0.00000000E+00
  0.00000000E+00  1.49136885E-03  0.00000000E+00  0.00000000E+00  7.79639676E-03
  0.00000000E+00  0.00000000E+00 -1.03312039E-02  0.00000000E+00  0.00000000E+00
  0.00000000E+00  3.75574532E-03  0.00000000E+00  0.00000000E+00  0.00000000E+00
  0.00000000E+00  8.08617899E-04  0.00000000E+00  0.00000000E+00  0.00000000E+00
  0.00000000E+00  0.00000000E+00  0.00000000E+00  0.00000000E+00  7.87917186E-03
  0.00000000E+00  0.00000000E+00 -4.02288116E-03  0.00000000E+00  0.00000000E+00
 -5.93352712E-02  0.00000000E+00  0.00000000E+00  0.00000000E+00 -2.70168921E-03
  0.00000000E+00  0.00000000E+00  0.00000000E+00  0.00000000E+00 -1.40517492E-01
  0.00000000E+00  0.00000000E+00  0.00000000E+00  0.00000000E+00  0.00000000E+00
  0.00000000E+00  0.00000000E+00  0.00000000E+00  0.00000000E+00  0.00000000E+00
  0.00000000E+00  0.00000000E+00  0.00000000E+00  0.00000000E+00  0.00000000E+00
  0.00000000E+00  0.00000000E+00  5.97140737E-01  0.00000000E+00  0.00000000E+00
  0.00000000E+00  0.00000000E+00  8.64500000E-01 -1.05634943E-20 -1.46186039E-19
 -8.08741042E-19  3.17492172E-20  0.00000000E+00  0.00000000E+00 -2.34738352E-21
  0.00000000E+00  0.00000000E+00 -2.95242546E-19  0.00000000E+00  0.00000000E+00
 -1.74751259E-19 -4.72563662E-20  0.00000000E+00  0.00000000E+00 -3.61484765E-04
  0.00000000E+00  7.24455905E-19  0.00000000E+00  0.00000000E+00 -2.71166826E-03
  0.00000000E+00  1.76708321E-19 -5.36256873E-19  1.21486677E-19  9.65167482E-20
  0.00000000E+00  0.00000000E+00  7.51462270E-20  0.00000000E+00  0.00000000E+00
  3.92648516E-19  0.00000000E+00  0.00000000E+00 -2.01750575E-19  3.62942806E-19
  0.00000000E+00  0.00000000E+00 -1.89328013E-03  0.00000000E+00  1.90795511E-19
  0.00000000E+00  0.00000000E+00  1.19099841E-02  0.00000000E+00 -4.14016277E-19
  1.00155171E-18 -4.33662876E-18  3.70999418E-20  0.00000000E+00  0.00000000E+00
  0.00000000E+00  0.00000000E+00  0.00000000E+00  0.00000000E+00  0.00000000E+00
  0.00000000E+00  0.00000000E+00  9.55397079E-18  0.00000000E+00  0.00000000E+00
  5.97140737E-01  0.00000000E+00 -1.34936179E-17  0.00000000E+00  0.00000000E+00
  8.64500000E-01  0.00000000E+00  0.00000000E+00  0.00000000E+00  0.00000000E+00
  0.00000000E+00  0.00000000E+00  0.00000000E+00  0.00000000E+00  0.00000000E+00
  0.00000000E+00  0.00000000E+00  0.00000000E+00  0.00000000E+00  0.00000000E+00
  0.00000000E+00  0.00000000E+00  0.00000000E+00 -3.61484765E-04  0.00000000E+00
  0.00000000E+00  0.00000000E+00  0.00000000E+00 -2.71166826E-03  0.00000000E+00
  0.00000000E+00  0.00000000E+00  0.00000000E+00  0.00000000E+00  0.00000000E+00
  0.00000000E+00  0.00000000E+00  0.00000000E+00  0.00000000E+00  0.00000000E+00
  0.00000000E+00  0.00000000E+00  0.00000000E+00  0.00000000E+00  0.00000000E+00
  0.00000000E+00 -1.89328013E-03  0.00000000E+00  0.00000000E+00  0.00000000E+00
  0.00000000E+00  1.19099841E-02  0.00000000E+00  0.00000000E+00  0.00000000E+00
  0.00000000E+00  0.00000000E+00  0.00000000E+00  0.00000000E+00  0.00000000E+00
  0.00000000E+00  0.00000000E+00  0.00000000E+00  0.00000000E+00  0.00000000E+00
  0.00000000E+00  0.00000000E+00  0.00000000E+00  0.00000000E+00  5.97140737E-01
  0.00000000E+00  0.00000000E+00  0.00000000E+00  0.00000000E+00  8.64500000E-01
Nuclear Attraction Matrix                  R   N=        2415
 -2.97362610E+00 -1.66423351E+00 -1.70195084E+00 -8.31718339E-01 -1.16080189E+00
 -1.12235152E+00 -3.10767960E-01 -5.08882743E-01 -6.65719282E-01 -6.53298223E-01
  0.00000000E+00  0.00000000E+00  0.00000000E+00  0.00000000E+00 -2.06355593E+00
  0.00000000E+00  0.00000000E+00  0.00000000E+00  0.00000000E+00  0.00000000E+00
 -2.06355593E+00 -2.13059557E-01 -2.28440907E-01 -1.30883278E-01 -5.12975788E-02
  0.00000000E+00  0.00000000E+00 -2.24136715E+00  0.00000000E+00  0.00000000E+00
  0.00000000E+00  0.00000000E+00 -1.09178676E+00  0.00000000E+00  0.00000000E+00
 -1.33029408E+00  0.00000000E+00  0.00000000E+00  0.00000000E+00  0.00000000E+00
  0.00000000E+00 -1.09178676E+00  0.00000000E+00  0.00000000E+00 -1.33029408E+00
 -1.34159519E-01 -2.76001900E-01 -2.20148081E-01 -1.01440325E-01  0.00000000E+00
  0.00000000E+00 -1.23570392E+00  0.00000000E+00  0.00000000E+00 -1.55463857E+00
  0.00000000E+00  0.00000000E+00  0.00000000E+00  0.00000000E+00 -2.99185479E-01
  0.00000000E+00  0.00000000E+00 -6.68573084E-01  0.00000000E+00  0.00000000E+00
 -8.05826149E-01  0.00000000E+00  0.00000000E+00  0.00000000E+00  0.00000000E+00
  0.00000000E+00 -2.99185479E-01  0.00000000E+00  0.00000000E+00 -6.68573084E-01
  0.00000000E+00  0.00000000E+00 -8.05826149E-01 -3.89494563E-02 -1.22984292E-01
 -1.62796637E-01 -1.21087779E-01  0.00000000E+00  0.00000000E+00 -3.43191481E-01
  0.00000000E+00  0.00000000E+00 -7.70459454E-01  0.00000000E+00  0.00000000E+00
 -9.00456547E-01 -1.00812675E-01 -1.72294955E-01 -1.12740459E-01 -4.64272519E-02
  0.00000000E+00  0.00000000E+00 -3.15508402E-01  0.00000000E+00  0.00000000E+00
 -3.46235829E-01  0.00000000E+00  0.00000000E+00 -1.21605093E-01 -1.92886721E+00
  0.00000000E+00  0.00000000E+00  0.00000000E+00  0.00000000E+00 -1.51402823E-01
  0.00000000E+00  0.00000000E+00 -1.51756907E-01  0.00000000E+00  0.00000000E+00
 -5.36537189E-02  0.00000000E+00  0.00000000E+00  0.00000000E+00 -1.71644543E+00
  0.00000000E+00  0.00000000E+00  0.00000000E+00  0.00000000E+00  0.00000000E+00
 -1.51402823E-01  0.00000000E+00  0.00000000E+00 -1.51756907E-01  0.00000000E+00
  0.00000000E+00 -5.36537189E-02  0.00000000E+00  0.00000000E+00  0.00000000E+00
 -1.71644543E+00 -4.03597156E-17 -4.03163088E-17  1.71953274E-17 -1.14532802E-17
  0.00000000E+00  0.00000000E+00  3.28237262E-18  0.00000000E+00  0.00000000E+00
  2.32575483E-18  0.00000000E+00  0.00000000E+00 -5.20531796E-19 -2.00169943E-17
  0.00000000E+00  0.00000000E+00 -1.60183299E+00  0.00000000E+00  0.00000000E+00
  0.00000000E+00  0.00000000E+00  0.00000000E+00  0.00000000E+00  0.00000000E+00
  0.00000000E+00  0.00000000E+00  0.00000000E+00  0.00000000E+00  0.00000000E+00
  0.00000000E+00  0.00000000E+00  0.00000000E+00  0.00000000E+00  0.00000000E+00
 -1.60183299E+00 -2.88694296E-02 -9.33797004E-02 -9.51287416E-02 -5.19733627E-02
  0.00000000E+00  0.00000000E+00 -9.07650421E-02  0.00000000E+00  0.00000000E+00
 -2.31380848E-01  0.00000000E+00  0.00000000E+00 -1.76863790E-01 -7.11453002E-01
  0.00000000E+00  0.00000000E+00 -2.81813108E-18  0.00000000E+00 -1.09158646E+00
  0.00000000E+00  0.00000000E+00  0.00000000E+00  0.00000000E+00 -4.01218876E-02
  0.00000000E+00  0.00000000E+00 -1.14111756E-01  0.00000000E+00  0.00000000E+00
 -1.00744903E-01  0.00000000E+00  0.00000000E+00  0.00000000E+00 -6.23906063E-01
  0.00000000E+00  0.00000000E+00  0.00000000E+00  0.00000000E+00 -1.01306478E+00
  0.00000000E+00  0.00000000E+00  0.00000000E+00  0.00000000E+00  0.00000000E+00
 -4.01218876E-02  0.00000000E+00  0.00000000E+00 -1.14111756E-01  0.00000000E+00
  0.00000000E+00 -1.00744903E-01  0.00000000E+00  0.00000000E+00  0.00000000E+00
 -6.23906063E-01  0.00000000E+00  0.00000000E+00  0.00000000E+00  0.00000000E+00
 -1.01306478E+00 -8.89284140E-18 -3.67364195E-17  1.48806771E-17 -1.12343242E-17
  0.00000000E+00  0.00000000E+00 -1.84813767E-20  0.00000000E+00  0.00000000E+00
  2.57167988E-18  0.00000000E+00  0.00000000E+00 -1.09493621E-19 -1.22011987E-17
  0.00000000E+00  0.00000000E+00 -5.77193954E-01  0.00000000E+00  1.64136642E-17
  0.00000000E+00  0.00000000E+00 -9.48373377E-01  0.00000000E+00  0.00000000E+00
  0.00000000E+00  0.00000000E+00  0.00000000E+00  0.00000000E+00  0.00000000E+00
  0.00000000E+00  0.00000000E+00  0.00000000E+00  0.00000000E+00  0.00000000E+00
  0.00000000E+00  0.00000000E+00  0.00000000E+00  0.00000000E+00  0.00000000E+00
 -5.77193954E-01  0.00000000E+00  0.00000000E+00  0.00000000E+00  0.00000000E+00
 -9.48373377E-01 -7.10012144E-01 -1.02860897E+00 -7.11335695E-01 -3.03510211E-01
  0.00000000E+00  0.00000000E+00 -1.10422790E+00  0.00000000E+00  0.00000000E+00
 -1.41107890E+00  0.00000000E+00  0.00000000E+00 -5.78055011E-01 -1.39218112E+00
  0.00000000E+00  0.00000000E+00  2.49120808E-17  0.00000000E+00 -8.03629018E-01
  0.00000000E+00  0.00000000E+00 -4.36430599E-18  0.00000000E+00 -3.02287353E+00
 -1.01667222E+00 -1.30822446E+00 -1.04654715E+00 -5.06040576E-01  0.00000000E+00
  0.00000000E+00 -6.78675006E-01  0.00000000E+00  0.00000000E+00 -1.09371718E+00
  0.00000000E+00  0.00000000E+00 -6.93725007E-01 -5.06414455E-01  0.00000000E+00
  0.00000000E+00 -3.31525065E-17  0.00000000E+00 -5.50568269E-01  0.00000000E+00
  0.00000000E+00 -1.74860273E-17  0.00000000E+00 -1.69901623E+00 -1.75119825E+00
 -6.98558720E-01 -1.02951238E+00 -1.05587180E+00 -6.69421717E-01  0.00000000E+00
  0.00000000E+00 -2.41022721E-01  0.00000000E+00  0.00000000E+00 -4.95177984E-01
  0.00000000E+00  0.00000000E+00 -5.29435797E-01 -1.63026168E-01  0.00000000E+00
  0.00000000E+00 -4.37573354E-17  0.00000000E+00 -2.24434482E-01  0.00000000E+00
  0.00000000E+00  1.30629821E-17  0.00000000E+00 -8.50113625E-01 -1.19965000E+00
 -1.17108192E+00 -2.97107000E-01 -4.91180136E-01 -6.50542268E-01 -6.54496337E-01
  0.00000000E+00  0.00000000E+00 -6.33847857E-02  0.00000000E+00  0.00000000E+00
 -1.38462915E-01  0.00000000E+00  0.00000000E+00 -2.10367051E-01 -5.03633737E-02
  0.00000000E+00  0.00000000E+00  7.30890821E-18  0.00000000E+00 -6.54600161E-02
  0.00000000E+00  0.00000000E+00 -2.45844959E-17  0.00000000E+00 -3.17794533E-01
 -5.27174291E-01 -6.98352892E-01 -6.82451996E-01  0.00000000E+00  0.00000000E+00
  0.00000000E+00  0.00000000E+00 -5.14947465E-01  0.00000000E+00  0.00000000E+00
 -6.21695897E-01  0.00000000E+00  0.00000000E+00 -2.56441399E-01  0.00000000E+00
  0.00000000E+00  0.00000000E+00 -9.97822704E-01  0.00000000E+00  0.00000000E+00
  0.00000000E+00  0.00000000E+00 -6.00661305E-01  0.00000000E+00  0.00000000E+00
  0.00000000E+00  0.00000000E+00  0.00000000E+00  0.00000000E+00  0.00000000E+00
 -2.11187626E+00  0.00000000E+00  0.00000000E+00  0.00000000E+00  0.00000000E+00
  0.00000000E+00 -5.14947465E-01  0.00000000E+00  0.00000000E+00 -6.21695897E-01
  0.00000000E+00  0.00000000E+00 -2.56441399E-01  0.00000000E+00  0.00000000E+00
  0.00000000E+00 -9.97822704E-01  0.00000000E+00  0.00000000E+00  0.00000000E+00
  0.00000000E+00 -6.00661305E-01  0.00000000E+00  0.00000000E+00  0.00000000E+00
  0.00000000E+00  0.00000000E+00  0.00000000E+00  0.00000000E+00 -2.11187626E+00
  1.09726016E+00  6.67380770E-01  2.27601845E-01  5.61783407E-02  0.00000000E+00
  0.00000000E+00  1.15785249E+00  0.00000000E+00  0.00000000E+00  2.88101333E-01
  0.00000000E+00  0.00000000E+00 -1.09898641E-01  4.42432986E-01  0.00000000E+00
  0.00000000E+00  8.10396603E-18  0.00000000E+00 -3.49490237E-01  0.00000000E+00
  0.00000000E+00 -2.21520966E-18  0.00000000E+00  1.83245314E-01  1.94657596E-01
  1.10824190E-01  4.33060413E-02  0.00000000E+00  0.00000000E+00 -2.29246877E+00
  0.00000000E+00  0.00000000E+00  0.00000000E+00  0.00000000E+00 -6.12813980E-01
  0.00000000E+00  0.00000000E+00 -9.49086405E-01  0.00000000E+00  0.00000000E+00
 -5.95731419E-01  0.00000000E+00  0.00000000E+00  0.00000000E+00 -6.08598745E-01
  0.00000000E+00  0.00000000E+00  0.00000000E+00  0.00000000E+00 -7.83954261E-01
  0.00000000E+00  0.00000000E+00  0.00000000E+00  0.00000000E+00  0.00000000E+00
  0.00000000E+00  0.00000000E+00 -1.12117644E+00  0.00000000E+00  0.00000000E+00
 -1.37617958E+00  0.00000000E+00  0.00000000E+00  0.00000000E+00  0.00000000E+00
  0.00000000E+00 -6.12813980E-01  0.00000000E+00  0.00000000E+00 -9.49086405E-01
  0.00000000E+00  0.00000000E+00 -5.95731419E-01  0.00000000E+00  0.00000000E+00
  0.00000000E+00 -6.08598745E-01  0.00000000E+00  0.00000000E+00  0.00000000E+00
  0.00000000E+00 -7.83954261E-01  0.00000000E+00  0.00000000E+00  0.00000000E+00
  0.00000000E+00  0.00000000E+00  0.00000000E+00  0.00000000E+00 -1.12117644E+00
  0.00000000E+00  0.00000000E+00 -1.37617958E+00  1.38557493E+00  1.05504459E+00
  4.47230499E-01  1.06324318E-01  0.00000000E+00  0.00000000E+00  3.04935730E-01
  0.00000000E+00  0.00000000E+00 -8.54413904E-02  0.00000000E+00  0.00000000E+00
 -3.71485429E-01 -1.70723306E-01  0.00000000E+00  0.00000000E+00  5.25470877E-18
  0.00000000E+00 -6.03110772E-01  0.00000000E+00  0.00000000E+00  3.71671630E-18
  0.00000000E+00  1.13801343E-01  2.14014443E-01  1.53597722E-01  6.57378339E-02
  0.00000000E+00  0.00000000E+00 -1.26777478E+00  0.00000000E+00  0.00000000E+00
 -1.61060981E+00  0.00000000E+00  0.00000000E+00  0.00000000E+00  0.00000000E+00
 -2.50417575E-01  0.00000000E+00  0.00000000E+00 -5.82917385E-01  0.00000000E+00
  0.00000000E+00 -7.52242551E-01  0.00000000E+00  0.00000000E+00  0.00000000E+00
 -1.18269707E-01  0.00000000E+00  0.00000000E+00  0.00000000E+00  0.00000000E+00
 -3.41982882E-01  0.00000000E+00  0.00000000E+00  0.00000000E+00  0.00000000E+00
  0.00000000E+00  0.00000000E+00  0.00000000E+00 -3.07674020E-01  0.00000000E+00
  0.00000000E+00 -6.94668821E-01  0.00000000E+00  0.00000000E+00 -8.42395197E-01
  0.00000000E+00  0.00000000E+00  0.00000000E+00  0.00000000E+00  0.00000000E+00
 -2.50417575E-01  0.00000000E+00  0.00000000E+00 -5.82917385E-01  0.00000000E+00
  0.00000000E+00 -7.52242551E-01  0.00000000E+00  0.00000000E+00  0.00000000E+00
 -1.18269707E-01  0.00000000E+00  0.00000000E+00  0.00000000E+00  0.00000000E+00
 -3.41982882E-01  0.00000000E+00  0.00000000E+00  0.00000000E+00  0.00000000E+00
  0.00000000E+00  0.00000000E+00  0.00000000E+00 -3.07674020E-01  0.00000000E+00
  0.00000000E+00 -6.94668821E-01  0.00000000E+00  0.00000000E+00 -8.42395197E-01
  5.62157597E-01  6.47371447E-01  4.34704165E-01  1.03366551E-01  0.00000000E+00
  0.00000000E+00 -9.28340486E-02  0.00000000E+00  0.00000000E+00 -3.29881735E-01
  0.00000000E+00  0.00000000E+00 -6.08740996E-01 -6.86757980E-02  0.00000000E+00
  0.00000000E+00  2.20129718E-17  0.00000000E+00 -3.23765607E-01  0.00000000E+00
  0.00000000E+00 -1.84967748E-18  0.00000000E+00  3.26174557E-02  8.10296136E-02
  5.33512474E-02  4.78430247E-03  0.00000000E+00  0.00000000E+00 -3.52606534E-01
  0.00000000E+00  0.00000000E+00 -8.06034937E-01  0.00000000E+00  0.00000000E+00
 -9.68239641E-01 -1.37281536E+00 -4.91716269E-01 -1.58997574E-01 -5.07608095E-02
  0.00000000E+00  0.00000000E+00 -4.43578884E-01  0.00000000E+00  0.00000000E+00
  1.71099144E-01  0.00000000E+00  0.00000000E+00  5.89297189E-02  1.48135439E-01
  0.00000000E+00  0.00000000E+00 -2.35986413E-17  0.00000000E+00 -3.54712676E-02
  0.00000000E+00  0.00000000E+00 -1.62596359E-18  0.00000000E+00 -1.02499234E-01
 -1.76201312E-01 -1.15782636E-01 -4.77805107E-02  0.00000000E+00  0.00000000E+00
  2.80786578E-01  0.00000000E+00  0.00000000E+00  3.00246461E-01  0.00000000E+00
  0.00000000E+00  1.02612916E-01 -1.98089910E+00  0.00000000E+00  0.00000000E+00
  0.00000000E+00  0.00000000E+00  9.86694287E-01  0.00000000E+00  0.00000000E+00
  5.96174744E-01  0.00000000E+00  0.00000000E+00  1.08390430E-01  0.00000000E+00
  0.00000000E+00  0.00000000E+00  7.99971778E-01  0.00000000E+00  0.00000000E+00
  0.00000000E+00  0.00000000E+00 -2.33644132E-02  0.00000000E+00  0.00000000E+00
  0.00000000E+00  0.00000000E+00  0.00000000E+00  0.00000000E+00  0.00000000E+00
  1.23018024E-01  0.00000000E+00  0.00000000E+00  1.15646840E-01  0.00000000E+00
  0.00000000E+00  3.90941643E-02  0.00000000E+00  0.00000000E+00  0.00000000E+00
 -1.76671608E+00  0.00000000E+00  0.00000000E+00  0.00000000E+00  0.00000000E+00
  0.00000000E+00  9.86694287E-01  0.00000000E+00  0.00000000E+00  5.96174744E-01
  0.00000000E+00  0.00000000E+00  1.08390430E-01  0.00000000E+00  0.00000000E+00
  0.00000000E+00  7.99971778E-01  0.00000000E+00  0.00000000E+00  0.00000000E+00
  0.00000000E+00 -2.33644132E-02  0.00000000E+00  0.00000000E+00  0.00000000E+00
  0.00000000E+00  0.00000000E+00  0.00000000E+00  0.00000000E+00  1.23018024E-01
  0.00000000E+00  0.00000000E+00  1.15646840E-01  0.00000000E+00  0.00000000E+00
  3.90941643E-02  0.00000000E+00  0.00000000E+00  0.00000000E+00 -1.76671608E+00
 -1.71455625E-17  5.05789306E-17  2.52079412E-17 -3.07866386E-18  0.00000000E+00
  0.00000000E+00  2.23841009E-17  0.00000000E+00  0.00000000E+00 -2.18637722E-17
  0.00000000E+00  0.00000000E+00  5.61714256E-20 -1.46245077E-17  0.00000000E+00
  0.00000000E+00 -5.80595918E-01  0.00000000E+00  4.07126737E-18  0.00000000E+00
  0.00000000E+00 -4.04566707E-01  0.00000000E+00  3.68049453E-17 -4.44631534E-17
  8.59479845E-18  9.54986015E-18  0.00000000E+00  0.00000000E+00 -2.87759858E-18
  0.00000000E+00  0.00000000E+00 -2.28048074E-18  0.00000000E+00  0.00000000E+00
 -9.44408638E-19  1.24024474E-17  0.00000000E+00  0.00000000E+00 -1.64866497E+00
  0.00000000E+00  0.00000000E+00  0.00000000E+00  0.00000000E+00  0.00000000E+00
  0.00000000E+00  0.00000000E+00  0.00000000E+00  0.00000000E+00  0.00000000E+00
  0.00000000E+00  0.00000000E+00  0.00000000E+00  0.00000000E+00  0.00000000E+00
  0.00000000E+00  0.00000000E+00 -5.80595918E-01  0.00000000E+00  0.00000000E+00
  0.00000000E+00  0.00000000E+00 -4.04566707E-01  0.00000000E+00  0.00000000E+00
  0.00000000E+00  0.00000000E+00  0.00000000E+00  0.00000000E+00  0.00000000E+00
  0.00000000E+00  0.00000000E+00  0.00000000E+00  0.00000000E+00  0.00000000E+00
  0.00000000E+00  0.00000000E+00  0.00000000E+00  0.00000000E+00  0.00000000E+00
 -1.64866497E+00 -7.79764546E-01 -5.07422756E-01 -1.96204893E-01 -6.70600185E-02
  0.00000000E+00  0.00000000E+00  3.23372403E-01  0.00000000E+00  0.00000000E+00
  5.55386733E-01  0.00000000E+00  0.00000000E+00  2.52119392E-01 -1.78458324E-02
  0.00000000E+00  0.00000000E+00 -3.08261950E-17  0.00000000E+00 -2.92054010E-01
  0.00000000E+00  0.00000000E+00  1.13006874E-17  0.00000000E+00 -2.95123981E-02
 -1.00085008E-01 -1.10760434E-01 -6.44859868E-02  0.00000000E+00  0.00000000E+00
  7.95796180E-02  0.00000000E+00  0.00000000E+00  1.62589696E-01  0.00000000E+00
  0.00000000E+00  6.22251065E-02 -7.34495051E-01  0.00000000E+00  0.00000000E+00
 -3.16164674E-17  0.00000000E+00 -1.15705315E+00  0.00000000E+00  0.00000000E+00
  0.00000000E+00  0.00000000E+00  5.83815468E-01  0.00000000E+00  0.00000000E+00
  7.44257225E-01  0.00000000E+00  0.00000000E+00  2.90334614E-01  0.00000000E+00
  0.00000000E+00  0.00000000E+00 -4.58275496E-03  0.00000000E+00  0.00000000E+00
  0.00000000E+00  0.00000000E+00 -3.48612083E-01  0.00000000E+00  0.00000000E+00
  0.00000000E+00  0.00000000E+00  0.00000000E+00  0.00000000E+00  0.00000000E+00
  3.12306520E-02  0.00000000E+00  0.00000000E+00  6.63467434E-02  0.00000000E+00
  0.00000000E+00  3.36035383E-02  0.00000000E+00  0.00000000E+00  0.00000000E+00
 -6.45505379E-01  0.00000000E+00  0.00000000E+00  0.00000000E+00  0.00000000E+00
 -1.06373336E+00  0.00000000E+00  0.00000000E+00  0.00000000E+00  0.00000000E+00
  0.00000000E+00  5.83815468E-01  0.00000000E+00  0.00000000E+00  7.44257225E-01
  0.00000000E+00  0.00000000E+00  2.90334614E-01  0.00000000E+00  0.00000000E+00
  0.00000000E+00 -4.58275496E-03  0.00000000E+00  0.00000000E+00  0.00000000E+00
  0.00000000E+00 -3.48612083E-01  0.00000000E+00  0.00000000E+00  0.00000000E+00
  0.00000000E+00  0.00000000E+00  0.00000000E+00  0.00000000E+00  3.12306520E-02
  0.00000000E+00  0.00000000E+00  6.63467434E-02  0.00000000E+00  0.00000000E+00
  3.36035383E-02  0.00000000E+00  0.00000000E+00  0.00000000E+00 -6.45505379E-01
  0.00000000E+00  0.00000000E+00  0.00000000E+00  0.00000000E+00 -1.06373336E+00
 -3.63006970E-22 -2.69880900E-17 -3.17284631E-17  2.70191143E-17  0.00000000E+00
  0.00000000E+00  1.91437344E-18  0.00000000E+00  0.00000000E+00 -2.12971285E-17
  0.00000000E+00  0.00000000E+00 -2.68145449E-17  4.36896428E-17  0.00000000E+00
  0.00000000E+00 -3.96647075E-01  0.00000000E+00  4.60839669E-17  0.00000000E+00
  0.00000000E+00 -7.69010059E-01  0.00000000E+00  4.40937085E-18 -4.14850052E-17
 -1.92810899E-17 -1.71967245E-17  0.00000000E+00  0.00000000E+00  7.32567846E-19
  0.00000000E+00  0.00000000E+00  4.91398077E-20  0.00000000E+00  0.00000000E+00
  1.71429949E-18  3.06198965E-18  0.00000000E+00  0.00000000E+00 -5.96531148E-01
  0.00000000E+00  3.34668138E-17  0.00000000E+00  0.00000000E+00 -9.88024011E-01
  0.00000000E+00  0.00000000E+00  0.00000000E+00  0.00000000E+00  0.00000000E+00
  0.00000000E+00  0.00000000E+00  0.00000000E+00  0.00000000E+00  0.00000000E+00
  0.00000000E+00  0.00000000E+00  0.00000000E+00  0.00000000E+00  0.00000000E+00
  0.00000000E+00  0.00000000E+00 -3.96647075E-01  0.00000000E+00  0.00000000E+00
  0.00000000E+00  0.00000000E+00 -7.69010059E-01  0.00000000E+00  0.00000000E+00
  0.00000000E+00  0.00000000E+00  0.00000000E+00  0.00000000E+00  0.00000000E+00
  0.00000000E+00  0.00000000E+00  0.00000000E+00  0.00000000E+00  0.00000000E+00
  0.00000000E+00  0.00000000E+00  0.00000000E+00  0.00000000E+00  0.00000000E+00
 -5.96531148E-01  0.00000000E+00  0.00000000E+00  0.00000000E+00  0.00000000E+00
 -9.88024011E-01  0.00000000E+00 -5.51472306E-05 -1.72189229E-02 -9.56949516E-02
  0.00000000E+00  0.00000000E+00  0.00000000E+00  0.00000000E+00  0.00000000E+00
 -8.23947104E-05  0.00000000E+00  0.00000000E+00 -6.47018344E-02 -2.18046968E-08
  0.00000000E+00  0.00000000E+00  2.26670830E-26  0.00000000E+00 -5.73203090E-03
  0.00000000E+00  0.00000000E+00 -1.18469938E-21  0.00000000E+00 -2.03291722E-06
 -3.24524290E-03 -7.68389882E-02 -1.40585759E-01  0.00000000E+00  0.00000000E+00
 -3.47854510E-06  0.00000000E+00  0.00000000E+00 -6.64381894E-03  0.00000000E+00
  0.00000000E+00 -2.19693103E-01 -6.36593208E-05  0.00000000E+00  0.00000000E+00
 -1.94541443E-22  0.00000000E+00 -9.13706210E-02  0.00000000E+00  0.00000000E+00
  3.63323469E-21  0.00000000E+00 -2.48601331E+00 -1.02273686E-04 -2.60973210E-03
 -4.48379410E-02 -1.62995042E-01  0.00000000E+00  0.00000000E+00 -2.11997955E-04
  0.00000000E+00  0.00000000E+00 -5.32393644E-03  0.00000000E+00  0.00000000E+00
 -1.37147857E-01 -6.82428488E-04  0.00000000E+00  0.00000000E+00  7.19516283E-22
  0.00000000E+00 -3.72025223E-02  0.00000000E+00  0.00000000E+00  1.88420115E-19
  0.00000000E+00 -3.74576129E-03 -2.95049089E-02 -1.52931849E-01 -2.33859871E-01
  0.00000000E+00  0.00000000E+00 -5.80758912E-03  0.00000000E+00  0.00000000E+00
 -5.63791792E-02  0.00000000E+00  0.00000000E+00 -3.59021177E-01 -1.12906337E-02
  0.00000000E+00  0.00000000E+00  3.23830995E-20  0.00000000E+00 -2.01373610E-01
  0.00000000E+00  0.00000000E+00  1.46773233E-18  0.00000000E+00 -1.32533708E+00
 -1.28562279E+00 -2.43232346E-02 -6.26783206E-02 -1.51109071E-01 -2.78735400E-01
  0.00000000E+00  0.00000000E+00 -2.36197011E-02  0.00000000E+00  0.00000000E+00
 -8.28175342E-02  0.00000000E+00  0.00000000E+00 -2.80298017E-01 -2.63652903E-02
  0.00000000E+00  0.00000000E+00 -4.46418048E-19  0.00000000E+00 -1.26979491E-01
  0.00000000E+00  0.00000000E+00 -1.90388676E-18  0.00000000E+00 -9.42566035E-02
 -1.78553536E-01 -3.18216110E-01 -3.75035445E-01  0.00000000E+00  0.00000000E+00
 -4.59065042E-02  0.00000000E+00  0.00000000E+00 -1.59437723E-01  0.00000000E+00
  0.00000000E+00 -4.51739213E-01 -3.18958362E-02  0.00000000E+00  0.00000000E+00
 -1.83828170E-18  0.00000000E+00 -2.06228743E-01  0.00000000E+00  0.00000000E+00
 -6.15226039E-18  0.00000000E+00 -6.54826466E-01 -8.78343797E-01 -8.85625252E-01
 -1.24663935E-01 -2.19119013E-01 -3.24741105E-01 -4.21830173E-01  0.00000000E+00
  0.00000000E+00 -4.65666090E-02  0.00000000E+00  0.00000000E+00 -1.20121535E-01
  0.00000000E+00  0.00000000E+00 -2.59159120E-01 -3.35723801E-02  0.00000000E+00
  0.00000000E+00  5.19932154E-18  0.00000000E+00 -7.52856813E-02  0.00000000E+00
  0.00000000E+00  1.38564883E-17  0.00000000E+00 -1.80104758E-01 -3.03382698E-01
 -4.36143180E-01 -5.03756563E-01  0.00000000E+00  0.00000000E+00 -4.41440087E-03
  0.00000000E+00  0.00000000E+00 -4.93960770E-02  0.00000000E+00  0.00000000E+00
 -2.21619146E-01 -2.30793521E-02  0.00000000E+00  0.00000000E+00  8.90252527E-18
  0.00000000E+00 -6.36869228E-02  0.00000000E+00  0.00000000E+00 -1.35199071E-17
  0.00000000E+00 -2.43645083E-01 -3.87642898E-01 -5.50118587E-01 -5.91758063E-01
  0.00000000E+00  0.00000000E+00  0.00000000E+00  0.00000000E+00  0.00000000E+00
  0.00000000E+00  0.00000000E+00 -7.17889480E-06  0.00000000E+00  0.00000000E+00
 -6.30910607E-03  0.00000000E+00  0.00000000E+00  0.00000000E+00  0.00000000E+00
  0.00000000E+00  0.00000000E+00  0.00000000E+00  0.00000000E+00 -9.78974562E-04
  0.00000000E+00  0.00000000E+00  0.00000000E+00  0.00000000E+00  0.00000000E+00
  0.00000000E+00  0.00000000E+00 -1.72571199E-07  0.00000000E+00  0.00000000E+00
 -8.50427539E-04  0.00000000E+00  0.00000000E+00 -2.77775254E-02  0.00000000E+00
  0.00000000E+00  0.00000000E+00 -8.52948450E-06  0.00000000E+00  0.00000000E+00
  0.00000000E+00  0.00000000E+00 -2.03826493E-02  0.00000000E+00  0.00000000E+00
  0.00000000E+00  0.00000000E+00  0.00000000E+00  0.00000000E+00  0.00000000E+00
 -1.63421867E+00  0.00000000E+00  0.00000000E+00  0.00000000E+00  0.00000000E+00
  0.00000000E+00  0.00000000E+00  0.00000000E+00  0.00000000E+00 -7.17889480E-06
  0.00000000E+00  0.00000000E+00 -6.30910607E-03  0.00000000E+00  0.00000000E+00
  0.00000000E+00  0.00000000E+00  0.00000000E+00  0.00000000E+00  0.00000000E+00
  0.00000000E+00 -9.78974562E-04  0.00000000E+00  0.00000000E+00  0.00000000E+00
  0.00000000E+00  0.00000000E+00  0.00000000E+00  0.00000000E+00 -1.72571199E-07
  0.00000000E+00  0.00000000E+00 -8.50427539E-04  0.00000000E+00  0.00000000E+00
 -2.77775254E-02  0.00000000E+00  0.00000000E+00  0.00000000E+00 -8.52948450E-06
  0.00000000E+00  0.00000000E+00  0.00000000E+00  0.00000000E+00 -2.03826493E-02
  0.00000000E+00  0.00000000E+00  0.00000000E+00  0.00000000E+00  0.00000000E+00
  0.00000000E+00  0.00000000E+00 -1.63421867E+00  0.00000000E+00  1.04607301E-04
  1.29262435E-02  2.06854110E-02  0.00000000E+00  0.00000000E+00  0.00000000E+00
  0.00000000E+00  0.00000000E+00  1.64439494E-04  0.00000000E+00  0.00000000E+00
  4.17508455E-02  0.00000000E+00  0.00000000E+00  0.00000000E+00  0.00000000E+00
  0.00000000E+00  8.23461042E-03  0.00000000E+00  0.00000000E+00 -1.66062861E-21
  0.00000000E+00  3.41964392E-06  5.12319713E-03  4.46236464E-02  2.43871145E-02
  0.00000000E+00  0.00000000E+00  5.36639438E-06  0.00000000E+00  0.00000000E+00
  1.11876686E-02  0.00000000E+00  0.00000000E+00  9.81898348E-02  1.26437964E-04
  0.00000000E+00  0.00000000E+00 -3.15020475E-24  0.00000000E+00  9.18659952E-02
  0.00000000E+00  0.00000000E+00  1.03157221E-19  0.00000000E+00  2.98142424E-02
  3.37833106E-02  2.00590882E-02  7.99153757E-03  0.00000000E+00  0.00000000E+00
 -1.64159694E+00  0.00000000E+00  0.00000000E+00  0.00000000E+00  0.00000000E+00
 -1.17311486E-05  0.00000000E+00  0.00000000E+00 -7.13083178E-04  0.00000000E+00
  0.00000000E+00 -2.58414187E-02  0.00000000E+00  0.00000000E+00  0.00000000E+00
 -8.80572959E-05  0.00000000E+00  0.00000000E+00  0.00000000E+00  0.00000000E+00
 -1.13846654E-02  0.00000000E+00  0.00000000E+00  0.00000000E+00  0.00000000E+00
  0.00000000E+00  0.00000000E+00  0.00000000E+00 -9.89723834E-04  0.00000000E+00
  0.00000000E+00 -1.33888630E-02  0.00000000E+00  0.00000000E+00 -9.02327415E-02
  0.00000000E+00  0.00000000E+00  0.00000000E+00 -4.09900343E-03  0.00000000E+00
  0.00000000E+00  0.00000000E+00  0.00000000E+00 -8.99288337E-02  0.00000000E+00
  0.00000000E+00  0.00000000E+00  0.00000000E+00  0.00000000E+00  0.00000000E+00
  0.00000000E+00 -8.47838249E-01  0.00000000E+00  0.00000000E+00 -1.02852283E+00
  0.00000000E+00  0.00000000E+00  0.00000000E+00  0.00000000E+00  0.00000000E+00
 -1.17311486E-05  0.00000000E+00  0.00000000E+00 -7.13083178E-04  0.00000000E+00
  0.00000000E+00 -2.58414187E-02  0.00000000E+00  0.00000000E+00  0.00000000E+00
 -8.80572959E-05  0.00000000E+00  0.00000000E+00  0.00000000E+00  0.00000000E+00
 -1.13846654E-02  0.00000000E+00  0.00000000E+00  0.00000000E+00  0.00000000E+00
  0.00000000E+00  0.00000000E+00  0.00000000E+00 -9.89723834E-04  0.00000000E+00
  0.00000000E+00 -1.33888630E-02  0.00000000E+00  0.00000000E+00 -9.02327415E-02
  0.00000000E+00  0.00000000E+00  0.00000000E+00 -4.09900343E-03  0.00000000E+00
  0.00000000E+00  0.00000000E+00  0.00000000E+00 -8.99288337E-02  0.00000000E+00
  0.00000000E+00  0.00000000E+00  0.00000000E+00  0.00000000E+00  0.00000000E+00
  0.00000000E+00 -8.47838249E-01  0.00000000E+00  0.00000000E+00 -1.02852283E+00
  1.57188852E-04  5.27665564E-03  5.76689420E-02  7.28431482E-02  0.00000000E+00
  0.00000000E+00  3.38185938E-04  0.00000000E+00  0.00000000E+00  1.09982528E-02
  0.00000000E+00  0.00000000E+00  1.50911082E-01  1.25514835E-03  0.00000000E+00
  0.00000000E+00  5.43484979E-21  0.00000000E+00  6.90655370E-02  0.00000000E+00
  0.00000000E+00  1.09837830E-19  0.00000000E+00  7.63069369E-03  5.72630999E-02
  1.56510926E-01  8.52481704E-02  0.00000000E+00  0.00000000E+00  1.26707457E-02
  0.00000000E+00  0.00000000E+00  1.10564830E-01  0.00000000E+00  0.00000000E+00
  2.73309221E-01  2.61347179E-02  0.00000000E+00  0.00000000E+00 -2.39038992E-19
  0.00000000E+00  2.74715080E-01  0.00000000E+00  0.00000000E+00  9.99675233E-19
  0.00000000E+00  2.03581761E-02  6.19874569E-02  6.65503596E-02  3.57024913E-02
  0.00000000E+00  0.00000000E+00 -8.54950963E-01  0.00000000E+00  0.00000000E+00
 -1.05527854E+00  0.00000000E+00  0.00000000E+00  0.00000000E+00  0.00000000E+00
 -8.69126746E-03  0.00000000E+00  0.00000000E+00 -3.31563326E-02  0.00000000E+00
  0.00000000E+00 -1.17109415E-01  0.00000000E+00  0.00000000E+00  0.00000000E+00
 -1.35508011E-02  0.00000000E+00  0.00000000E+00  0.00000000E+00  0.00000000E+00
 -9.00198493E-02  0.00000000E+00  0.00000000E+00  0.00000000E+00  0.00000000E+00
  0.00000000E+00  0.00000000E+00  0.00000000E+00 -3.51148117E-02  0.00000000E+00
  0.00000000E+00 -1.05803607E-01  0.00000000E+00  0.00000000E+00 -2.49652662E-01
  0.00000000E+00  0.00000000E+00  0.00000000E+00 -3.09913498E-02  0.00000000E+00
  0.00000000E+00  0.00000000E+00  0.00000000E+00 -1.89127023E-01  0.00000000E+00
  0.00000000E+00  0.00000000E+00  0.00000000E+00  0.00000000E+00  0.00000000E+00
  0.00000000E+00 -2.31203011E-01  0.00000000E+00  0.00000000E+00 -5.27120694E-01
  0.00000000E+00  0.00000000E+00 -6.80728678E-01  0.00000000E+00  0.00000000E+00
  0.00000000E+00  0.00000000E+00  0.00000000E+00 -8.69126746E-03  0.00000000E+00
  0.00000000E+00 -3.31563326E-02  0.00000000E+00  0.00000000E+00 -1.17109415E-01
  0.00000000E+00  0.00000000E+00  0.00000000E+00 -1.35508011E-02  0.00000000E+00
  0.00000000E+00  0.00000000E+00  0.00000000E+00 -9.00198493E-02  0.00000000E+00
  0.00000000E+00  0.00000000E+00  0.00000000E+00  0.00000000E+00  0.00000000E+00
  0.00000000E+00 -3.51148117E-02  0.00000000E+00  0.00000000E+00 -1.05803607E-01
  0.00000000E+00  0.00000000E+00 -2.49652662E-01  0.00000000E+00  0.00000000E+00
  0.00000000E+00 -3.09913498E-02  0.00000000E+00  0.00000000E+00  0.00000000E+00
  0.00000000E+00 -1.89127023E-01  0.00000000E+00  0.00000000E+00  0.00000000E+00
  0.00000000E+00  0.00000000E+00  0.00000000E+00  0.00000000E+00 -2.31203011E-01
  0.00000000E+00  0.00000000E+00 -5.27120694E-01  0.00000000E+00  0.00000000E+00
 -6.80728678E-01  8.95883876E-02  1.94289565E-01  3.18358854E-01  2.60172768E-01
  0.00000000E+00  0.00000000E+00  7.64441849E-02  0.00000000E+00  0.00000000E+00
  2.26167645E-01  0.00000000E+00  0.00000000E+00  4.28707420E-01  7.49725924E-02
  0.00000000E+00  0.00000000E+00 -2.05947137E-18  0.00000000E+00  2.45158596E-01
  0.00000000E+00  0.00000000E+00  8.89071168E-19  0.00000000E+00  2.72312442E-01
  4.36503353E-01  5.13715899E-01  2.85183505E-01  0.00000000E+00  0.00000000E+00
  9.31355448E-02  0.00000000E+00  0.00000000E+00  2.70577886E-01  0.00000000E+00
  0.00000000E+00  3.79428548E-01  5.34332805E-02  0.00000000E+00  0.00000000E+00
  4.05383303E-18  0.00000000E+00  1.78983450E-01  0.00000000E+00  0.00000000E+00
  1.49899613E-17  0.00000000E+00  6.33200059E-03  4.19546782E-02  1.09445389E-01
  1.16303477E-01  0.00000000E+00  0.00000000E+00 -2.33660883E-01  0.00000000E+00
  0.00000000E+00 -5.52285086E-01  0.00000000E+00  0.00000000E+00 -7.74797199E-01
 -2.57164605E-08 -3.66198540E-04 -1.09788592E-02 -6.45307845E-03  0.00000000E+00
  0.00000000E+00  0.00000000E+00  0.00000000E+00  0.00000000E+00 -6.90453041E-04
  0.00000000E+00  0.00000000E+00 -2.90987310E-02 -1.30240594E-06  0.00000000E+00
  0.00000000E+00  2.22059296E-24  0.00000000E+00 -1.45026633E-02  0.00000000E+00
  0.00000000E+00  8.83414854E-21  0.00000000E+00 -6.60153110E-05 -1.05000418E-02
 -2.88507110E-02 -6.84686674E-03  0.00000000E+00  0.00000000E+00 -1.32583368E-04
  0.00000000E+00  0.00000000E+00 -2.42610954E-02  0.00000000E+00  0.00000000E+00
 -4.45418752E-02 -1.33644875E-03  0.00000000E+00  0.00000000E+00 -1.24361739E-20
  0.00000000E+00 -9.24162490E-02  0.00000000E+00  0.00000000E+00  9.15849540E-20
  0.00000000E+00 -4.47413830E-03 -1.03628632E-02 -8.07034842E-03 -3.58995194E-03
  0.00000000E+00  0.00000000E+00  3.47218244E-02  0.00000000E+00  0.00000000E+00
  4.59893678E-02  0.00000000E+00  0.00000000E+00  1.89921776E-02 -1.25686583E+00
  0.00000000E+00  0.00000000E+00  0.00000000E+00  0.00000000E+00  0.00000000E+00
  0.00000000E+00  0.00000000E+00  5.82510183E-05  0.00000000E+00  0.00000000E+00
  8.77974945E-03  0.00000000E+00  0.00000000E+00  0.00000000E+00  1.00165518E-07
  0.00000000E+00  0.00000000E+00  0.00000000E+00  0.00000000E+00  3.35215462E-03
  0.00000000E+00  0.00000000E+00  0.00000000E+00  0.00000000E+00  0.00000000E+00
  0.00000000E+00  0.00000000E+00  8.96990102E-06  0.00000000E+00  0.00000000E+00
  3.72153907E-03  0.00000000E+00  0.00000000E+00  2.89559162E-02  0.00000000E+00
  0.00000000E+00  0.00000000E+00  1.88422089E-04  0.00000000E+00  0.00000000E+00
  0.00000000E+00  0.00000000E+00  4.29317059E-02  0.00000000E+00  0.00000000E+00
  0.00000000E+00  0.00000000E+00  0.00000000E+00  0.00000000E+00  0.00000000E+00
  2.83847990E-02  0.00000000E+00  0.00000000E+00  3.61100672E-02  0.00000000E+00
  0.00000000E+00  1.45595545E-02  0.00000000E+00  0.00000000E+00  0.00000000E+00
 -1.25268145E+00  0.00000000E+00  0.00000000E+00  0.00000000E+00  0.00000000E+00
  0.00000000E+00  0.00000000E+00  0.00000000E+00  0.00000000E+00  5.82510183E-05
  0.00000000E+00  0.00000000E+00  8.77974945E-03  0.00000000E+00  0.00000000E+00
  0.00000000E+00  1.00165518E-07  0.00000000E+00  0.00000000E+00  0.00000000E+00
  0.00000000E+00  3.35215462E-03  0.00000000E+00  0.00000000E+00  0.00000000E+00
  0.00000000E+00  0.00000000E+00  0.00000000E+00  0.00000000E+00  8.96990102E-06
  0.00000000E+00  0.00000000E+00  3.72153907E-03  0.00000000E+00  0.00000000E+00
  2.89559162E-02  0.00000000E+00  0.00000000E+00  0.00000000E+00  1.88422089E-04
  0.00000000E+00  0.00000000E+00  0.00000000E+00  0.00000000E+00  4.29317059E-02
  0.00000000E+00  0.00000000E+00  0.00000000E+00  0.00000000E+00  0.00000000E+00
  0.00000000E+00  0.00000000E+00  2.83847990E-02  0.00000000E+00  0.00000000E+00
  3.61100672E-02  0.00000000E+00  0.00000000E+00  1.45595545E-02  0.00000000E+00
  0.00000000E+00  0.00000000E+00 -1.25268145E+00 -1.95708514E-26  2.81073693E-21
  7.53317302E-19  4.32318939E-18  0.00000000E+00  0.00000000E+00  0.00000000E+00
  0.00000000E+00  0.00000000E+00 -5.39930904E-21  0.00000000E+00  0.00000000E+00
 -1.90272866E-18  4.67826716E-24  0.00000000E+00  0.00000000E+00 -2.46152763E-09
  0.00000000E+00  8.02721574E-20  0.00000000E+00  0.00000000E+00 -2.25548700E-04
  0.00000000E+00  5.00711554E-23 -1.66635549E-19 -2.62163099E-18  6.77228802E-18
  0.00000000E+00  0.00000000E+00 -1.79577156E-22  0.00000000E+00  0.00000000E+00
 -3.75574332E-19  0.00000000E+00  0.00000000E+00  4.13939585E-18 -1.07065322E-20
  0.00000000E+00  0.00000000E+00 -8.11118933E-06  0.00000000E+00 -3.57180338E-18
  0.00000000E+00  0.00000000E+00 -5.12299330E-03  0.00000000E+00 -1.19536136E-17
 -4.09322946E-17 -1.53101297E-17  9.66814376E-19  0.00000000E+00  0.00000000E+00
  5.24861463E-19  0.00000000E+00  0.00000000E+00 -9.74909595E-19  0.00000000E+00
  0.00000000E+00 -2.69783042E-19  1.53943463E-17  0.00000000E+00  0.00000000E+00
 -1.24331533E+00  0.00000000E+00  0.00000000E+00  0.00000000E+00  0.00000000E+00
  0.00000000E+00  0.00000000E+00  0.00000000E+00  0.00000000E+00  0.00000000E+00
  0.00000000E+00  0.00000000E+00  0.00000000E+00  0.00000000E+00  0.00000000E+00
  0.00000000E+00  0.00000000E+00  0.00000000E+00 -2.46152763E-09  0.00000000E+00
  0.00000000E+00  0.00000000E+00  0.00000000E+00 -2.25548700E-04  0.00000000E+00
  0.00000000E+00  0.00000000E+00  0.00000000E+00  0.00000000E+00  0.00000000E+00
  0.00000000E+00  0.00000000E+00  0.00000000E+00  0.00000000E+00  0.00000000E+00
  0.00000000E+00  0.00000000E+00  0.00000000E+00  0.00000000E+00  0.00000000E+00
  0.00000000E+00 -8.11118933E-06  0.00000000E+00  0.00000000E+00  0.00000000E+00
  0.00000000E+00 -5.12299330E-03  0.00000000E+00  0.00000000E+00  0.00000000E+00
  0.00000000E+00  0.00000000E+00  0.00000000E+00  0.00000000E+00  0.00000000E+00
  0.00000000E+00  0.00000000E+00  0.00000000E+00  0.00000000E+00  0.00000000E+00
  0.00000000E+00  0.00000000E+00  0.00000000E+00  0.00000000E+00 -1.24331533E+00
 -9.42266319E-03 -5.11777347E-02 -1.25339317E-01 -6.47356976E-02  0.00000000E+00
  0.00000000E+00 -1.57765274E-02  0.00000000E+00  0.00000000E+00 -9.37522883E-02
  0.00000000E+00  0.00000000E+00 -2.16870603E-01 -3.01385648E-02  0.00000000E+00
  0.00000000E+00  1.47921137E-18  0.00000000E+00 -2.01231518E-01  0.00000000E+00
  0.00000000E+00  4.87282841E-18  0.00000000E+00 -1.08618102E-01 -2.26463813E-01
 -2.27875988E-01 -6.76842328E-02  0.00000000E+00  0.00000000E+00 -1.03739453E-01
  0.00000000E+00  0.00000000E+00 -2.93099197E-01  0.00000000E+00  0.00000000E+00
 -1.94809366E-01 -9.99678164E-02  0.00000000E+00  0.00000000E+00  2.28416742E-18
  0.00000000E+00 -2.65304075E-01  0.00000000E+00  0.00000000E+00  2.25767525E-17
  0.00000000E+00 -1.70567957E-03 -1.77902445E-02 -4.18582432E-02 -3.44904543E-02
  0.00000000E+00  0.00000000E+00  1.11854241E-02  0.00000000E+00  0.00000000E+00
  6.87911516E-02  0.00000000E+00  0.00000000E+00  1.14638683E-01 -4.57620194E-01
  0.00000000E+00  0.00000000E+00 -2.63476142E-17  0.00000000E+00 -8.35642266E-01
  0.00000000E+00  0.00000000E+00  0.00000000E+00  0.00000000E+00  1.47689261E-03
  0.00000000E+00  0.00000000E+00  1.39189212E-02  0.00000000E+00  0.00000000E+00
  8.21180990E-02  0.00000000E+00  0.00000000E+00  0.00000000E+00  5.21727638E-03
  0.00000000E+00  0.00000000E+00  0.00000000E+00  0.00000000E+00  7.82514982E-02
  0.00000000E+00  0.00000000E+00  0.00000000E+00  0.00000000E+00  0.00000000E+00
  0.00000000E+00  0.00000000E+00  2.47203914E-02  0.00000000E+00  0.00000000E+00
  9.87777002E-02  0.00000000E+00  0.00000000E+00  1.90731151E-01  0.00000000E+00
  0.00000000E+00  0.00000000E+00  4.84793834E-02  0.00000000E+00  0.00000000E+00
  0.00000000E+00  0.00000000E+00  2.67513937E-01  0.00000000E+00  0.00000000E+00
  0.00000000E+00  0.00000000E+00  0.00000000E+00  0.00000000E+00  0.00000000E+00
  8.89123560E-03  0.00000000E+00  0.00000000E+00  4.77650127E-02  0.00000000E+00
  0.00000000E+00  6.71413644E-02  0.00000000E+00  0.00000000E+00  0.00000000E+00
 -4.54339204E-01  0.00000000E+00  0.00000000E+00  0.00000000E+00  0.00000000E+00
 -8.05094175E-01  0.00000000E+00  0.00000000E+00  0.00000000E+00  0.00000000E+00
  0.00000000E+00  1.47689261E-03  0.00000000E+00  0.00000000E+00  1.39189212E-02
  0.00000000E+00  0.00000000E+00  8.21180990E-02  0.00000000E+00  0.00000000E+00
  0.00000000E+00  5.21727638E-03  0.00000000E+00  0.00000000E+00  0.00000000E+00
  0.00000000E+00  7.82514982E-02  0.00000000E+00  0.00000000E+00  0.00000000E+00
  0.00000000E+00  0.00000000E+00  0.00000000E+00  0.00000000E+00  2.47203914E-02
  0.00000000E+00  0.00000000E+00  9.87777002E-02  0.00000000E+00  0.00000000E+00
  1.90731151E-01  0.00000000E+00  0.00000000E+00  0.00000000E+00  4.84793834E-02
  0.00000000E+00  0.00000000E+00  0.00000000E+00  0.00000000E+00  2.67513937E-01
  0.00000000E+00  0.00000000E+00  0.00000000E+00  0.00000000E+00  0.00000000E+00
  0.00000000E+00  0.00000000E+00  8.89123560E-03  0.00000000E+00  0.00000000E+00
  4.77650127E-02  0.00000000E+00  0.00000000E+00  6.71413644E-02  0.00000000E+00
  0.00000000E+00  0.00000000E+00 -4.54339204E-01  0.00000000E+00  0.00000000E+00
  0.00000000E+00  0.00000000E+00 -8.05094175E-01  1.91318033E-21 -2.86559078E-20
  1.78357441E-18 -2.13125523E-18  0.00000000E+00  0.00000000E+00  8.25924064E-21
  0.00000000E+00  0.00000000E+00 -2.47685953E-19  0.00000000E+00  0.00000000E+00
 -1.65339591E-18  1.13123703E-18  0.00000000E+00  0.00000000E+00 -3.17510195E-04
  0.00000000E+00  1.68148902E-18  0.00000000E+00  0.00000000E+00 -8.41862663E-03
  0.00000000E+00 -1.35446582E-20  1.22648881E-18  5.23720122E-18 -1.36479391E-17
  0.00000000E+00  0.00000000E+00 -7.85796841E-20  0.00000000E+00  0.00000000E+00
  5.15242246E-19  0.00000000E+00  0.00000000E+00 -1.14574326E-17 -9.07854247E-18
  0.00000000E+00  0.00000000E+00 -6.06856267E-03  0.00000000E+00  4.76871809E-18
  0.00000000E+00  0.00000000E+00 -5.45320867E-02  0.00000000E+00 -1.17044143E-17
 -1.25142825E-17 -1.81341488E-17 -2.18064645E-17  0.00000000E+00  0.00000000E+00
  1.53275269E-19  0.00000000E+00  0.00000000E+00  8.48627269E-19  0.00000000E+00
  0.00000000E+00  1.86464109E-18 -9.91891821E-18  0.00000000E+00  0.00000000E+00
 -4.48065041E-01  0.00000000E+00 -9.03733031E-18  0.00000000E+00  0.00000000E+00
 -7.71400961E-01  0.00000000E+00  0.00000000E+00  0.00000000E+00  0.00000000E+00
  0.00000000E+00  0.00000000E+00  0.00000000E+00  0.00000000E+00  0.00000000E+00
  0.00000000E+00  0.00000000E+00  0.00000000E+00  0.00000000E+00  0.00000000E+00
  0.00000000E+00  0.00000000E+00  0.00000000E+00 -3.17510195E-04  0.00000000E+00
  0.00000000E+00  0.00000000E+00  0.00000000E+00 -8.41862663E-03  0.00000000E+00
  0.00000000E+00  0.00000000E+00  0.00000000E+00  0.00000000E+00  0.00000000E+00
  0.00000000E+00  0.00000000E+00  0.00000000E+00  0.00000000E+00  0.00000000E+00
  0.00000000E+00  0.00000000E+00  0.00000000E+00  0.00000000E+00  0.00000000E+00
  0.00000000E+00 -6.06856267E-03  0.00000000E+00  0.00000000E+00  0.00000000E+00
  0.00000000E+00 -5.45320867E-02  0.00000000E+00  0.00000000E+00  0.00000000E+00
  0.00000000E+00  0.00000000E+00  0.00000000E+00  0.00000000E+00  0.00000000E+00
  0.00000000E+00  0.00000000E+00  0.00000000E+00  0.00000000E+00  0.00000000E+00
  0.00000000E+00  0.00000000E+00  0.00000000E+00  0.00000000E+00 -4.48065041E-01
  0.00000000E+00  0.00000000E+00  0.00000000E+00  0.00000000E+00 -7.71400961E-01
Core Hamiltonian Matrix                    R   N=        2415
 -6.68946529E-01 -1.11522051E+00 -1.21325084E+00 -7.25448747E-01 -9.76001938E-01
 -9.68301520E-01 -3.00173455E-01 -4.82752971E-01 -6.22518928E-01 -6.15408223E-01
  0.00000000E+00  0.00000000E+00  0.00000000E+00  0.00000000E+00  1.45394407E+00
  0.00000000E+00  0.00000000E+00  0.00000000E+00  0.00000000E+00  0.00000000E+00
  1.45394407E+00 -2.13059557E-01 -2.28440907E-01 -1.30883278E-01 -5.12975788E-02
  0.00000000E+00  0.00000000E+00  1.27613285E+00  0.00000000E+00  0.00000000E+00
  0.00000000E+00  0.00000000E+00 -1.56698707E-01  0.00000000E+00  0.00000000E+00
 -3.60294077E-01  0.00000000E+00  0.00000000E+00  0.00000000E+00  0.00000000E+00
  0.00000000E+00 -1.56698707E-01  0.00000000E+00  0.00000000E+00 -3.60294077E-01
 -1.34159519E-01 -2.76001900E-01 -2.20148081E-01 -1.01440325E-01  0.00000000E+00
  0.00000000E+00 -3.00615864E-01  0.00000000E+00  0.00000000E+00 -5.84638567E-01
  0.00000000E+00  0.00000000E+00  0.00000000E+00  0.00000000E+00 -2.14239121E-01
  0.00000000E+00  0.00000000E+00 -4.28645333E-01  0.00000000E+00  0.00000000E+00
 -5.50826149E-01  0.00000000E+00  0.00000000E+00  0.00000000E+00  0.00000000E+00
  0.00000000E+00 -2.14239121E-01  0.00000000E+00  0.00000000E+00 -4.28645333E-01
  0.00000000E+00  0.00000000E+00 -5.50826149E-01 -3.89494563E-02 -1.22984292E-01
 -1.62796637E-01 -1.21087779E-01  0.00000000E+00  0.00000000E+00 -2.58245123E-01
  0.00000000E+00  0.00000000E+00 -5.30531704E-01  0.00000000E+00  0.00000000E+00
 -6.45456547E-01 -1.00812675E-01 -1.72294955E-01 -1.12740459E-01 -4.64272519E-02
  0.00000000E+00  0.00000000E+00 -3.15508402E-01  0.00000000E+00  0.00000000E+00
 -3.46235829E-01  0.00000000E+00  0.00000000E+00 -1.21605093E-01  1.77063279E+00
  0.00000000E+00  0.00000000E+00  0.00000000E+00  0.00000000E+00 -1.51402823E-01
  0.00000000E+00  0.00000000E+00 -1.51756907E-01  0.00000000E+00  0.00000000E+00
 -5.36537189E-02  0.00000000E+00  0.00000000E+00  0.00000000E+00  1.98305457E+00
  0.00000000E+00  0.00000000E+00  0.00000000E+00  0.00000000E+00  0.00000000E+00
 -1.51402823E-01  0.00000000E+00  0.00000000E+00 -1.51756907E-01  0.00000000E+00
  0.00000000E+00 -5.36537189E-02  0.00000000E+00  0.00000000E+00  0.00000000E+00
  1.98305457E+00 -3.71227702E-17 -4.50959722E-17  1.78724194E-17 -1.21322087E-17
  0.00000000E+00  0.00000000E+00  3.28237262E-18  0.00000000E+00  0.00000000E+00
  2.32575483E-18  0.00000000E+00  0.00000000E+00 -5.20531796E-19 -9.23764469E-17
  0.00000000E+00  0.00000000E+00  2.09766701E+00  0.00000000E+00  0.00000000E+00
  0.00000000E+00  0.00000000E+00  0.00000000E+00  0.00000000E+00  0.00000000E+00
  0.00000000E+00  0.00000000E+00  0.00000000E+00  0.00000000E+00  0.00000000E+00
  0.00000000E+00  0.00000000E+00  0.00000000E+00  0.00000000E+00  0.00000000E+00
  2.09766701E+00 -2.88694296E-02 -9.33797004E-02 -9.51287416E-02 -5.19733627E-02
  0.00000000E+00  0.00000000E+00 -9.07650421E-02  0.00000000E+00  0.00000000E+00
 -2.31380848E-01  0.00000000E+00  0.00000000E+00 -1.76863790E-01 -1.14312265E-01
  0.00000000E+00  0.00000000E+00 -7.63174069E-18  0.00000000E+00 -2.27086462E-01
  0.00000000E+00  0.00000000E+00  0.00000000E+00  0.00000000E+00 -4.01218876E-02
  0.00000000E+00  0.00000000E+00 -1.14111756E-01  0.00000000E+00  0.00000000E+00
 -1.00744903E-01  0.00000000E+00  0.00000000E+00  0.00000000E+00 -2.67653259E-02
  0.00000000E+00  0.00000000E+00  0.00000000E+00  0.00000000E+00 -1.48564783E-01
  0.00000000E+00  0.00000000E+00  0.00000000E+00  0.00000000E+00  0.00000000E+00
 -4.01218876E-02  0.00000000E+00  0.00000000E+00 -1.14111756E-01  0.00000000E+00
  0.00000000E+00 -1.00744903E-01  0.00000000E+00  0.00000000E+00  0.00000000E+00
 -2.67653259E-02  0.00000000E+00  0.00000000E+00  0.00000000E+00  0.00000000E+00
 -1.48564783E-01 -9.30685768E-18 -3.57348678E-17  1.05440484E-17 -1.11972242E-17
  0.00000000E+00  0.00000000E+00 -1.84813767E-20  0.00000000E+00  0.00000000E+00
  2.57167988E-18  0.00000000E+00  0.00000000E+00 -1.09493621E-19 -2.64722793E-18
  0.00000000E+00  0.00000000E+00  1.99467838E-02  0.00000000E+00  2.92004632E-18
  0.00000000E+00  0.00000000E+00 -8.38733767E-02  0.00000000E+00  0.00000000E+00
  0.00000000E+00  0.00000000E+00  0.00000000E+00  0.00000000E+00  0.00000000E+00
  0.00000000E+00  0.00000000E+00  0.00000000E+00  0.00000000E+00  0.00000000E+00
  0.00000000E+00  0.00000000E+00  0.00000000E+00  0.00000000E+00  0.00000000E+00
  1.99467838E-02  0.00000000E+00  0.00000000E+00  0.00000000E+00  0.00000000E+00
 -8.38733767E-02 -6.58811320E-01 -8.19098560E-01 -6.35019293E-01 -2.93775123E-01
  0.00000000E+00  0.00000000E+00 -5.39215566E-01  0.00000000E+00  0.00000000E+00
 -7.75636950E-01  0.00000000E+00  0.00000000E+00 -4.65579587E-01 -1.83485477E-01
  0.00000000E+00  0.00000000E+00  1.12086242E-17  0.00000000E+00 -3.82881977E-01
  0.00000000E+00  0.00000000E+00 -4.16482856E-19  0.00000000E+00 -7.18193957E-01
 -8.07161815E-01 -1.03508536E+00 -9.05632122E-01 -4.81922021E-01  0.00000000E+00
  0.00000000E+00 -4.12448186E-01  0.00000000E+00  0.00000000E+00 -6.67465809E-01
  0.00000000E+00  0.00000000E+00 -5.24084202E-01 -3.12704370E-01  0.00000000E+00
  0.00000000E+00 -3.14900325E-17  0.00000000E+00 -2.99244060E-01  0.00000000E+00
  0.00000000E+00 -1.74933468E-17  0.00000000E+00 -1.15000323E+00 -1.26249825E+00
 -6.22242319E-01 -8.88597351E-01 -9.26793676E-01 -6.29109949E-01  0.00000000E+00
  0.00000000E+00 -2.11137700E-01  0.00000000E+00  0.00000000E+00 -4.07419504E-01
  0.00000000E+00  0.00000000E+00 -4.28392541E-01 -1.54475663E-01  0.00000000E+00
  0.00000000E+00 -4.65938230E-17  0.00000000E+00 -1.87887164E-01  0.00000000E+00
  0.00000000E+00  1.13242953E-17  0.00000000E+00 -7.43844033E-01 -1.01485005E+00
 -1.01703192E+00 -2.87371911E-01 -4.67061580E-01 -6.10230500E-01 -6.18201864E-01
  0.00000000E+00  0.00000000E+00 -6.24526724E-02  0.00000000E+00  0.00000000E+00
 -1.34469530E-01  0.00000000E+00  0.00000000E+00 -1.98050200E-01 -5.02906273E-02
  0.00000000E+00  0.00000000E+00  6.74409065E-18  0.00000000E+00 -6.47923065E-02
  0.00000000E+00  0.00000000E+00 -2.51360505E-17  0.00000000E+00 -3.07200028E-01
 -5.01044519E-01 -6.55152538E-01 -6.44561996E-01  0.00000000E+00  0.00000000E+00
  0.00000000E+00  0.00000000E+00 -1.56641269E-01  0.00000000E+00  0.00000000E+00
 -2.43091061E-01  0.00000000E+00  0.00000000E+00 -1.91876611E-01  0.00000000E+00
  0.00000000E+00  0.00000000E+00  3.11833553E-01  0.00000000E+00  0.00000000E+00
  0.00000000E+00  0.00000000E+00 -1.65010288E-01  0.00000000E+00  0.00000000E+00
  0.00000000E+00  0.00000000E+00  0.00000000E+00  0.00000000E+00  0.00000000E+00
  1.40562374E+00  0.00000000E+00  0.00000000E+00  0.00000000E+00  0.00000000E+00
  0.00000000E+00 -1.56641269E-01  0.00000000E+00  0.00000000E+00 -2.43091061E-01
  0.00000000E+00  0.00000000E+00 -1.91876611E-01  0.00000000E+00  0.00000000E+00
  0.00000000E+00  3.11833553E-01  0.00000000E+00  0.00000000E+00  0.00000000E+00
  0.00000000E+00 -1.65010288E-01  0.00000000E+00  0.00000000E+00  0.00000000E+00
  0.00000000E+00  0.00000000E+00  0.00000000E+00  0.00000000E+00  1.40562374E+00
  5.32247828E-01  4.01153951E-01  1.97716824E-01  5.52462274E-02  0.00000000E+00
  0.00000000E+00 -4.72789555E-01  0.00000000E+00  0.00000000E+00 -5.17466897E-02
  0.00000000E+00  0.00000000E+00 -8.11921055E-02 -7.23044446E-01  0.00000000E+00
  0.00000000E+00  8.89411142E-18  0.00000000E+00 -1.31795166E-01  0.00000000E+00
  0.00000000E+00 -1.28500388E-18  0.00000000E+00  1.83245314E-01  1.94657596E-01
  1.10824190E-01  4.33060413E-02  0.00000000E+00  0.00000000E+00  1.22503123E+00
  0.00000000E+00  0.00000000E+00  0.00000000E+00  0.00000000E+00 -2.34209144E-01
  0.00000000E+00  0.00000000E+00 -3.98965635E-01  0.00000000E+00  0.00000000E+00
 -4.05589218E-01  0.00000000E+00  0.00000000E+00  0.00000000E+00 -6.63111302E-02
  0.00000000E+00  0.00000000E+00  0.00000000E+00  0.00000000E+00 -2.07336346E-01
  0.00000000E+00  0.00000000E+00  0.00000000E+00  0.00000000E+00  0.00000000E+00
  0.00000000E+00  0.00000000E+00 -1.86088381E-01  0.00000000E+00  0.00000000E+00
 -4.06179581E-01  0.00000000E+00  0.00000000E+00  0.00000000E+00  0.00000000E+00
  0.00000000E+00 -2.34209144E-01  0.00000000E+00  0.00000000E+00 -3.98965635E-01
  0.00000000E+00  0.00000000E+00 -4.05589218E-01  0.00000000E+00  0.00000000E+00
  0.00000000E+00 -6.63111302E-02  0.00000000E+00  0.00000000E+00  0.00000000E+00
  0.00000000E+00 -2.07336346E-01  0.00000000E+00  0.00000000E+00  0.00000000E+00
  0.00000000E+00  0.00000000E+00  0.00000000E+00  0.00000000E+00 -1.86088381E-01
  0.00000000E+00  0.00000000E+00 -4.06179581E-01  7.50132977E-01  6.28793227E-01
  3.59472019E-01  1.02330932E-01  0.00000000E+00  0.00000000E+00 -3.49122924E-02
  0.00000000E+00  0.00000000E+00 -1.76588136E-01  0.00000000E+00  0.00000000E+00
 -2.70685535E-01 -3.03901187E-02  0.00000000E+00  0.00000000E+00  2.59811989E-17
  0.00000000E+00 -2.06060940E-01  0.00000000E+00  0.00000000E+00  2.94287675E-18
  0.00000000E+00  1.13801343E-01  2.14014443E-01  1.53597722E-01  6.57378339E-02
  0.00000000E+00  0.00000000E+00 -3.32686728E-01  0.00000000E+00  0.00000000E+00
 -6.40609810E-01  0.00000000E+00  0.00000000E+00  0.00000000E+00  0.00000000E+00
 -1.85852788E-01  0.00000000E+00  0.00000000E+00 -3.92775184E-01  0.00000000E+00
  0.00000000E+00 -5.31950591E-01  0.00000000E+00  0.00000000E+00  0.00000000E+00
 -8.64645093E-02  0.00000000E+00  0.00000000E+00  0.00000000E+00  0.00000000E+00
 -2.05263705E-01  0.00000000E+00  0.00000000E+00  0.00000000E+00  0.00000000E+00
  0.00000000E+00  0.00000000E+00  0.00000000E+00 -2.22727662E-01  0.00000000E+00
  0.00000000E+00 -4.54741070E-01  0.00000000E+00  0.00000000E+00 -5.87395197E-01
  0.00000000E+00  0.00000000E+00  0.00000000E+00  0.00000000E+00  0.00000000E+00
 -1.85852788E-01  0.00000000E+00  0.00000000E+00 -3.92775184E-01  0.00000000E+00
  0.00000000E+00 -5.31950591E-01  0.00000000E+00  0.00000000E+00  0.00000000E+00
 -8.64645093E-02  0.00000000E+00  0.00000000E+00  0.00000000E+00  0.00000000E+00
 -2.05263705E-01  0.00000000E+00  0.00000000E+00  0.00000000E+00  0.00000000E+00
  0.00000000E+00  0.00000000E+00  0.00000000E+00 -2.22727662E-01  0.00000000E+00
  0.00000000E+00 -4.54741070E-01  0.00000000E+00  0.00000000E+00 -5.87395197E-01
  4.49682173E-01  4.77730642E-01  3.33660910E-01  9.10496998E-02  0.00000000E+00
  0.00000000E+00 -6.41275131E-02  0.00000000E+00  0.00000000E+00 -2.29081841E-01
  0.00000000E+00  0.00000000E+00 -4.53313170E-01 -4.10102279E-02  0.00000000E+00
  0.00000000E+00  2.10239583E-17  0.00000000E+00 -1.96029999E-01  0.00000000E+00
  0.00000000E+00  4.14848120E-18  0.00000000E+00  3.26174557E-02  8.10296136E-02
  5.33512474E-02  4.78430247E-03  0.00000000E+00  0.00000000E+00 -2.67660177E-01
  0.00000000E+00  0.00000000E+00 -5.66107186E-01  0.00000000E+00  0.00000000E+00
 -7.13239641E-01 -1.64119724E-01 -2.98006184E-01 -1.50447069E-01 -5.06880632E-02
  0.00000000E+00  0.00000000E+00  7.21898549E-01  0.00000000E+00  0.00000000E+00
  3.07659567E-02  0.00000000E+00  0.00000000E+00  3.12641488E-02 -5.70874452E-02
  0.00000000E+00  0.00000000E+00 -1.95793577E-17  0.00000000E+00 -6.14243313E-02
  0.00000000E+00  0.00000000E+00 -2.97765240E-18  0.00000000E+00 -1.02499234E-01
 -1.76201312E-01 -1.15782636E-01 -4.77805107E-02  0.00000000E+00  0.00000000E+00
  2.80786578E-01  0.00000000E+00  0.00000000E+00  3.00246461E-01  0.00000000E+00
  0.00000000E+00  1.02612916E-01  1.71860090E+00  0.00000000E+00  0.00000000E+00
  0.00000000E+00  0.00000000E+00 -3.22961970E-01  0.00000000E+00  0.00000000E+00
  5.38871292E-02  0.00000000E+00  0.00000000E+00  7.65852324E-02  0.00000000E+00
  0.00000000E+00  0.00000000E+00 -9.82073614E-01  0.00000000E+00  0.00000000E+00
  0.00000000E+00  0.00000000E+00 -5.11928874E-02  0.00000000E+00  0.00000000E+00
  0.00000000E+00  0.00000000E+00  0.00000000E+00  0.00000000E+00  0.00000000E+00
  1.23018024E-01  0.00000000E+00  0.00000000E+00  1.15646840E-01  0.00000000E+00
  0.00000000E+00  3.90941643E-02  0.00000000E+00  0.00000000E+00  0.00000000E+00
  1.93278392E+00  0.00000000E+00  0.00000000E+00  0.00000000E+00  0.00000000E+00
  0.00000000E+00 -3.22961970E-01  0.00000000E+00  0.00000000E+00  5.38871292E-02
  0.00000000E+00  0.00000000E+00  7.65852324E-02  0.00000000E+00  0.00000000E+00
  0.00000000E+00 -9.82073614E-01  0.00000000E+00  0.00000000E+00  0.00000000E+00
  0.00000000E+00 -5.11928874E-02  0.00000000E+00  0.00000000E+00  0.00000000E+00
  0.00000000E+00  0.00000000E+00  0.00000000E+00  0.00000000E+00  1.23018024E-01
  0.00000000E+00  0.00000000E+00  1.15646840E-01  0.00000000E+00  0.00000000E+00
  3.90941643E-02  0.00000000E+00  0.00000000E+00  0.00000000E+00  1.93278392E+00
 -3.08490192E-17  5.22414046E-17  2.23714536E-17 -3.64348141E-18  0.00000000E+00
  0.00000000E+00  2.15939555E-17  0.00000000E+00  0.00000000E+00 -4.25902624E-17
  0.00000000E+00  0.00000000E+00  1.04518495E-18 -1.27314360E-17  0.00000000E+00
  0.00000000E+00  2.92489522E-01  0.00000000E+00  2.09593362E-18  0.00000000E+00
  0.00000000E+00 -5.36675270E-02  0.00000000E+00  4.00418908E-17 -4.92428168E-17
  9.27189052E-18  8.87093163E-18  0.00000000E+00  0.00000000E+00 -2.87759858E-18
  0.00000000E+00  0.00000000E+00 -2.28048074E-18  0.00000000E+00  0.00000000E+00
 -9.44408638E-19 -5.99570052E-17  0.00000000E+00  0.00000000E+00  2.05083503E+00
  0.00000000E+00  0.00000000E+00  0.00000000E+00  0.00000000E+00  0.00000000E+00
  0.00000000E+00  0.00000000E+00  0.00000000E+00  0.00000000E+00  0.00000000E+00
  0.00000000E+00  0.00000000E+00  0.00000000E+00  0.00000000E+00  0.00000000E+00
  0.00000000E+00  0.00000000E+00  2.92489522E-01  0.00000000E+00  0.00000000E+00
  0.00000000E+00  0.00000000E+00 -5.36675270E-02  0.00000000E+00  0.00000000E+00
  0.00000000E+00  0.00000000E+00  0.00000000E+00  0.00000000E+00  0.00000000E+00
  0.00000000E+00  0.00000000E+00  0.00000000E+00  0.00000000E+00  0.00000000E+00
  0.00000000E+00  0.00000000E+00  0.00000000E+00  0.00000000E+00  0.00000000E+00
  2.05083503E+00 -3.59017504E-01 -2.56098547E-01 -1.59657575E-01 -6.63923090E-02
  0.00000000E+00  0.00000000E+00  1.05677332E-01  0.00000000E+00  0.00000000E+00
  1.58336901E-01  0.00000000E+00  0.00000000E+00  1.24383783E-01 -4.37988961E-02
  0.00000000E+00  0.00000000E+00 -1.75055284E-17  0.00000000E+00 -1.30423794E-01
  0.00000000E+00  0.00000000E+00  1.18014405E-17  0.00000000E+00 -2.95123981E-02
 -1.00085008E-01 -1.10760434E-01 -6.44859868E-02  0.00000000E+00  0.00000000E+00
  7.95796180E-02  0.00000000E+00  0.00000000E+00  1.62589696E-01  0.00000000E+00
  0.00000000E+00  6.22251065E-02 -1.37354314E-01  0.00000000E+00  0.00000000E+00
 -3.64300770E-17  0.00000000E+00 -2.92553154E-01  0.00000000E+00  0.00000000E+00
  0.00000000E+00  0.00000000E+00  1.48164452E-01  0.00000000E+00  0.00000000E+00
  1.67639310E-01  0.00000000E+00  0.00000000E+00  1.53615437E-01  0.00000000E+00
  0.00000000E+00  0.00000000E+00 -3.24112292E-02  0.00000000E+00  0.00000000E+00
  0.00000000E+00  0.00000000E+00 -1.35187566E-01  0.00000000E+00  0.00000000E+00
  0.00000000E+00  0.00000000E+00  0.00000000E+00  0.00000000E+00  0.00000000E+00
  3.12306520E-02  0.00000000E+00  0.00000000E+00  6.63467434E-02  0.00000000E+00
  0.00000000E+00  3.36035383E-02  0.00000000E+00  0.00000000E+00  0.00000000E+00
 -4.83646419E-02  0.00000000E+00  0.00000000E+00  0.00000000E+00  0.00000000E+00
 -1.99233356E-01  0.00000000E+00  0.00000000E+00  0.00000000E+00  0.00000000E+00
  0.00000000E+00  1.48164452E-01  0.00000000E+00  0.00000000E+00  1.67639310E-01
  0.00000000E+00  0.00000000E+00  1.53615437E-01  0.00000000E+00  0.00000000E+00
  0.00000000E+00 -3.24112292E-02  0.00000000E+00  0.00000000E+00  0.00000000E+00
  0.00000000E+00 -1.35187566E-01  0.00000000E+00  0.00000000E+00  0.00000000E+00
  0.00000000E+00  0.00000000E+00  0.00000000E+00  0.00000000E+00  3.12306520E-02
  0.00000000E+00  0.00000000E+00  6.63467434E-02  0.00000000E+00  0.00000000E+00
  3.36035383E-02  0.00000000E+00  0.00000000E+00  0.00000000E+00 -4.83646419E-02
  0.00000000E+00  0.00000000E+00  0.00000000E+00  0.00000000E+00 -1.99233356E-01
  3.94746013E-18 -2.69954095E-17 -3.34671499E-17  2.64675596E-17  0.00000000E+00
  0.00000000E+00  9.84167665E-19  0.00000000E+00  0.00000000E+00 -2.05232890E-17
  0.00000000E+00  0.00000000E+00 -3.28127036E-17  4.49052628E-17  0.00000000E+00
  0.00000000E+00 -4.57478946E-02  0.00000000E+00  4.62764799E-17  0.00000000E+00
  0.00000000E+00 -1.45081597E-01  0.00000000E+00  3.99535457E-18 -4.04834535E-17
 -2.36177187E-17 -1.71596246E-17  0.00000000E+00  0.00000000E+00  7.32567846E-19
  0.00000000E+00  0.00000000E+00  4.91398077E-20  0.00000000E+00  0.00000000E+00
  1.71429949E-18  1.26159604E-17  0.00000000E+00  0.00000000E+00  6.09589921E-04
  0.00000000E+00  1.99731959E-17  0.00000000E+00  0.00000000E+00 -1.23524011E-01
  0.00000000E+00  0.00000000E+00  0.00000000E+00  0.00000000E+00  0.00000000E+00
  0.00000000E+00  0.00000000E+00  0.00000000E+00  0.00000000E+00  0.00000000E+00
  0.00000000E+00  0.00000000E+00  0.00000000E+00  0.00000000E+00  0.00000000E+00
  0.00000000E+00  0.00000000E+00 -4.57478946E-02  0.00000000E+00  0.00000000E+00
  0.00000000E+00  0.00000000E+00 -1.45081597E-01  0.00000000E+00  0.00000000E+00
  0.00000000E+00  0.00000000E+00  0.00000000E+00  0.00000000E+00  0.00000000E+00
  0.00000000E+00  0.00000000E+00  0.00000000E+00  0.00000000E+00  0.00000000E+00
  0.00000000E+00  0.00000000E+00  0.00000000E+00  0.00000000E+00  0.00000000E+00
  6.09589921E-04  0.00000000E+00  0.00000000E+00  0.00000000E+00  0.00000000E+00
 -1.23524011E-01  0.00000000E+00 -2.38028495E-04 -2.13254301E-02 -9.41252434E-02
  0.00000000E+00  0.00000000E+00  0.00000000E+00  0.00000000E+00  0.00000000E+00
 -4.20916350E-04  0.00000000E+00  0.00000000E+00 -7.23521994E-02 -3.78258627E-07
  0.00000000E+00  0.00000000E+00 -5.15376001E-25  0.00000000E+00 -1.25786763E-02
  0.00000000E+00  0.00000000E+00 -1.17481937E-20  0.00000000E+00 -2.61670818E-05
 -8.21099527E-03 -8.20716404E-02 -1.36719773E-01  0.00000000E+00  0.00000000E+00
 -4.92820660E-05  0.00000000E+00  0.00000000E+00 -1.80082768E-02  0.00000000E+00
  0.00000000E+00 -2.10020246E-01 -6.24354075E-04  0.00000000E+00  0.00000000E+00
 -4.66118761E-22  0.00000000E+00 -1.16122541E-01  0.00000000E+00  0.00000000E+00
  1.80341556E-19  0.00000000E+00 -1.81333741E-01 -2.85154950E-04 -5.84443789E-03
 -5.41951448E-02 -1.58572202E-01  0.00000000E+00  0.00000000E+00 -5.57292562E-04
  0.00000000E+00  0.00000000E+00 -1.17584112E-02  0.00000000E+00  0.00000000E+00
 -1.45560192E-01 -1.65433576E-03  0.00000000E+00  0.00000000E+00 -1.15758265E-20
  0.00000000E+00 -5.45143798E-02  0.00000000E+00  0.00000000E+00  4.22340760E-20
  0.00000000E+00 -8.71151365E-03 -4.79633481E-02 -1.58075620E-01 -2.23742007E-01
  0.00000000E+00  0.00000000E+00 -1.30437407E-02  0.00000000E+00  0.00000000E+00
 -8.28317066E-02  0.00000000E+00  0.00000000E+00 -3.20576669E-01 -2.06931005E-02
  0.00000000E+00  0.00000000E+00  2.93620011E-19  0.00000000E+00 -1.82674953E-01
  0.00000000E+00  0.00000000E+00  9.31475453E-19  0.00000000E+00 -7.76324081E-01
 -7.96922787E-01 -2.84297417E-02 -7.20355243E-02 -1.57588780E-01 -2.68891329E-01
  0.00000000E+00  0.00000000E+00 -2.56558190E-02  0.00000000E+00  0.00000000E+00
 -8.78514736E-02  0.00000000E+00  0.00000000E+00 -2.63703144E-01 -2.64216804E-02
  0.00000000E+00  0.00000000E+00 -2.97635837E-20  0.00000000E+00 -1.15435571E-01
  0.00000000E+00  0.00000000E+00 -2.71262781E-18  0.00000000E+00 -9.94892557E-02
 -1.83697306E-01 -3.06499173E-01 -3.55792373E-01  0.00000000E+00  0.00000000E+00
 -4.36117136E-02  0.00000000E+00  0.00000000E+00 -1.42748246E-01  0.00000000E+00
  0.00000000E+00 -3.84274997E-01 -2.58631031E-02  0.00000000E+00  0.00000000E+00
 -2.05153591E-18  0.00000000E+00 -1.54379076E-01  0.00000000E+00  0.00000000E+00
 -6.03077371E-18  0.00000000E+00 -5.48556874E-01 -6.93543847E-01 -7.31575252E-01
 -1.23094227E-01 -2.14696173E-01 -3.14897034E-01 -4.05784087E-01  0.00000000E+00
  0.00000000E+00 -4.55108126E-02  0.00000000E+00  0.00000000E+00 -1.15296934E-01
  0.00000000E+00  0.00000000E+00 -2.40993200E-01 -3.31563834E-02  0.00000000E+00
  0.00000000E+00  5.24769576E-18  0.00000000E+00 -7.11201380E-02  0.00000000E+00
  0.00000000E+00  1.38882375E-17  0.00000000E+00 -1.76238772E-01 -2.93264834E-01
 -4.16900108E-01 -4.80507185E-01  0.00000000E+00  0.00000000E+00 -2.93071841E-03
  0.00000000E+00  0.00000000E+00 -4.28214119E-02  0.00000000E+00  0.00000000E+00
 -1.99081298E-01 -2.26664755E-02  0.00000000E+00  0.00000000E+00  9.31510604E-18
  0.00000000E+00 -5.97127386E-02  0.00000000E+00  0.00000000E+00 -1.34233904E-17
  0.00000000E+00 -2.33050578E-01 -3.61513126E-01 -5.06918233E-01 -5.53868063E-01
  0.00000000E+00  0.00000000E+00  0.00000000E+00  0.00000000E+00  0.00000000E+00
  0.00000000E+00  0.00000000E+00 -4.18893778E-05  0.00000000E+00  0.00000000E+00
 -7.33125905E-03  0.00000000E+00  0.00000000E+00  0.00000000E+00  0.00000000E+00
  0.00000000E+00  0.00000000E+00  0.00000000E+00  0.00000000E+00 -2.47034341E-03
  0.00000000E+00  0.00000000E+00  0.00000000E+00  0.00000000E+00  0.00000000E+00
  0.00000000E+00  0.00000000E+00 -3.12419246E-06  0.00000000E+00  0.00000000E+00
 -2.68883201E-03  0.00000000E+00  0.00000000E+00 -2.62042971E-02  0.00000000E+00
  0.00000000E+00  0.00000000E+00 -1.03859300E-04  0.00000000E+00  0.00000000E+00
  0.00000000E+00  0.00000000E+00 -2.82618211E-02  0.00000000E+00  0.00000000E+00
  0.00000000E+00  0.00000000E+00  0.00000000E+00  0.00000000E+00  0.00000000E+00
  1.88328133E+00  0.00000000E+00  0.00000000E+00  0.00000000E+00  0.00000000E+00
  0.00000000E+00  0.00000000E+00  0.00000000E+00  0.00000000E+00 -4.18893778E-05
  0.00000000E+00  0.00000000E+00 -7.33125905E-03  0.00000000E+00  0.00000000E+00
  0.00000000E+00  0.00000000E+00  0.00000000E+00  0.00000000E+00  0.00000000E+00
  0.00000000E+00 -2.47034341E-03  0.00000000E+00  0.00000000E+00  0.00000000E+00
  0.00000000E+00  0.00000000E+00  0.00000000E+00  0.00000000E+00 -3.12419246E-06
  0.00000000E+00  0.00000000E+00 -2.68883201E-03  0.00000000E+00  0.00000000E+00
 -2.62042971E-02  0.00000000E+00  0.00000000E+00  0.00000000E+00 -1.03859300E-04
  0.00000000E+00  0.00000000E+00  0.00000000E+00  0.00000000E+00 -2.82618211E-02
  0.00000000E+00  0.00000000E+00  0.00000000E+00  0.00000000E+00  0.00000000E+00
  0.00000000E+00  0.00000000E+00  1.88328133E+00  0.00000000E+00  4.49901908E-04
  1.49623614E-02  1.96296146E-02  0.00000000E+00  0.00000000E+00  0.00000000E+00
  0.00000000E+00  0.00000000E+00  8.37939290E-04  0.00000000E+00  0.00000000E+00
  4.13343444E-02  0.00000000E+00  0.00000000E+00  0.00000000E+00  0.00000000E+00
  0.00000000E+00  1.70884375E-02  0.00000000E+00  0.00000000E+00  6.86754913E-22
  0.00000000E+00  4.92231648E-05  1.23593487E-02  4.23288559E-02  2.29034320E-02
  0.00000000E+00  0.00000000E+00  8.77817111E-05  0.00000000E+00  0.00000000E+00
  2.83957297E-02  0.00000000E+00  0.00000000E+00  7.57749166E-02  1.34559040E-03
  0.00000000E+00  0.00000000E+00 -2.86081958E-21  0.00000000E+00  8.90872248E-02
  0.00000000E+00  0.00000000E+00  2.80109938E-20  0.00000000E+00  2.98142424E-02
  3.37833106E-02  2.00590882E-02  7.99153757E-03  0.00000000E+00  0.00000000E+00
  1.87590306E+00  0.00000000E+00  0.00000000E+00  0.00000000E+00  0.00000000E+00
 -4.64416316E-05  0.00000000E+00  0.00000000E+00 -1.94855892E-03  0.00000000E+00
  0.00000000E+00 -2.83386153E-02  0.00000000E+00  0.00000000E+00  0.00000000E+00
 -3.16616360E-04  0.00000000E+00  0.00000000E+00  0.00000000E+00  0.00000000E+00
 -1.91810621E-02  0.00000000E+00  0.00000000E+00  0.00000000E+00  0.00000000E+00
  0.00000000E+00  0.00000000E+00  0.00000000E+00 -2.82812830E-03  0.00000000E+00
  0.00000000E+00 -2.27975561E-02  0.00000000E+00  0.00000000E+00 -7.90434409E-02
  0.00000000E+00  0.00000000E+00  0.00000000E+00 -9.66963673E-03  0.00000000E+00
  0.00000000E+00  0.00000000E+00  0.00000000E+00 -8.59059526E-02  0.00000000E+00
  0.00000000E+00  0.00000000E+00  0.00000000E+00  0.00000000E+00  0.00000000E+00
  0.00000000E+00  8.72498076E-02  0.00000000E+00  0.00000000E+00 -5.85228348E-02
  0.00000000E+00  0.00000000E+00  0.00000000E+00  0.00000000E+00  0.00000000E+00
 -4.64416316E-05  0.00000000E+00  0.00000000E+00 -1.94855892E-03  0.00000000E+00
  0.00000000E+00 -2.83386153E-02  0.00000000E+00  0.00000000E+00  0.00000000E+00
 -3.16616360E-04  0.00000000E+00  0.00000000E+00  0.00000000E+00  0.00000000E+00
 -1.91810621E-02  0.00000000E+00  0.00000000E+00  0.00000000E+00  0.00000000E+00
  0.00000000E+00  0.00000000E+00  0.00000000E+00 -2.82812830E-03  0.00000000E+00
  0.00000000E+00 -2.27975561E-02  0.00000000E+00  0.00000000E+00 -7.90434409E-02
  0.00000000E+00  0.00000000E+00  0.00000000E+00 -9.66963673E-03  0.00000000E+00
  0.00000000E+00  0.00000000E+00  0.00000000E+00 -8.59059526E-02  0.00000000E+00
  0.00000000E+00  0.00000000E+00  0.00000000E+00  0.00000000E+00  0.00000000E+00
  0.00000000E+00  8.72498076E-02  0.00000000E+00  0.00000000E+00 -5.85228348E-02
  4.95710491E-04  1.17111304E-02  6.27028813E-02  6.80185479E-02  0.00000000E+00
  0.00000000E+00  1.01168573E-03  0.00000000E+00  0.00000000E+00  2.41055981E-02
  0.00000000E+00  0.00000000E+00  1.35891743E-01  3.42667394E-03  0.00000000E+00
  0.00000000E+00  6.08608245E-21  0.00000000E+00  8.80044311E-02  0.00000000E+00
  0.00000000E+00  4.05080377E-19  0.00000000E+00  1.89951515E-02  8.37156273E-02
  1.39821449E-01  7.86735053E-02  0.00000000E+00  0.00000000E+00  2.98788067E-02
  0.00000000E+00  0.00000000E+00  1.37650154E-01  0.00000000E+00  0.00000000E+00
  1.87097578E-01  4.58857502E-02  0.00000000E+00  0.00000000E+00 -5.30463084E-19
  0.00000000E+00  1.54189271E-01  0.00000000E+00  0.00000000E+00  6.07026717E-19
  0.00000000E+00  2.03581761E-02  6.19874569E-02  6.65503596E-02  3.57024913E-02
  0.00000000E+00  0.00000000E+00  8.01370936E-02  0.00000000E+00  0.00000000E+00
 -8.52785388E-02  0.00000000E+00  0.00000000E+00  0.00000000E+00  0.00000000E+00
 -9.71342043E-03  0.00000000E+00  0.00000000E+00 -3.56535292E-02  0.00000000E+00
  0.00000000E+00 -1.08556156E-01  0.00000000E+00  0.00000000E+00  0.00000000E+00
 -1.35677501E-02  0.00000000E+00  0.00000000E+00  0.00000000E+00  0.00000000E+00
 -7.96886454E-02  0.00000000E+00  0.00000000E+00  0.00000000E+00  0.00000000E+00
  0.00000000E+00  0.00000000E+00  0.00000000E+00 -3.35415833E-02  0.00000000E+00
  0.00000000E+00 -9.46143065E-02  0.00000000E+00  0.00000000E+00 -2.04871819E-01
  0.00000000E+00  0.00000000E+00  0.00000000E+00 -2.40611560E-02  0.00000000E+00
  0.00000000E+00  0.00000000E+00  0.00000000E+00 -1.29791752E-01  0.00000000E+00
  0.00000000E+00  0.00000000E+00  0.00000000E+00  0.00000000E+00  0.00000000E+00
  0.00000000E+00 -1.46256654E-01  0.00000000E+00  0.00000000E+00 -2.87192943E-01
  0.00000000E+00  0.00000000E+00 -4.25728678E-01  0.00000000E+00  0.00000000E+00
  0.00000000E+00  0.00000000E+00  0.00000000E+00 -9.71342043E-03  0.00000000E+00
  0.00000000E+00 -3.56535292E-02  0.00000000E+00  0.00000000E+00 -1.08556156E-01
  0.00000000E+00  0.00000000E+00  0.00000000E+00 -1.35677501E-02  0.00000000E+00
  0.00000000E+00  0.00000000E+00  0.00000000E+00 -7.96886454E-02  0.00000000E+00
  0.00000000E+00  0.00000000E+00  0.00000000E+00  0.00000000E+00  0.00000000E+00
  0.00000000E+00 -3.35415833E-02  0.00000000E+00  0.00000000E+00 -9.46143065E-02
  0.00000000E+00  0.00000000E+00 -2.04871819E-01  0.00000000E+00  0.00000000E+00
  0.00000000E+00 -2.40611560E-02  0.00000000E+00  0.00000000E+00  0.00000000E+00
  0.00000000E+00 -1.29791752E-01  0.00000000E+00  0.00000000E+00  0.00000000E+00
  0.00000000E+00  0.00000000E+00  0.00000000E+00  0.00000000E+00 -1.46256654E-01
  0.00000000E+00  0.00000000E+00 -2.87192943E-01  0.00000000E+00  0.00000000E+00
 -4.25728678E-01  9.72387526E-02  2.02701900E-01  3.01763981E-01  2.42006849E-01
  0.00000000E+00  0.00000000E+00  7.60276838E-02  0.00000000E+00  0.00000000E+00
  2.11148305E-01  0.00000000E+00  0.00000000E+00  3.47046267E-01  6.89705715E-02
  0.00000000E+00  0.00000000E+00 -1.89710452E-18  0.00000000E+00  1.82640750E-01
  0.00000000E+00  0.00000000E+00  1.06382243E-18  0.00000000E+00  2.62639585E-01
  3.98058844E-01  4.46251684E-01  2.62645657E-01  0.00000000E+00  0.00000000E+00
  7.07206266E-02  0.00000000E+00  0.00000000E+00  1.84366243E-01  0.00000000E+00
  0.00000000E+00  2.48165233E-01  3.32971265E-02  0.00000000E+00  0.00000000E+00
  3.74058250E-18  0.00000000E+00  7.93636804E-02  0.00000000E+00  0.00000000E+00
  1.51917118E-17  0.00000000E+00  6.33200059E-03  4.19546782E-02  1.09445389E-01
  1.16303477E-01  0.00000000E+00  0.00000000E+00 -1.48714525E-01  0.00000000E+00
  0.00000000E+00 -3.12357336E-01  0.00000000E+00  0.00000000E+00 -5.19797199E-01
 -3.82170391E-07 -1.33810581E-03 -1.10352494E-02 -6.03708172E-03  0.00000000E+00
  0.00000000E+00  0.00000000E+00  0.00000000E+00  0.00000000E+00 -2.86197863E-03
  0.00000000E+00  0.00000000E+00 -2.30967101E-02 -1.70290530E-05  0.00000000E+00
  0.00000000E+00 -6.85875155E-23  0.00000000E+00 -2.33338231E-02  0.00000000E+00
  0.00000000E+00  2.62883345E-20  0.00000000E+00 -6.26710065E-04 -1.99025086E-02
 -2.28179779E-02 -6.43399014E-03  0.00000000E+00  0.00000000E+00 -1.35173581E-03
  0.00000000E+00  0.00000000E+00 -4.40121277E-02  0.00000000E+00  0.00000000E+00
 -2.44057211E-02 -9.06604029E-03  0.00000000E+00  0.00000000E+00  5.97742580E-21
  0.00000000E+00 -4.05015497E-02  0.00000000E+00  0.00000000E+00  3.97112376E-19
  0.00000000E+00 -4.47413830E-03 -1.03628632E-02 -8.07034842E-03 -3.58995194E-03
  0.00000000E+00  0.00000000E+00  3.47218244E-02  0.00000000E+00  0.00000000E+00
  4.59893678E-02  0.00000000E+00  0.00000000E+00  1.89921776E-02  2.44263417E+00
  0.00000000E+00  0.00000000E+00  0.00000000E+00  0.00000000E+00  0.00000000E+00
  0.00000000E+00  0.00000000E+00  2.86810083E-04  0.00000000E+00  0.00000000E+00
  8.79669846E-03  0.00000000E+00  0.00000000E+00  0.00000000E+00  1.47520113E-06
  0.00000000E+00  0.00000000E+00  0.00000000E+00  0.00000000E+00  7.10789994E-03
  0.00000000E+00  0.00000000E+00  0.00000000E+00  0.00000000E+00  0.00000000E+00
  0.00000000E+00  0.00000000E+00  1.04299716E-04  0.00000000E+00  0.00000000E+00
  9.29217237E-03  0.00000000E+00  0.00000000E+00  2.20257225E-02  0.00000000E+00
  0.00000000E+00  0.00000000E+00  1.53226071E-03  0.00000000E+00  0.00000000E+00
  0.00000000E+00  0.00000000E+00  4.02300166E-02  0.00000000E+00  0.00000000E+00
  0.00000000E+00  0.00000000E+00  0.00000000E+00  0.00000000E+00  0.00000000E+00
  2.83847990E-02  0.00000000E+00  0.00000000E+00  3.61100672E-02  0.00000000E+00
  0.00000000E+00  1.45595545E-02  0.00000000E+00  0.00000000E+00  0.00000000E+00
  2.44681855E+00  0.00000000E+00  0.00000000E+00  0.00000000E+00  0.00000000E+00
  0.00000000E+00  0.00000000E+00  0.00000000E+00  0.00000000E+00  2.86810083E-04
  0.00000000E+00  0.00000000E+00  8.79669846E-03  0.00000000E+00  0.00000000E+00
  0.00000000E+00  1.47520113E-06  0.00000000E+00  0.00000000E+00  0.00000000E+00
  0.00000000E+00  7.10789994E-03  0.00000000E+00  0.00000000E+00  0.00000000E+00
  0.00000000E+00  0.00000000E+00  0.00000000E+00  0.00000000E+00  1.04299716E-04
  0.00000000E+00  0.00000000E+00  9.29217237E-03  0.00000000E+00  0.00000000E+00
  2.20257225E-02  0.00000000E+00  0.00000000E+00  0.00000000E+00  1.53226071E-03
  0.00000000E+00  0.00000000E+00  0.00000000E+00  0.00000000E+00  4.02300166E-02
  0.00000000E+00  0.00000000E+00  0.00000000E+00  0.00000000E+00  0.00000000E+00
  0.00000000E+00  0.00000000E+00  2.83847990E-02  0.00000000E+00  0.00000000E+00
  3.61100672E-02  0.00000000E+00  0.00000000E+00  1.45595545E-02  0.00000000E+00
  0.00000000E+00  0.00000000E+00  2.44681855E+00 -5.57613936E-25 -9.48460585E-21
  1.16997177E-18  4.37156361E-18  0.00000000E+00  0.00000000E+00  0.00000000E+00
  0.00000000E+00  0.00000000E+00 -6.05054170E-21  0.00000000E+00  0.00000000E+00
 -2.06509551E-18  2.54475114E-23  0.00000000E+00  0.00000000E+00 -4.01615196E-08
  0.00000000E+00 -1.38230688E-20  0.00000000E+00  0.00000000E+00 -5.87033465E-04
  0.00000000E+00 -2.21506163E-22  9.46013625E-20 -2.83488520E-18  7.18486879E-18
  0.00000000E+00  0.00000000E+00  2.67809222E-21  0.00000000E+00  0.00000000E+00
 -8.41502405E-20  0.00000000E+00  0.00000000E+00  4.45264638E-18 -3.14477282E-20
  0.00000000E+00  0.00000000E+00 -7.64375604E-05  0.00000000E+00 -1.91094008E-18
  0.00000000E+00  0.00000000E+00 -7.01627343E-03  0.00000000E+00 -8.71666810E-18
 -4.57119580E-17 -1.46330377E-17  2.87885853E-19  0.00000000E+00  0.00000000E+00
  5.24861463E-19  0.00000000E+00  0.00000000E+00 -9.74909595E-19  0.00000000E+00
  0.00000000E+00 -2.69783042E-19  2.53156629E-18  0.00000000E+00  0.00000000E+00
  2.45618467E+00  0.00000000E+00  0.00000000E+00  0.00000000E+00  0.00000000E+00
  0.00000000E+00  0.00000000E+00  0.00000000E+00  0.00000000E+00  0.00000000E+00
  0.00000000E+00  0.00000000E+00  0.00000000E+00  0.00000000E+00  0.00000000E+00
  0.00000000E+00  0.00000000E+00  0.00000000E+00 -4.01615196E-08  0.00000000E+00
  0.00000000E+00  0.00000000E+00  0.00000000E+00 -5.87033465E-04  0.00000000E+00
  0.00000000E+00  0.00000000E+00  0.00000000E+00  0.00000000E+00  0.00000000E+00
  0.00000000E+00  0.00000000E+00  0.00000000E+00  0.00000000E+00  0.00000000E+00
  0.00000000E+00  0.00000000E+00  0.00000000E+00  0.00000000E+00  0.00000000E+00
  0.00000000E+00 -7.64375604E-05  0.00000000E+00  0.00000000E+00  0.00000000E+00
  0.00000000E+00 -7.01627343E-03  0.00000000E+00  0.00000000E+00  0.00000000E+00
  0.00000000E+00  0.00000000E+00  0.00000000E+00  0.00000000E+00  0.00000000E+00
  0.00000000E+00  0.00000000E+00  0.00000000E+00  0.00000000E+00  0.00000000E+00
  0.00000000E+00  0.00000000E+00  0.00000000E+00  0.00000000E+00  2.45618467E+00
 -1.62693086E-02 -6.84895922E-02 -1.13795396E-01 -6.05701542E-02  0.00000000E+00
  0.00000000E+00 -2.46303544E-02  0.00000000E+00  0.00000000E+00 -1.12691182E-01
  0.00000000E+00  0.00000000E+00 -1.54352757E-01 -3.89697246E-02  0.00000000E+00
  0.00000000E+00  1.48513513E-18  0.00000000E+00 -1.42557040E-01  0.00000000E+00
  0.00000000E+00  3.37513218E-18  0.00000000E+00 -1.33370022E-01 -2.07765156E-01
 -1.76026321E-01 -6.37100487E-02  0.00000000E+00  0.00000000E+00 -1.00960683E-01
  0.00000000E+00  0.00000000E+00 -1.72573388E-01  0.00000000E+00  0.00000000E+00
 -9.51895963E-02 -4.80531171E-02  0.00000000E+00  0.00000000E+00  4.96010598E-19
  0.00000000E+00 -1.81043420E-02  0.00000000E+00  0.00000000E+00  2.20712377E-17
  0.00000000E+00 -1.70567957E-03 -1.77902445E-02 -4.18582432E-02 -3.44904543E-02
  0.00000000E+00  0.00000000E+00  1.11854241E-02  0.00000000E+00  0.00000000E+00
  6.87911516E-02  0.00000000E+00  0.00000000E+00  1.14638683E-01  1.39520543E-01
  0.00000000E+00  0.00000000E+00 -3.11612238E-17  0.00000000E+00  2.88577336E-02
  0.00000000E+00  0.00000000E+00  0.00000000E+00  0.00000000E+00  2.96826146E-03
  0.00000000E+00  0.00000000E+00  2.17153179E-02  0.00000000E+00  0.00000000E+00
  7.17868951E-02  0.00000000E+00  0.00000000E+00  0.00000000E+00  8.97302170E-03
  0.00000000E+00  0.00000000E+00  0.00000000E+00  0.00000000E+00  7.90601161E-02
  0.00000000E+00  0.00000000E+00  0.00000000E+00  0.00000000E+00  0.00000000E+00
  0.00000000E+00  0.00000000E+00  3.25995632E-02  0.00000000E+00  0.00000000E+00
  9.47548190E-02  0.00000000E+00  0.00000000E+00  1.31395879E-01  0.00000000E+00
  0.00000000E+00  0.00000000E+00  4.57776941E-02  0.00000000E+00  0.00000000E+00
  0.00000000E+00  0.00000000E+00  1.26996444E-01  0.00000000E+00  0.00000000E+00
  0.00000000E+00  0.00000000E+00  0.00000000E+00  0.00000000E+00  0.00000000E+00
  8.89123560E-03  0.00000000E+00  0.00000000E+00  4.77650127E-02  0.00000000E+00
  0.00000000E+00  6.71413644E-02  0.00000000E+00  0.00000000E+00  0.00000000E+00
  1.42801533E-01  0.00000000E+00  0.00000000E+00  0.00000000E+00  0.00000000E+00
  5.94058255E-02  0.00000000E+00  0.00000000E+00  0.00000000E+00  0.00000000E+00
  0.00000000E+00  2.96826146E-03  0.00000000E+00  0.00000000E+00  2.17153179E-02
  0.00000000E+00  0.00000000E+00  7.17868951E-02  0.00000000E+00  0.00000000E+00
  0.00000000E+00  8.97302170E-03  0.00000000E+00  0.00000000E+00  0.00000000E+00
  0.00000000E+00  7.90601161E-02  0.00000000E+00  0.00000000E+00  0.00000000E+00
  0.00000000E+00  0.00000000E+00  0.00000000E+00  0.00000000E+00  3.25995632E-02
  0.00000000E+00  0.00000000E+00  9.47548190E-02  0.00000000E+00  0.00000000E+00
  1.31395879E-01  0.00000000E+00  0.00000000E+00  0.00000000E+00  4.57776941E-02
  0.00000000E+00  0.00000000E+00  0.00000000E+00  0.00000000E+00  1.26996444E-01
  0.00000000E+00  0.00000000E+00  0.00000000E+00  0.00000000E+00  0.00000000E+00
  0.00000000E+00  0.00000000E+00  8.89123560E-03  0.00000000E+00  0.00000000E+00
  4.77650127E-02  0.00000000E+00  0.00000000E+00  6.71413644E-02  0.00000000E+00
  0.00000000E+00  0.00000000E+00  1.42801533E-01  0.00000000E+00  0.00000000E+00
  0.00000000E+00  0.00000000E+00  5.94058255E-02 -8.65031398E-21 -1.74841946E-19
  9.74833368E-19 -2.09950601E-18  0.00000000E+00  0.00000000E+00  5.91185711E-21
  0.00000000E+00  0.00000000E+00 -5.42928500E-19  0.00000000E+00  0.00000000E+00
 -1.82814716E-18  1.08398067E-18  0.00000000E+00  0.00000000E+00 -6.78994960E-04
  0.00000000E+00  2.40594492E-18  0.00000000E+00  0.00000000E+00 -1.11302949E-02
  0.00000000E+00  1.63163663E-19  6.90231938E-19  5.35868790E-18 -1.35514223E-17
  0.00000000E+00  0.00000000E+00 -3.43345702E-21  0.00000000E+00  0.00000000E+00
  9.07890762E-19  0.00000000E+00  0.00000000E+00 -1.16591832E-17 -8.71559966E-18
  0.00000000E+00  0.00000000E+00 -7.96184280E-03  0.00000000E+00  4.95951360E-18
  0.00000000E+00  0.00000000E+00 -4.26221026E-02  0.00000000E+00 -1.21184306E-17
 -1.15127308E-17 -2.24707776E-17 -2.17693645E-17  0.00000000E+00  0.00000000E+00
  1.53275269E-19  0.00000000E+00  0.00000000E+00  8.48627269E-19  0.00000000E+00
  0.00000000E+00  1.86464109E-18 -3.64947416E-19  0.00000000E+00  0.00000000E+00
  1.49075696E-01  0.00000000E+00 -2.25309482E-17  0.00000000E+00  0.00000000E+00
  9.30990386E-02  0.00000000E+00  0.00000000E+00  0.00000000E+00  0.00000000E+00
  0.00000000E+00  0.00000000E+00  0.00000000E+00  0.00000000E+00  0.00000000E+00
  0.00000000E+00  0.00000000E+00  0.00000000E+00  0.00000000E+00  0.00000000E+00
  0.00000000E+00  0.00000000E+00  0.00000000E+00 -6.78994960E-04  0.00000000E+00
  0.00000000E+00  0.00000000E+00  0.00000000E+00 -1.11302949E-02  0.00000000E+00
  0.00000000E+00  0.00000000E+00  0.00000000E+00  0.00000000E+00  0.00000000E+00
  0.00000000E+00  0.00000000E+00  0.00000000E+00  0.00000000E+00  0.00000000E+00
  0.00000000E+00  0.00000000E+00  0.00000000E+00  0.00000000E+00  0.00000000E+00
  0.00000000E+00 -7.96184280E-03  0.00000000E+00  0.00000000E+00  0.00000000E+00
  0.00000000E+00 -4.26221026E-02  0.00000000E+00  0.00000000E+00  0.00000000E+00
  0.00000000E+00  0.00000000E+00  0.00000000E+00  0.00000000E+00  0.00000000E+00
  0.00000000E+00  0.00000000E+00  0.00000000E+00  0.00000000E+00  0.00000000E+00
  0.00000000E+00  0.00000000E+00  0.00000000E+00  0.00000000E+00  1.49075696E-01
  0.00000000E+00  0.00000000E+00  0.00000000E+00  0.00000000E+00  9.30990386E-02
Multipole Matrix (1,0,0)                   R   N=        2415
  0.00000000E+00  0.00000000E+00  0.00000000E+00  0.00000000E+00  0.00000000E+00
  0.00000000E+00  0.00000000E+00  0.00000000E+00  0.00000000E+00  0.00000000E+00
  4.17326919E-01  4.72884226E-01  2.80778475E-01  1.11862100E-01  0.00000000E+00
  0.00000000E+00  0.00000000E+00  0.00000000E+00  0.00000000E+00  0.00000000E+00
  0.00000000E+00  0.00000000E+00  0.00000000E+00  0.00000000E+00  0.00000000E+00
  0.00000000E+00  0.00000000E+00  0.00000000E+00  2.84964978E-01  8.67674035E-01
  9.31584681E-01  4.99863277E-01  0.00000000E+00  0.00000000E+00  0.00000000E+00
  0.00000000E+00  0.00000000E+00  0.00000000E+00  0.00000000E+00  0.00000000E+00
  0.00000000E+00  0.00000000E+00  0.00000000E+00  0.00000000E+00  0.00000000E+00
  0.00000000E+00  0.00000000E+00  0.00000000E+00  0.00000000E+00  0.00000000E+00
  0.00000000E+00  0.00000000E+00  0.00000000E+00  0.00000000E+00  0.00000000E+00
  8.86326162E-02  5.87362976E-01  1.56019339E+00  1.78809431E+00  0.00000000E+00
  0.00000000E+00  0.00000000E+00  0.00000000E+00  0.00000000E+00  0.00000000E+00
  0.00000000E+00  0.00000000E+00  0.00000000E+00  0.00000000E+00  0.00000000E+00
  0.00000000E+00  0.00000000E+00  0.00000000E+00  0.00000000E+00  0.00000000E+00
  0.00000000E+00  0.00000000E+00  0.00000000E+00  0.00000000E+00  0.00000000E+00
  0.00000000E+00  0.00000000E+00  0.00000000E+00  0.00000000E+00  0.00000000E+00
  0.00000000E+00  0.00000000E+00  0.00000000E+00  0.00000000E+00  0.00000000E+00
  0.00000000E+00  0.00000000E+00  0.00000000E+00  0.00000000E+00  0.00000000E+00
 -2.34839285E-01  0.00000000E+00  0.00000000E+00 -3.03841983E-01  0.00000000E+00
  0.00000000E+00 -1.23766691E-01  0.00000000E+00  0.00000000E+00  0.00000000E+00
  0.00000000E+00  0.00000000E+00  0.00000000E+00  0.00000000E+00  0.00000000E+00
  0.00000000E+00  4.06753573E-01  0.00000000E+00  0.00000000E+00  5.26269752E-01
  0.00000000E+00  0.00000000E+00  2.14370196E-01  0.00000000E+00  0.00000000E+00
  0.00000000E+00  0.00000000E+00  0.00000000E+00  0.00000000E+00  0.00000000E+00
  0.00000000E+00  0.00000000E+00  0.00000000E+00  0.00000000E+00  0.00000000E+00
  0.00000000E+00  0.00000000E+00  0.00000000E+00  0.00000000E+00  0.00000000E+00
  0.00000000E+00  0.00000000E+00  0.00000000E+00  0.00000000E+00  0.00000000E+00
  4.06753573E-01  0.00000000E+00  0.00000000E+00  5.26269752E-01  0.00000000E+00
  0.00000000E+00  2.14370196E-01  0.00000000E+00  0.00000000E+00  0.00000000E+00
  0.00000000E+00  0.00000000E+00  0.00000000E+00  0.00000000E+00  0.00000000E+00
  0.00000000E+00  0.00000000E+00  0.00000000E+00  4.06753573E-01  0.00000000E+00
  0.00000000E+00  5.26269752E-01  0.00000000E+00  0.00000000E+00  2.14370196E-01
  0.00000000E+00  0.00000000E+00  0.00000000E+00  0.00000000E+00  0.00000000E+00
  0.00000000E+00  0.00000000E+00  0.00000000E+00  0.00000000E+00  0.00000000E+00
 -7.44264636E-02  0.00000000E+00  0.00000000E+00 -4.24195101E-01  0.00000000E+00
  0.00000000E+00 -6.48776709E-01  0.00000000E+00  0.00000000E+00  0.00000000E+00
  0.00000000E+00  0.00000000E+00  0.00000000E+00  0.00000000E+00  0.00000000E+00
  0.00000000E+00  0.00000000E+00  0.00000000E+00  0.00000000E+00  0.00000000E+00
  0.00000000E+00  1.28910416E-01  0.00000000E+00  0.00000000E+00  7.34727467E-01
  0.00000000E+00  0.00000000E+00  1.12371422E+00  0.00000000E+00  0.00000000E+00
  0.00000000E+00  0.00000000E+00  0.00000000E+00  0.00000000E+00  0.00000000E+00
  0.00000000E+00  0.00000000E+00  0.00000000E+00  0.00000000E+00  0.00000000E+00
  0.00000000E+00  0.00000000E+00  0.00000000E+00  0.00000000E+00  0.00000000E+00
  0.00000000E+00  0.00000000E+00  0.00000000E+00  0.00000000E+00  0.00000000E+00
  0.00000000E+00  0.00000000E+00  0.00000000E+00  0.00000000E+00  0.00000000E+00
  0.00000000E+00  0.00000000E+00  0.00000000E+00  0.00000000E+00  0.00000000E+00
  1.28910416E-01  0.00000000E+00  0.00000000E+00  7.34727467E-01  0.00000000E+00
  0.00000000E+00  1.12371422E+00  0.00000000E+00  0.00000000E+00  0.00000000E+00
  0.00000000E+00  0.00000000E+00  0.00000000E+00  0.00000000E+00  0.00000000E+00
  0.00000000E+00  0.00000000E+00  0.00000000E+00  0.00000000E+00  0.00000000E+00
  0.00000000E+00  0.00000000E+00  0.00000000E+00  1.28910416E-01  0.00000000E+00
  0.00000000E+00  7.34727467E-01  0.00000000E+00  0.00000000E+00  1.12371422E+00
  0.00000000E+00  0.00000000E+00  0.00000000E+00  0.00000000E+00  0.00000000E+00
  0.00000000E+00  0.00000000E+00  0.00000000E+00  0.00000000E+00  0.00000000E+00
  0.00000000E+00  0.00000000E+00  0.00000000E+00  0.00000000E+00  0.00000000E+00
  1.09968914E-01  0.00000000E+00  0.00000000E+00  1.57053721E-01  0.00000000E+00
  0.00000000E+00  7.32086036E-02  0.00000000E+00  0.00000000E+00  0.00000000E+00
  2.05066652E-01  0.00000000E+00  0.00000000E+00  0.00000000E+00  0.00000000E+00
  1.58541807E-01  0.00000000E+00  0.00000000E+00  0.00000000E+00  0.00000000E+00
  0.00000000E+00  0.00000000E+00  0.00000000E+00  0.00000000E+00  2.75903041E-01
  0.00000000E+00  0.00000000E+00  6.04936129E-01  0.00000000E+00  0.00000000E+00
  5.01412931E-01  0.00000000E+00  0.00000000E+00  0.00000000E+00  2.42044258E-01
  0.00000000E+00  0.00000000E+00  0.00000000E+00  0.00000000E+00  5.18377182E-01
  0.00000000E+00  0.00000000E+00  0.00000000E+00  0.00000000E+00  0.00000000E+00
  0.00000000E+00  0.00000000E+00  0.00000000E+00  0.00000000E+00  2.31047640E-01
  0.00000000E+00  0.00000000E+00  7.89574208E-01  0.00000000E+00  0.00000000E+00
  1.40576517E+00  0.00000000E+00  0.00000000E+00  0.00000000E+00  8.15480021E-02
  0.00000000E+00  0.00000000E+00  0.00000000E+00  0.00000000E+00  4.44028268E-01
  0.00000000E+00  0.00000000E+00  0.00000000E+00  0.00000000E+00  0.00000000E+00
  0.00000000E+00  0.00000000E+00  0.00000000E+00  0.00000000E+00  0.00000000E+00
  1.06349051E-01  0.00000000E+00  0.00000000E+00  4.76292275E-01  0.00000000E+00
  0.00000000E+00  1.71586054E+00  0.00000000E+00  0.00000000E+00  0.00000000E+00
  1.02671026E-02  0.00000000E+00  0.00000000E+00  0.00000000E+00  0.00000000E+00
  1.01345630E-01  0.00000000E+00  0.00000000E+00  0.00000000E+00  0.00000000E+00
  0.00000000E+00  0.00000000E+00  0.00000000E+00  1.09968914E-01  2.75903041E-01
  2.31047640E-01  1.06349051E-01  0.00000000E+00  0.00000000E+00  1.70280156E-01
  0.00000000E+00  0.00000000E+00  3.70255125E-01  0.00000000E+00  0.00000000E+00
  1.95846684E-01  1.56111991E-01  0.00000000E+00  0.00000000E+00  1.18973554E-01
  0.00000000E+00  1.88016209E-01  0.00000000E+00  0.00000000E+00  8.40299591E-02
  0.00000000E+00  4.17326919E-01  4.72884226E-01  2.80778475E-01  1.11862100E-01
  0.00000000E+00  0.00000000E+00  0.00000000E+00  0.00000000E+00  0.00000000E+00
  0.00000000E+00  0.00000000E+00  0.00000000E+00  0.00000000E+00  0.00000000E+00
  0.00000000E+00  0.00000000E+00  0.00000000E+00  0.00000000E+00  0.00000000E+00
  0.00000000E+00  0.00000000E+00  0.00000000E+00  1.18973554E-01  0.00000000E+00
  0.00000000E+00  0.00000000E+00  0.00000000E+00  8.40299591E-02  0.00000000E+00
  0.00000000E+00  0.00000000E+00  0.00000000E+00  0.00000000E+00  0.00000000E+00
  0.00000000E+00  0.00000000E+00  0.00000000E+00  0.00000000E+00 -1.70280156E-01
  0.00000000E+00  0.00000000E+00 -1.02103048E-01  0.00000000E+00  0.00000000E+00
 -1.41978407E-02  0.00000000E+00  0.00000000E+00  0.00000000E+00 -1.73536324E-01
  0.00000000E+00  0.00000000E+00  0.00000000E+00  0.00000000E+00  1.21096709E-02
  0.00000000E+00  0.00000000E+00  0.00000000E+00  0.00000000E+00  0.00000000E+00
  0.00000000E+00  0.00000000E+00  0.00000000E+00  0.00000000E+00  0.00000000E+00
  1.57053721E-01  6.04936129E-01  7.89574208E-01  4.76292275E-01  0.00000000E+00
  0.00000000E+00  1.02103048E-01  0.00000000E+00  0.00000000E+00  4.80657448E-01
  0.00000000E+00  0.00000000E+00  5.69553411E-01 -9.81148968E-02  0.00000000E+00
  0.00000000E+00  2.95230679E-01  0.00000000E+00 -1.06930937E-02  0.00000000E+00
  0.00000000E+00  5.40293116E-01  0.00000000E+00  2.84964978E-01  8.67674035E-01
  9.31584681E-01  4.99863277E-01  0.00000000E+00  0.00000000E+00  0.00000000E+00
  0.00000000E+00  0.00000000E+00  0.00000000E+00  0.00000000E+00  0.00000000E+00
  0.00000000E+00  0.00000000E+00  0.00000000E+00  0.00000000E+00  0.00000000E+00
  0.00000000E+00  0.00000000E+00  0.00000000E+00  0.00000000E+00  0.00000000E+00
  0.00000000E+00  0.00000000E+00  0.00000000E+00  2.95230679E-01  0.00000000E+00
  0.00000000E+00  0.00000000E+00  0.00000000E+00  5.40293116E-01  0.00000000E+00
  0.00000000E+00  0.00000000E+00  0.00000000E+00  0.00000000E+00  0.00000000E+00
  0.00000000E+00  0.00000000E+00  0.00000000E+00  0.00000000E+00  0.00000000E+00
  0.00000000E+00  0.00000000E+00 -3.70255125E-01  0.00000000E+00  0.00000000E+00
 -4.80657448E-01  0.00000000E+00  0.00000000E+00 -1.49727959E-01  0.00000000E+00
  0.00000000E+00  0.00000000E+00 -4.60895850E-02  0.00000000E+00  0.00000000E+00
  0.00000000E+00  0.00000000E+00  2.08134051E-01  0.00000000E+00  0.00000000E+00
  0.00000000E+00  0.00000000E+00  0.00000000E+00  0.00000000E+00  0.00000000E+00
  0.00000000E+00  0.00000000E+00  0.00000000E+00  0.00000000E+00  0.00000000E+00
  0.00000000E+00  7.32086036E-02  5.01412931E-01  1.40576517E+00  1.71586054E+00
  0.00000000E+00  0.00000000E+00  1.41978407E-02  0.00000000E+00  0.00000000E+00
  1.49727959E-01  0.00000000E+00  0.00000000E+00  6.43168072E-01 -9.86604630E-02
  0.00000000E+00  0.00000000E+00  1.77370689E-01  0.00000000E+00 -4.92057894E-01
  0.00000000E+00  0.00000000E+00  9.70067450E-01  0.00000000E+00  8.86326162E-02
  5.87362976E-01  1.56019339E+00  1.78809431E+00  0.00000000E+00  0.00000000E+00
  0.00000000E+00  0.00000000E+00  0.00000000E+00  0.00000000E+00  0.00000000E+00
  0.00000000E+00  0.00000000E+00  0.00000000E+00  0.00000000E+00  0.00000000E+00
  0.00000000E+00  0.00000000E+00  0.00000000E+00  0.00000000E+00  0.00000000E+00
  0.00000000E+00  0.00000000E+00  0.00000000E+00  0.00000000E+00  0.00000000E+00
  0.00000000E+00  0.00000000E+00  1.77370689E-01  0.00000000E+00  0.00000000E+00
  0.00000000E+00  0.00000000E+00  9.70067450E-01  0.00000000E+00  0.00000000E+00
  0.00000000E+00  0.00000000E+00  0.00000000E+00  0.00000000E+00  0.00000000E+00
  0.00000000E+00  0.00000000E+00  0.00000000E+00  0.00000000E+00  0.00000000E+00
  0.00000000E+00  0.00000000E+00  0.00000000E+00  0.00000000E+00 -1.95846684E-01
  0.00000000E+00  0.00000000E+00 -5.69553411E-01  0.00000000E+00  0.00000000E+00
 -6.43168072E-01  0.00000000E+00  0.00000000E+00  0.00000000E+00  1.10160472E-01
  0.00000000E+00  0.00000000E+00  0.00000000E+00  0.00000000E+00  6.84811080E-01
  0.00000000E+00  0.00000000E+00  0.00000000E+00  0.00000000E+00  0.00000000E+00
  0.00000000E+00  0.00000000E+00  0.00000000E+00  0.00000000E+00  0.00000000E+00
  0.00000000E+00  0.00000000E+00  0.00000000E+00  0.00000000E+00  0.00000000E+00
  0.00000000E+00  0.00000000E+00  0.00000000E+00  0.00000000E+00  0.00000000E+00
  1.56111991E-01  0.00000000E+00  0.00000000E+00 -9.81148968E-02  0.00000000E+00
  0.00000000E+00 -9.86604630E-02  0.00000000E+00  0.00000000E+00  0.00000000E+00
 -1.18953069E-01  0.00000000E+00  0.00000000E+00  0.00000000E+00  0.00000000E+00
 -2.41660904E-01  0.00000000E+00  0.00000000E+00  0.00000000E+00  0.00000000E+00
  0.00000000E+00  0.00000000E+00  0.00000000E+00 -2.34839285E-01  0.00000000E+00
  0.00000000E+00 -3.03841983E-01  0.00000000E+00  0.00000000E+00 -1.23766691E-01
  0.00000000E+00  0.00000000E+00  0.00000000E+00 -2.05066652E-01 -2.42044258E-01
 -8.15480021E-02 -1.02671026E-02  0.00000000E+00  0.00000000E+00 -1.73536324E-01
  0.00000000E+00  0.00000000E+00 -4.60895850E-02  0.00000000E+00  0.00000000E+00
  1.10160472E-01  1.18953069E-01  0.00000000E+00  0.00000000E+00 -2.43196896E-01
  0.00000000E+00  2.68412810E-01  0.00000000E+00  0.00000000E+00 -7.66077786E-02
  0.00000000E+00  0.00000000E+00  0.00000000E+00  0.00000000E+00  0.00000000E+00
  0.00000000E+00  0.00000000E+00  4.06753573E-01  0.00000000E+00  0.00000000E+00
  5.26269752E-01  0.00000000E+00  0.00000000E+00  2.14370196E-01  0.00000000E+00
  0.00000000E+00  0.00000000E+00  0.00000000E+00  0.00000000E+00  0.00000000E+00
  0.00000000E+00  0.00000000E+00  0.00000000E+00  0.00000000E+00  0.00000000E+00
  0.00000000E+00  0.00000000E+00  0.00000000E+00  0.00000000E+00  0.00000000E+00
  0.00000000E+00  0.00000000E+00  0.00000000E+00 -2.43196896E-01  0.00000000E+00
  0.00000000E+00  0.00000000E+00  0.00000000E+00 -7.66077786E-02  0.00000000E+00
  0.00000000E+00  0.00000000E+00  0.00000000E+00  0.00000000E+00  0.00000000E+00
  0.00000000E+00  0.00000000E+00  0.00000000E+00  0.00000000E+00  0.00000000E+00
  0.00000000E+00  0.00000000E+00  0.00000000E+00  0.00000000E+00  0.00000000E+00
  0.00000000E+00  0.00000000E+00  0.00000000E+00  0.00000000E+00  1.18973554E-01
  0.00000000E+00  0.00000000E+00  2.95230679E-01  0.00000000E+00  0.00000000E+00
  1.77370689E-01  0.00000000E+00  0.00000000E+00  0.00000000E+00  2.43196896E-01
  0.00000000E+00  0.00000000E+00  0.00000000E+00  0.00000000E+00  3.27831668E-01
  0.00000000E+00  0.00000000E+00  0.00000000E+00  0.00000000E+00  0.00000000E+00
  0.00000000E+00  0.00000000E+00  4.06753573E-01  0.00000000E+00  0.00000000E+00
  5.26269752E-01  0.00000000E+00  0.00000000E+00  2.14370196E-01  0.00000000E+00
  0.00000000E+00  0.00000000E+00  0.00000000E+00  0.00000000E+00  0.00000000E+00
  0.00000000E+00  0.00000000E+00  0.00000000E+00  0.00000000E+00  0.00000000E+00
  1.18973554E-01  0.00000000E+00  0.00000000E+00  2.95230679E-01  0.00000000E+00
  0.00000000E+00  1.77370689E-01  0.00000000E+00  0.00000000E+00  0.00000000E+00
  2.43196896E-01  0.00000000E+00  0.00000000E+00  0.00000000E+00  0.00000000E+00
  3.27831668E-01  0.00000000E+00  0.00000000E+00  0.00000000E+00  0.00000000E+00
  0.00000000E+00  0.00000000E+00  0.00000000E+00  4.06753573E-01  0.00000000E+00
  0.00000000E+00  5.26269752E-01  0.00000000E+00  0.00000000E+00  2.14370196E-01
  0.00000000E+00  0.00000000E+00  0.00000000E+00  0.00000000E+00  0.00000000E+00
  0.00000000E+00  0.00000000E+00  0.00000000E+00  0.00000000E+00  0.00000000E+00
  1.88016209E-01  0.00000000E+00  0.00000000E+00 -1.06930937E-02  0.00000000E+00
  0.00000000E+00 -4.92057894E-01  0.00000000E+00  0.00000000E+00  0.00000000E+00
 -2.68412810E-01  0.00000000E+00  0.00000000E+00  0.00000000E+00  0.00000000E+00
 -7.99910186E-01  0.00000000E+00  0.00000000E+00  0.00000000E+00  0.00000000E+00
  0.00000000E+00  0.00000000E+00  0.00000000E+00 -7.44264636E-02  0.00000000E+00
  0.00000000E+00 -4.24195101E-01  0.00000000E+00  0.00000000E+00 -6.48776709E-01
  0.00000000E+00  0.00000000E+00  0.00000000E+00  0.00000000E+00  0.00000000E+00
  0.00000000E+00  0.00000000E+00  0.00000000E+00 -1.58541807E-01 -5.18377182E-01
 -4.44028268E-01 -1.01345630E-01  0.00000000E+00  0.00000000E+00  1.21096709E-02
  0.00000000E+00  0.00000000E+00  2.08134051E-01  0.00000000E+00  0.00000000E+00
  6.84811080E-01  2.41660904E-01  0.00000000E+00  0.00000000E+00 -3.27831668E-01
  0.00000000E+00  7.99910186E-01  0.00000000E+00  0.00000000E+00 -5.54875487E-01
  0.00000000E+00  0.00000000E+00  0.00000000E+00  0.00000000E+00  0.00000000E+00
  0.00000000E+00  0.00000000E+00  1.28910416E-01  0.00000000E+00  0.00000000E+00
  7.34727467E-01  0.00000000E+00  0.00000000E+00  1.12371422E+00  0.00000000E+00
  0.00000000E+00  0.00000000E+00  0.00000000E+00  0.00000000E+00  0.00000000E+00
  0.00000000E+00  0.00000000E+00  0.00000000E+00  0.00000000E+00  0.00000000E+00
  0.00000000E+00  0.00000000E+00  0.00000000E+00  0.00000000E+00  0.00000000E+00
  0.00000000E+00  0.00000000E+00  0.00000000E+00  0.00000000E+00  0.00000000E+00
  0.00000000E+00  0.00000000E+00  0.00000000E+00 -3.27831668E-01  0.00000000E+00
  0.00000000E+00  0.00000000E+00  0.00000000E+00 -5.54875487E-01  0.00000000E+00
  0.00000000E+00  0.00000000E+00  0.00000000E+00  0.00000000E+00  0.00000000E+00
  0.00000000E+00  0.00000000E+00  0.00000000E+00  0.00000000E+00  0.00000000E+00
  0.00000000E+00  0.00000000E+00  0.00000000E+00  0.00000000E+00  0.00000000E+00
  0.00000000E+00  0.00000000E+00  0.00000000E+00  0.00000000E+00  0.00000000E+00
  0.00000000E+00  0.00000000E+00  0.00000000E+00  0.00000000E+00  8.40299591E-02
  0.00000000E+00  0.00000000E+00  5.40293116E-01  0.00000000E+00  0.00000000E+00
  9.70067450E-01  0.00000000E+00  0.00000000E+00  0.00000000E+00  7.66077786E-02
  0.00000000E+00  0.00000000E+00  0.00000000E+00  0.00000000E+00  5.54875487E-01
  0.00000000E+00  0.00000000E+00  0.00000000E+00  0.00000000E+00  0.00000000E+00
  0.00000000E+00  0.00000000E+00  1.28910416E-01  0.00000000E+00  0.00000000E+00
  7.34727467E-01  0.00000000E+00  0.00000000E+00  1.12371422E+00  0.00000000E+00
  0.00000000E+00  0.00000000E+00  0.00000000E+00  0.00000000E+00  0.00000000E+00
  0.00000000E+00  0.00000000E+00  0.00000000E+00  0.00000000E+00  0.00000000E+00
  0.00000000E+00  0.00000000E+00  0.00000000E+00  0.00000000E+00  0.00000000E+00
  8.40299591E-02  0.00000000E+00  0.00000000E+00  5.40293116E-01  0.00000000E+00
  0.00000000E+00  9.70067450E-01  0.00000000E+00  0.00000000E+00  0.00000000E+00
  7.66077786E-02  0.00000000E+00  0.00000000E+00  0.00000000E+00  0.00000000E+00
  5.54875487E-01  0.00000000E+00  0.00000000E+00  0.00000000E+00  0.00000000E+00
  0.00000000E+00  0.00000000E+00  0.00000000E+00  1.28910416E-01  0.00000000E+00
  0.00000000E+00  7.34727467E-01  0.00000000E+00  0.00000000E+00  1.12371422E+00
  0.00000000E+00  0.00000000E+00  0.00000000E+00  0.00000000E+00  0.00000000E+00
  0.00000000E+00  0.00000000E+00  0.00000000E+00  0.00000000E+00  0.00000000E+00
  0.00000000E+00  0.00000000E+00  0.00000000E+00  0.00000000E+00  0.00000000E+00
  0.00000000E+00  0.00000000E+00  0.00000000E+00  4.76445229E-06  0.00000000E+00
  0.00000000E+00  2.56420539E-03  0.00000000E+00  0.00000000E+00  0.00000000E+00
  2.25762221E-09  0.00000000E+00  0.00000000E+00  0.00000000E+00  0.00000000E+00
  4.66401813E-04  0.00000000E+00  0.00000000E+00  0.00000000E+00  0.00000000E+00
  0.00000000E+00  0.00000000E+00  0.00000000E+00  2.83203180E-07  0.00000000E+00
  0.00000000E+00  4.32984878E-04  0.00000000E+00  0.00000000E+00  1.09823224E-02
  0.00000000E+00  0.00000000E+00  0.00000000E+00  9.12341919E-06  0.00000000E+00
  0.00000000E+00  0.00000000E+00  0.00000000E+00  8.44952493E-03  0.00000000E+00
  0.00000000E+00  0.00000000E+00  0.00000000E+00  0.00000000E+00  0.00000000E+00
  0.00000000E+00  0.00000000E+00  2.17774005E-05  0.00000000E+00  0.00000000E+00
  1.08437067E-03  0.00000000E+00  0.00000000E+00  3.12944987E-02  0.00000000E+00
  0.00000000E+00  0.00000000E+00  1.43079998E-04  0.00000000E+00  0.00000000E+00
  0.00000000E+00  0.00000000E+00  1.47839817E-02  0.00000000E+00  0.00000000E+00
  0.00000000E+00  0.00000000E+00  0.00000000E+00  0.00000000E+00  0.00000000E+00
  1.31445407E-03  0.00000000E+00  0.00000000E+00  1.68760215E-02  0.00000000E+00
  0.00000000E+00  1.04318786E-01  0.00000000E+00  0.00000000E+00  0.00000000E+00
  5.21374414E-03  0.00000000E+00  0.00000000E+00  0.00000000E+00  0.00000000E+00
  1.00156740E-01  0.00000000E+00  0.00000000E+00  0.00000000E+00  0.00000000E+00
  0.00000000E+00  0.00000000E+00  0.00000000E+00  0.00000000E+00  0.00000000E+00
  7.57350787E-03  0.00000000E+00  0.00000000E+00  4.34500894E-02  0.00000000E+00
  0.00000000E+00  2.26078318E-01  0.00000000E+00  0.00000000E+00  0.00000000E+00
  1.24075164E-02  0.00000000E+00  0.00000000E+00  0.00000000E+00  0.00000000E+00
  1.43348307E-01  0.00000000E+00  0.00000000E+00  0.00000000E+00  0.00000000E+00
  0.00000000E+00  0.00000000E+00  0.00000000E+00  3.33873018E-02  0.00000000E+00
  0.00000000E+00  1.52973422E-01  0.00000000E+00  0.00000000E+00  4.99727066E-01
  0.00000000E+00  0.00000000E+00  0.00000000E+00  4.06420050E-02  0.00000000E+00
  0.00000000E+00  0.00000000E+00  0.00000000E+00  3.38749695E-01  0.00000000E+00
  0.00000000E+00  0.00000000E+00  0.00000000E+00  0.00000000E+00  0.00000000E+00
  0.00000000E+00  0.00000000E+00  0.00000000E+00  0.00000000E+00  4.38419949E-02
  0.00000000E+00  0.00000000E+00  2.04205049E-01  0.00000000E+00  0.00000000E+00
  8.32700812E-01  0.00000000E+00  0.00000000E+00  0.00000000E+00  1.83153291E-02
  0.00000000E+00  0.00000000E+00  0.00000000E+00  0.00000000E+00  1.92475172E-01
  0.00000000E+00  0.00000000E+00  0.00000000E+00  0.00000000E+00  0.00000000E+00
  0.00000000E+00  0.00000000E+00  6.44059469E-02  0.00000000E+00  0.00000000E+00
  2.94922428E-01  0.00000000E+00  0.00000000E+00  1.13965421E+00  0.00000000E+00
  0.00000000E+00  0.00000000E+00  2.06100798E-02  0.00000000E+00  0.00000000E+00
  0.00000000E+00  0.00000000E+00  2.10781580E-01  0.00000000E+00  0.00000000E+00
  0.00000000E+00  0.00000000E+00  0.00000000E+00  0.00000000E+00  0.00000000E+00
  0.00000000E+00  2.17774005E-05  7.57350787E-03  4.38419949E-02  0.00000000E+00
  0.00000000E+00  0.00000000E+00  0.00000000E+00  0.00000000E+00  3.06027714E-05
  0.00000000E+00  0.00000000E+00  2.82436792E-02  0.00000000E+00  0.00000000E+00
  0.00000000E+00  0.00000000E+00  0.00000000E+00  2.38992802E-03  0.00000000E+00
  0.00000000E+00  4.63247115E-05  0.00000000E+00  2.83203180E-07  1.31445407E-03
  3.33873018E-02  6.44059469E-02  0.00000000E+00  0.00000000E+00  3.76196197E-07
  0.00000000E+00  0.00000000E+00  2.61928106E-03  0.00000000E+00  0.00000000E+00
  9.46912867E-02  1.20232656E-05  0.00000000E+00  0.00000000E+00  5.99302255E-07
  0.00000000E+00  3.62861693E-02  0.00000000E+00  0.00000000E+00  1.20273550E-03
  0.00000000E+00  4.17326919E-01  4.72884226E-01  2.80778475E-01  1.11862100E-01
  0.00000000E+00  0.00000000E+00  0.00000000E+00  0.00000000E+00  0.00000000E+00
  0.00000000E+00  0.00000000E+00  0.00000000E+00  0.00000000E+00  0.00000000E+00
  0.00000000E+00  0.00000000E+00  0.00000000E+00  0.00000000E+00  0.00000000E+00
  0.00000000E+00  0.00000000E+00  0.00000000E+00  0.00000000E+00  0.00000000E+00
  0.00000000E+00  0.00000000E+00  0.00000000E+00  4.63247115E-05  0.00000000E+00
  0.00000000E+00  0.00000000E+00  0.00000000E+00  0.00000000E+00  0.00000000E+00
  0.00000000E+00  0.00000000E+00  0.00000000E+00  0.00000000E+00  0.00000000E+00
  0.00000000E+00  0.00000000E+00  0.00000000E+00  0.00000000E+00  0.00000000E+00
  0.00000000E+00  5.99302255E-07  0.00000000E+00  0.00000000E+00  0.00000000E+00
  0.00000000E+00  1.20273550E-03  0.00000000E+00  0.00000000E+00  0.00000000E+00
  0.00000000E+00  0.00000000E+00  0.00000000E+00  0.00000000E+00  0.00000000E+00
  0.00000000E+00  0.00000000E+00  0.00000000E+00  0.00000000E+00  0.00000000E+00
 -8.43914377E-06  0.00000000E+00  0.00000000E+00 -2.04751619E-03  0.00000000E+00
  0.00000000E+00  0.00000000E+00  0.00000000E+00  0.00000000E+00  0.00000000E+00
  0.00000000E+00  0.00000000E+00 -6.88496157E-04  0.00000000E+00  0.00000000E+00
  0.00000000E+00  0.00000000E+00  0.00000000E+00  0.00000000E+00  0.00000000E+00
 -3.76196197E-07  0.00000000E+00  0.00000000E+00 -7.22303520E-04  0.00000000E+00
  0.00000000E+00 -6.86461354E-03  0.00000000E+00  0.00000000E+00  0.00000000E+00
 -1.54955016E-05  0.00000000E+00  0.00000000E+00  0.00000000E+00  0.00000000E+00
 -1.00416848E-02  0.00000000E+00  0.00000000E+00  0.00000000E+00  0.00000000E+00
  0.00000000E+00  0.00000000E+00  0.00000000E+00  0.00000000E+00  0.00000000E+00
  0.00000000E+00  4.76445229E-06  1.08437067E-03  4.34500894E-02  2.04205049E-01
  0.00000000E+00  0.00000000E+00  8.43914377E-06  0.00000000E+00  0.00000000E+00
  2.02816394E-03  0.00000000E+00  0.00000000E+00  1.37058220E-01  4.64072139E-05
  0.00000000E+00  0.00000000E+00  1.17083049E-05  0.00000000E+00  2.40585523E-02
  0.00000000E+00  0.00000000E+00  2.46601929E-03  0.00000000E+00  4.32984878E-04
  1.68760215E-02  1.52973422E-01  2.94922428E-01  0.00000000E+00  0.00000000E+00
  7.22303520E-04  0.00000000E+00  0.00000000E+00  3.14911421E-02  0.00000000E+00
  0.00000000E+00  3.67941925E-01  1.99981949E-03  0.00000000E+00  0.00000000E+00
  9.52739117E-04  0.00000000E+00  1.41026367E-01  0.00000000E+00  0.00000000E+00
  2.55808097E-02  0.00000000E+00  2.84964978E-01  8.67674035E-01  9.31584681E-01
  4.99863277E-01  0.00000000E+00  0.00000000E+00  0.00000000E+00  0.00000000E+00
  0.00000000E+00  0.00000000E+00  0.00000000E+00  0.00000000E+00  0.00000000E+00
  0.00000000E+00  0.00000000E+00  0.00000000E+00  0.00000000E+00  0.00000000E+00
  0.00000000E+00  0.00000000E+00  0.00000000E+00  0.00000000E+00  0.00000000E+00
  0.00000000E+00  0.00000000E+00  1.17083049E-05  0.00000000E+00  0.00000000E+00
  0.00000000E+00  0.00000000E+00  2.46601929E-03  0.00000000E+00  0.00000000E+00
  0.00000000E+00  0.00000000E+00  0.00000000E+00  0.00000000E+00  0.00000000E+00
  0.00000000E+00  0.00000000E+00  0.00000000E+00  0.00000000E+00  0.00000000E+00
  0.00000000E+00  0.00000000E+00  0.00000000E+00  0.00000000E+00  0.00000000E+00
  9.52739117E-04  0.00000000E+00  0.00000000E+00  0.00000000E+00  0.00000000E+00
  2.55808097E-02  0.00000000E+00  0.00000000E+00  0.00000000E+00  0.00000000E+00
  0.00000000E+00  0.00000000E+00  0.00000000E+00  0.00000000E+00  0.00000000E+00
  0.00000000E+00  0.00000000E+00  0.00000000E+00  0.00000000E+00 -3.06027714E-05
  0.00000000E+00  0.00000000E+00 -2.02816394E-03  0.00000000E+00  0.00000000E+00
 -3.60307692E-02  0.00000000E+00  0.00000000E+00  0.00000000E+00 -2.39160177E-04
  0.00000000E+00  0.00000000E+00  0.00000000E+00  0.00000000E+00 -2.56312837E-02
  0.00000000E+00  0.00000000E+00  0.00000000E+00  0.00000000E+00  0.00000000E+00
  0.00000000E+00  0.00000000E+00 -2.61928106E-03  0.00000000E+00  0.00000000E+00
 -3.14911421E-02  0.00000000E+00  0.00000000E+00 -9.67270009E-02  0.00000000E+00
  0.00000000E+00  0.00000000E+00 -1.10788850E-02  0.00000000E+00  0.00000000E+00
  0.00000000E+00  0.00000000E+00 -1.46202370E-01  0.00000000E+00  0.00000000E+00
  0.00000000E+00  0.00000000E+00  0.00000000E+00  0.00000000E+00  0.00000000E+00
  0.00000000E+00  0.00000000E+00  0.00000000E+00  0.00000000E+00  0.00000000E+00
  0.00000000E+00  2.56420539E-03  3.12944987E-02  2.26078318E-01  8.32700812E-01
  0.00000000E+00  0.00000000E+00  2.04751619E-03  0.00000000E+00  0.00000000E+00
  3.60307692E-02  0.00000000E+00  0.00000000E+00  4.48075415E-01 -1.19101373E-03
  0.00000000E+00  0.00000000E+00  6.40031872E-03  0.00000000E+00  5.31832005E-02
  0.00000000E+00  0.00000000E+00  7.36605577E-02  0.00000000E+00  1.09823224E-02
  1.04318786E-01  4.99727066E-01  1.13965421E+00  0.00000000E+00  0.00000000E+00
  6.86461354E-03  0.00000000E+00  0.00000000E+00  9.67270009E-02  0.00000000E+00
  0.00000000E+00  7.58315974E-01 -9.38398481E-03  0.00000000E+00  0.00000000E+00
  2.70630075E-02  0.00000000E+00  4.25015012E-02  0.00000000E+00  0.00000000E+00
  2.25510519E-01  0.00000000E+00  8.86326162E-02  5.87362976E-01  1.56019339E+00
  1.78809431E+00  0.00000000E+00  0.00000000E+00  0.00000000E+00  0.00000000E+00
  0.00000000E+00  0.00000000E+00  0.00000000E+00  0.00000000E+00  0.00000000E+00
  0.00000000E+00  0.00000000E+00  0.00000000E+00  0.00000000E+00  0.00000000E+00
  0.00000000E+00  0.00000000E+00  0.00000000E+00  0.00000000E+00  0.00000000E+00
  0.00000000E+00  0.00000000E+00  0.00000000E+00  0.00000000E+00  0.00000000E+00
  6.40031872E-03  0.00000000E+00  0.00000000E+00  0.00000000E+00  0.00000000E+00
  7.36605577E-02  0.00000000E+00  0.00000000E+00  0.00000000E+00  0.00000000E+00
  0.00000000E+00  0.00000000E+00  0.00000000E+00  0.00000000E+00  0.00000000E+00
  0.00000000E+00  0.00000000E+00  0.00000000E+00  0.00000000E+00  0.00000000E+00
  0.00000000E+00  0.00000000E+00  0.00000000E+00  2.70630075E-02  0.00000000E+00
  0.00000000E+00  0.00000000E+00  0.00000000E+00  2.25510519E-01  0.00000000E+00
  0.00000000E+00  0.00000000E+00  0.00000000E+00  0.00000000E+00  0.00000000E+00
  0.00000000E+00  0.00000000E+00  0.00000000E+00  0.00000000E+00  0.00000000E+00
  0.00000000E+00  0.00000000E+00  0.00000000E+00  0.00000000E+00  0.00000000E+00
 -2.82436792E-02  0.00000000E+00  0.00000000E+00 -1.37058220E-01  0.00000000E+00
  0.00000000E+00 -4.48075415E-01  0.00000000E+00  0.00000000E+00  0.00000000E+00
 -3.85472843E-02  0.00000000E+00  0.00000000E+00  0.00000000E+00  0.00000000E+00
 -3.27778766E-01  0.00000000E+00  0.00000000E+00  0.00000000E+00  0.00000000E+00
  0.00000000E+00  0.00000000E+00  0.00000000E+00 -9.46912867E-02  0.00000000E+00
  0.00000000E+00 -3.67941925E-01  0.00000000E+00  0.00000000E+00 -7.58315974E-01
  0.00000000E+00  0.00000000E+00  0.00000000E+00 -8.49527643E-02  0.00000000E+00
  0.00000000E+00  0.00000000E+00  0.00000000E+00 -4.98841871E-01  0.00000000E+00
  0.00000000E+00  0.00000000E+00  0.00000000E+00  0.00000000E+00  0.00000000E+00
  0.00000000E+00  0.00000000E+00  0.00000000E+00  0.00000000E+00  0.00000000E+00
  0.00000000E+00  0.00000000E+00  0.00000000E+00  0.00000000E+00  0.00000000E+00
  0.00000000E+00  0.00000000E+00  0.00000000E+00  0.00000000E+00  0.00000000E+00
  0.00000000E+00  0.00000000E+00  4.64072139E-05  0.00000000E+00  0.00000000E+00
 -1.19101373E-03  0.00000000E+00  0.00000000E+00  0.00000000E+00  1.41899103E-07
  0.00000000E+00  0.00000000E+00  0.00000000E+00  0.00000000E+00  1.32082704E-03
  0.00000000E+00  0.00000000E+00  0.00000000E+00  0.00000000E+00  0.00000000E+00
  0.00000000E+00  0.00000000E+00  1.20232656E-05  0.00000000E+00  0.00000000E+00
  1.99981949E-03  0.00000000E+00  0.00000000E+00 -9.38398481E-03  0.00000000E+00
  0.00000000E+00  0.00000000E+00  2.18666985E-04  0.00000000E+00  0.00000000E+00
  0.00000000E+00  0.00000000E+00  6.71956732E-03  0.00000000E+00  0.00000000E+00
  0.00000000E+00  0.00000000E+00  0.00000000E+00  0.00000000E+00  0.00000000E+00
 -2.34839285E-01  0.00000000E+00  0.00000000E+00 -3.03841983E-01  0.00000000E+00
  0.00000000E+00 -1.23766691E-01  0.00000000E+00  0.00000000E+00  0.00000000E+00
 -2.25762221E-09 -1.43079998E-04 -1.24075164E-02 -1.83153291E-02  0.00000000E+00
  0.00000000E+00  0.00000000E+00  0.00000000E+00  0.00000000E+00 -2.39160177E-04
  0.00000000E+00  0.00000000E+00 -3.85472843E-02 -1.41899103E-07  0.00000000E+00
  0.00000000E+00 -6.66085222E-09  0.00000000E+00 -8.24036162E-03  0.00000000E+00
  0.00000000E+00 -2.58922144E-04  0.00000000E+00 -9.12341919E-06 -5.21374414E-03
 -4.06420050E-02 -2.06100798E-02  0.00000000E+00  0.00000000E+00 -1.54955016E-05
  0.00000000E+00  0.00000000E+00 -1.10788850E-02  0.00000000E+00  0.00000000E+00
 -8.49527643E-02 -2.18666985E-04  0.00000000E+00  0.00000000E+00 -1.84611713E-05
  0.00000000E+00 -7.30031346E-02  0.00000000E+00  0.00000000E+00 -4.42672975E-03
  0.00000000E+00  0.00000000E+00  0.00000000E+00  0.00000000E+00  0.00000000E+00
  0.00000000E+00  0.00000000E+00  4.06753573E-01  0.00000000E+00  0.00000000E+00
  5.26269752E-01  0.00000000E+00  0.00000000E+00  2.14370196E-01  0.00000000E+00
  0.00000000E+00  0.00000000E+00  0.00000000E+00  0.00000000E+00  0.00000000E+00
  0.00000000E+00  0.00000000E+00  0.00000000E+00  0.00000000E+00  0.00000000E+00
  0.00000000E+00  0.00000000E+00  0.00000000E+00  0.00000000E+00  0.00000000E+00
  0.00000000E+00  0.00000000E+00  0.00000000E+00 -6.66085222E-09  0.00000000E+00
  0.00000000E+00  0.00000000E+00  0.00000000E+00 -2.58922144E-04  0.00000000E+00
  0.00000000E+00  0.00000000E+00  0.00000000E+00  0.00000000E+00  0.00000000E+00
  0.00000000E+00  0.00000000E+00  0.00000000E+00  0.00000000E+00  0.00000000E+00
  0.00000000E+00  0.00000000E+00  0.00000000E+00  0.00000000E+00  0.00000000E+00
  0.00000000E+00 -1.84611713E-05  0.00000000E+00  0.00000000E+00  0.00000000E+00
  0.00000000E+00 -4.42672975E-03  0.00000000E+00  0.00000000E+00  0.00000000E+00
  0.00000000E+00  0.00000000E+00  0.00000000E+00  0.00000000E+00  0.00000000E+00
  0.00000000E+00  0.00000000E+00  0.00000000E+00  0.00000000E+00  0.00000000E+00
  0.00000000E+00  0.00000000E+00  0.00000000E+00  0.00000000E+00  0.00000000E+00
  0.00000000E+00  0.00000000E+00  0.00000000E+00  0.00000000E+00  0.00000000E+00
  1.17083049E-05  0.00000000E+00  0.00000000E+00  6.40031872E-03  0.00000000E+00
  0.00000000E+00  0.00000000E+00  6.66085222E-09  0.00000000E+00  0.00000000E+00
  0.00000000E+00  0.00000000E+00  1.10801905E-03  0.00000000E+00  0.00000000E+00
  0.00000000E+00  0.00000000E+00  0.00000000E+00  0.00000000E+00  0.00000000E+00
  5.99302255E-07  0.00000000E+00  0.00000000E+00  9.52739117E-04  0.00000000E+00
  0.00000000E+00  2.70630075E-02  0.00000000E+00  0.00000000E+00  0.00000000E+00
  1.84611713E-05  0.00000000E+00  0.00000000E+00  0.00000000E+00  0.00000000E+00
  1.89435358E-02  0.00000000E+00  0.00000000E+00  0.00000000E+00  0.00000000E+00
  0.00000000E+00  0.00000000E+00  0.00000000E+00  4.06753573E-01  0.00000000E+00
  0.00000000E+00  5.26269752E-01  0.00000000E+00  0.00000000E+00  2.14370196E-01
  0.00000000E+00  0.00000000E+00  0.00000000E+00  0.00000000E+00  0.00000000E+00
  0.00000000E+00  0.00000000E+00  0.00000000E+00  0.00000000E+00  0.00000000E+00
  0.00000000E+00  0.00000000E+00  0.00000000E+00  0.00000000E+00  1.17083049E-05
  0.00000000E+00  0.00000000E+00  6.40031872E-03  0.00000000E+00  0.00000000E+00
  0.00000000E+00  6.66085222E-09  0.00000000E+00  0.00000000E+00  0.00000000E+00
  0.00000000E+00  1.10801905E-03  0.00000000E+00  0.00000000E+00  0.00000000E+00
  0.00000000E+00  0.00000000E+00  0.00000000E+00  0.00000000E+00  5.99302255E-07
  0.00000000E+00  0.00000000E+00  9.52739117E-04  0.00000000E+00  0.00000000E+00
  2.70630075E-02  0.00000000E+00  0.00000000E+00  0.00000000E+00  1.84611713E-05
  0.00000000E+00  0.00000000E+00  0.00000000E+00  0.00000000E+00  1.89435358E-02
  0.00000000E+00  0.00000000E+00  0.00000000E+00  0.00000000E+00  0.00000000E+00
  0.00000000E+00  0.00000000E+00  4.06753573E-01  0.00000000E+00  0.00000000E+00
  5.26269752E-01  0.00000000E+00  0.00000000E+00  2.14370196E-01  0.00000000E+00
  0.00000000E+00  0.00000000E+00  0.00000000E+00  0.00000000E+00  0.00000000E+00
  0.00000000E+00  0.00000000E+00  0.00000000E+00  0.00000000E+00  2.38992802E-03
  0.00000000E+00  0.00000000E+00  2.40585523E-02  0.00000000E+00  0.00000000E+00
  5.31832005E-02  0.00000000E+00  0.00000000E+00  0.00000000E+00  8.24036162E-03
  0.00000000E+00  0.00000000E+00  0.00000000E+00  0.00000000E+00  1.05982070E-01
  0.00000000E+00  0.00000000E+00  0.00000000E+00  0.00000000E+00  0.00000000E+00
  0.00000000E+00  0.00000000E+00  3.62861693E-02  0.00000000E+00  0.00000000E+00
  1.41026367E-01  0.00000000E+00  0.00000000E+00  4.25015012E-02  0.00000000E+00
  0.00000000E+00  0.00000000E+00  7.30031346E-02  0.00000000E+00  0.00000000E+00
  0.00000000E+00  0.00000000E+00  2.17716191E-01  0.00000000E+00  0.00000000E+00
  0.00000000E+00  0.00000000E+00  0.00000000E+00  0.00000000E+00  0.00000000E+00
 -7.44264636E-02  0.00000000E+00  0.00000000E+00 -4.24195101E-01  0.00000000E+00
  0.00000000E+00 -6.48776709E-01  0.00000000E+00  0.00000000E+00  0.00000000E+00
  0.00000000E+00  0.00000000E+00  0.00000000E+00  0.00000000E+00  0.00000000E+00
 -4.66401813E-04 -1.47839817E-02 -1.43348307E-01 -1.92475172E-01  0.00000000E+00
  0.00000000E+00 -6.88496157E-04  0.00000000E+00  0.00000000E+00 -2.56312837E-02
  0.00000000E+00  0.00000000E+00 -3.27778766E-01 -1.32082704E-03  0.00000000E+00
  0.00000000E+00 -1.10801905E-03  0.00000000E+00 -1.05982070E-01  0.00000000E+00
  0.00000000E+00 -2.90291115E-02  0.00000000E+00 -8.44952493E-03 -1.00156740E-01
 -3.38749695E-01 -2.10781580E-01  0.00000000E+00  0.00000000E+00 -1.00416848E-02
  0.00000000E+00  0.00000000E+00 -1.46202370E-01  0.00000000E+00  0.00000000E+00
 -4.98841871E-01 -6.71956732E-03  0.00000000E+00  0.00000000E+00 -1.89435358E-02
  0.00000000E+00 -2.17716191E-01  0.00000000E+00  0.00000000E+00 -1.51132316E-01
  0.00000000E+00  0.00000000E+00  0.00000000E+00  0.00000000E+00  0.00000000E+00
  0.00000000E+00  0.00000000E+00  1.28910416E-01  0.00000000E+00  0.00000000E+00
  7.34727467E-01  0.00000000E+00  0.00000000E+00  1.12371422E+00  0.00000000E+00
  0.00000000E+00  0.00000000E+00  0.00000000E+00  0.00000000E+00  0.00000000E+00
  0.00000000E+00  0.00000000E+00  0.00000000E+00  0.00000000E+00  0.00000000E+00
  0.00000000E+00  0.00000000E+00  0.00000000E+00  0.00000000E+00  0.00000000E+00
  0.00000000E+00  0.00000000E+00  0.00000000E+00  0.00000000E+00  0.00000000E+00
  0.00000000E+00  0.00000000E+00  0.00000000E+00 -1.10801905E-03  0.00000000E+00
  0.00000000E+00  0.00000000E+00  0.00000000E+00 -2.90291115E-02  0.00000000E+00
  0.00000000E+00  0.00000000E+00  0.00000000E+00  0.00000000E+00  0.00000000E+00
  0.00000000E+00  0.00000000E+00  0.00000000E+00  0.00000000E+00  0.00000000E+00
  0.00000000E+00  0.00000000E+00  0.00000000E+00  0.00000000E+00  0.00000000E+00
  0.00000000E+00 -1.89435358E-02  0.00000000E+00  0.00000000E+00  0.00000000E+00
  0.00000000E+00 -1.51132316E-01  0.00000000E+00  0.00000000E+00  0.00000000E+00
  0.00000000E+00  0.00000000E+00  0.00000000E+00  0.00000000E+00  0.00000000E+00
  0.00000000E+00  0.00000000E+00  0.00000000E+00  0.00000000E+00  0.00000000E+00
  0.00000000E+00  0.00000000E+00  0.00000000E+00  0.00000000E+00  0.00000000E+00
  0.00000000E+00  0.00000000E+00  0.00000000E+00  0.00000000E+00  0.00000000E+00
  0.00000000E+00  0.00000000E+00  4.63247115E-05  0.00000000E+00  0.00000000E+00
  2.46601929E-03  0.00000000E+00  0.00000000E+00  7.36605577E-02  0.00000000E+00
  0.00000000E+00  0.00000000E+00  2.58922144E-04  0.00000000E+00  0.00000000E+00
  0.00000000E+00  0.00000000E+00  2.90291115E-02  0.00000000E+00  0.00000000E+00
  0.00000000E+00  0.00000000E+00  0.00000000E+00  0.00000000E+00  0.00000000E+00
  1.20273550E-03  0.00000000E+00  0.00000000E+00  2.55808097E-02  0.00000000E+00
  0.00000000E+00  2.25510519E-01  0.00000000E+00  0.00000000E+00  0.00000000E+00
  4.42672975E-03  0.00000000E+00  0.00000000E+00  0.00000000E+00  0.00000000E+00
  1.51132316E-01  0.00000000E+00  0.00000000E+00  0.00000000E+00  0.00000000E+00
  0.00000000E+00  0.00000000E+00  0.00000000E+00  1.28910416E-01  0.00000000E+00
  0.00000000E+00  7.34727467E-01  0.00000000E+00  0.00000000E+00  1.12371422E+00
  0.00000000E+00  0.00000000E+00  0.00000000E+00  0.00000000E+00  0.00000000E+00
  0.00000000E+00  0.00000000E+00  0.00000000E+00  0.00000000E+00  0.00000000E+00
  0.00000000E+00  0.00000000E+00  0.00000000E+00  0.00000000E+00  0.00000000E+00
  0.00000000E+00  4.63247115E-05  0.00000000E+00  0.00000000E+00  2.46601929E-03
  0.00000000E+00  0.00000000E+00  7.36605577E-02  0.00000000E+00  0.00000000E+00
  0.00000000E+00  2.58922144E-04  0.00000000E+00  0.00000000E+00  0.00000000E+00
  0.00000000E+00  2.90291115E-02  0.00000000E+00  0.00000000E+00  0.00000000E+00
  0.00000000E+00  0.00000000E+00  0.00000000E+00  0.00000000E+00  1.20273550E-03
  0.00000000E+00  0.00000000E+00  2.55808097E-02  0.00000000E+00  0.00000000E+00
  2.25510519E-01  0.00000000E+00  0.00000000E+00  0.00000000E+00  4.42672975E-03
  0.00000000E+00  0.00000000E+00  0.00000000E+00  0.00000000E+00  1.51132316E-01
  0.00000000E+00  0.00000000E+00  0.00000000E+00  0.00000000E+00  0.00000000E+00
  0.00000000E+00  0.00000000E+00  1.28910416E-01  0.00000000E+00  0.00000000E+00
  7.34727467E-01  0.00000000E+00  0.00000000E+00  1.12371422E+00  0.00000000E+00
  0.00000000E+00  0.00000000E+00  0.00000000E+00  0.00000000E+00  0.00000000E+00
  0.00000000E+00  0.00000000E+00  0.00000000E+00  0.00000000E+00  0.00000000E+00
Multipole Matrix (0,1,0)                   R   N=        2415
  0.00000000E+00  0.00000000E+00  0.00000000E+00  0.00000000E+00  0.00000000E+00
  0.00000000E+00  0.00000000E+00  0.00000000E+00  0.00000000E+00  0.00000000E+00
  0.00000000E+00  0.00000000E+00  0.00000000E+00  0.00000000E+00  0.00000000E+00
  4.17326919E-01  4.72884226E-01  2.80778475E-01  1.11862100E-01  0.00000000E+00
  0.00000000E+00  0.00000000E+00  0.00000000E+00  0.00000000E+00  0.00000000E+00
  0.00000000E+00  0.00000000E+00  0.00000000E+00  0.00000000E+00  0.00000000E+00
  0.00000000E+00  0.00000000E+00  0.00000000E+00  0.00000000E+00  0.00000000E+00
  0.00000000E+00  2.84964978E-01  8.67674035E-01  9.31584681E-01  4.99863277E-01
  0.00000000E+00  0.00000000E+00  0.00000000E+00  0.00000000E+00  0.00000000E+00
  0.00000000E+00  0.00000000E+00  0.00000000E+00  0.00000000E+00  0.00000000E+00
  0.00000000E+00  0.00000000E+00  0.00000000E+00  0.00000000E+00  0.00000000E+00
  0.00000000E+00  0.00000000E+00  0.00000000E+00  0.00000000E+00  0.00000000E+00
  0.00000000E+00  0.00000000E+00  0.00000000E+00  0.00000000E+00  0.00000000E+00
  0.00000000E+00  8.86326162E-02  5.87362976E-01  1.56019339E+00  1.78809431E+00
  0.00000000E+00  0.00000000E+00  0.00000000E+00  0.00000000E+00  0.00000000E+00
  0.00000000E+00  0.00000000E+00  0.00000000E+00  0.00000000E+00  0.00000000E+00
  0.00000000E+00  0.00000000E+00  0.00000000E+00  0.00000000E+00  0.00000000E+00
  0.00000000E+00  0.00000000E+00  0.00000000E+00  0.00000000E+00  0.00000000E+00
  0.00000000E+00  0.00000000E+00  0.00000000E+00  0.00000000E+00  0.00000000E+00
  0.00000000E+00 -2.34839285E-01  0.00000000E+00  0.00000000E+00 -3.03841983E-01
  0.00000000E+00  0.00000000E+00 -1.23766691E-01  0.00000000E+00  0.00000000E+00
  0.00000000E+00  0.00000000E+00  0.00000000E+00  0.00000000E+00  0.00000000E+00
  0.00000000E+00  0.00000000E+00  0.00000000E+00  0.00000000E+00  0.00000000E+00
  0.00000000E+00  0.00000000E+00  0.00000000E+00  0.00000000E+00  0.00000000E+00
  0.00000000E+00  0.00000000E+00  0.00000000E+00  0.00000000E+00  0.00000000E+00
  0.00000000E+00  4.06753573E-01  0.00000000E+00  0.00000000E+00  5.26269752E-01
  0.00000000E+00  0.00000000E+00  2.14370196E-01  0.00000000E+00  0.00000000E+00
  0.00000000E+00  0.00000000E+00  0.00000000E+00  0.00000000E+00  0.00000000E+00
  0.00000000E+00 -4.06753573E-01  0.00000000E+00  0.00000000E+00 -5.26269752E-01
  0.00000000E+00  0.00000000E+00 -2.14370196E-01  0.00000000E+00  0.00000000E+00
  0.00000000E+00  0.00000000E+00  0.00000000E+00  0.00000000E+00  0.00000000E+00
  0.00000000E+00  0.00000000E+00  4.06753573E-01  0.00000000E+00  0.00000000E+00
  5.26269752E-01  0.00000000E+00  0.00000000E+00  2.14370196E-01  0.00000000E+00
  0.00000000E+00  0.00000000E+00  0.00000000E+00  0.00000000E+00  0.00000000E+00
  0.00000000E+00  0.00000000E+00  0.00000000E+00  0.00000000E+00  0.00000000E+00
  0.00000000E+00 -7.44264636E-02  0.00000000E+00  0.00000000E+00 -4.24195101E-01
  0.00000000E+00  0.00000000E+00 -6.48776709E-01  0.00000000E+00  0.00000000E+00
  0.00000000E+00  0.00000000E+00  0.00000000E+00  0.00000000E+00  0.00000000E+00
  0.00000000E+00  0.00000000E+00  0.00000000E+00  0.00000000E+00  0.00000000E+00
  0.00000000E+00  0.00000000E+00  0.00000000E+00  0.00000000E+00  0.00000000E+00
  0.00000000E+00  0.00000000E+00  0.00000000E+00  0.00000000E+00  0.00000000E+00
  0.00000000E+00  0.00000000E+00  0.00000000E+00  0.00000000E+00  0.00000000E+00
  0.00000000E+00  0.00000000E+00  0.00000000E+00  0.00000000E+00  0.00000000E+00
  0.00000000E+00  1.28910416E-01  0.00000000E+00  0.00000000E+00  7.34727467E-01
  0.00000000E+00  0.00000000E+00  1.12371422E+00  0.00000000E+00  0.00000000E+00
  0.00000000E+00  0.00000000E+00  0.00000000E+00  0.00000000E+00  0.00000000E+00
  0.00000000E+00  0.00000000E+00  0.00000000E+00  0.00000000E+00  0.00000000E+00
  0.00000000E+00 -1.28910416E-01  0.00000000E+00  0.00000000E+00 -7.34727467E-01
  0.00000000E+00  0.00000000E+00 -1.12371422E+00  0.00000000E+00  0.00000000E+00
  0.00000000E+00  0.00000000E+00  0.00000000E+00  0.00000000E+00  0.00000000E+00
  0.00000000E+00  0.00000000E+00  0.00000000E+00  0.00000000E+00  0.00000000E+00
  0.00000000E+00  0.00000000E+00  1.28910416E-01  0.00000000E+00  0.00000000E+00
  7.34727467E-01  0.00000000E+00  0.00000000E+00  1.12371422E+00  0.00000000E+00
  0.00000000E+00  0.00000000E+00  0.00000000E+00  0.00000000E+00  0.00000000E+00
  0.00000000E+00  0.00000000E+00  0.00000000E+00  0.00000000E+00  0.00000000E+00
  0.00000000E+00  0.00000000E+00  0.00000000E+00  0.00000000E+00  0.00000000E+00
  0.00000000E+00  1.09968914E-01  0.00000000E+00  0.00000000E+00  1.57053721E-01
  0.00000000E+00  0.00000000E+00  7.32086036E-02  0.00000000E+00  0.00000000E+00
  0.00000000E+00  2.05066652E-01  0.00000000E+00  0.00000000E+00  0.00000000E+00
  0.00000000E+00  1.58541807E-01  0.00000000E+00  0.00000000E+00  0.00000000E+00
  0.00000000E+00  0.00000000E+00  0.00000000E+00  0.00000000E+00  0.00000000E+00
  2.75903041E-01  0.00000000E+00  0.00000000E+00  6.04936129E-01  0.00000000E+00
  0.00000000E+00  5.01412931E-01  0.00000000E+00  0.00000000E+00  0.00000000E+00
  2.42044258E-01  0.00000000E+00  0.00000000E+00  0.00000000E+00  0.00000000E+00
  5.18377182E-01  0.00000000E+00  0.00000000E+00  0.00000000E+00  0.00000000E+00
  0.00000000E+00  0.00000000E+00  0.00000000E+00  0.00000000E+00  0.00000000E+00
  2.31047640E-01  0.00000000E+00  0.00000000E+00  7.89574208E-01  0.00000000E+00
  0.00000000E+00  1.40576517E+00  0.00000000E+00  0.00000000E+00  0.00000000E+00
  8.15480021E-02  0.00000000E+00  0.00000000E+00  0.00000000E+00  0.00000000E+00
  4.44028268E-01  0.00000000E+00  0.00000000E+00  0.00000000E+00  0.00000000E+00
  0.00000000E+00  0.00000000E+00  0.00000000E+00  0.00000000E+00  0.00000000E+00
  0.00000000E+00  1.06349051E-01  0.00000000E+00  0.00000000E+00  4.76292275E-01
  0.00000000E+00  0.00000000E+00  1.71586054E+00  0.00000000E+00  0.00000000E+00
  0.00000000E+00  1.02671026E-02  0.00000000E+00  0.00000000E+00  0.00000000E+00
  0.00000000E+00  1.01345630E-01  0.00000000E+00  0.00000000E+00  0.00000000E+00
  0.00000000E+00  0.00000000E+00  0.00000000E+00  0.00000000E+00  0.00000000E+00
  0.00000000E+00  0.00000000E+00  0.00000000E+00  0.00000000E+00  0.00000000E+00
  0.00000000E+00  0.00000000E+00  0.00000000E+00  0.00000000E+00  0.00000000E+00
  0.00000000E+00  0.00000000E+00  0.00000000E+00  0.00000000E+00  0.00000000E+00
  1.18973554E-01  0.00000000E+00  0.00000000E+00  0.00000000E+00  0.00000000E+00
  8.40299591E-02  0.00000000E+00  0.00000000E+00  0.00000000E+00  0.00000000E+00
  0.00000000E+00  1.09968914E-01  2.75903041E-01  2.31047640E-01  1.06349051E-01
  0.00000000E+00  0.00000000E+00  1.70280156E-01  0.00000000E+00  0.00000000E+00
  3.70255125E-01  0.00000000E+00  0.00000000E+00  1.95846684E-01  1.56111991E-01
  0.00000000E+00  0.00000000E+00 -1.18973554E-01  0.00000000E+00  1.88016209E-01
  0.00000000E+00  0.00000000E+00 -8.40299591E-02  0.00000000E+00  4.17326919E-01
  4.72884226E-01  2.80778475E-01  1.11862100E-01  0.00000000E+00  0.00000000E+00
  0.00000000E+00  0.00000000E+00  0.00000000E+00  0.00000000E+00  0.00000000E+00
 -1.70280156E-01  0.00000000E+00  0.00000000E+00 -1.02103048E-01  0.00000000E+00
  0.00000000E+00 -1.41978407E-02  0.00000000E+00  0.00000000E+00  0.00000000E+00
 -1.73536324E-01  0.00000000E+00  0.00000000E+00  0.00000000E+00  0.00000000E+00
  1.21096709E-02  0.00000000E+00  0.00000000E+00  0.00000000E+00  0.00000000E+00
  0.00000000E+00  0.00000000E+00  0.00000000E+00  0.00000000E+00  0.00000000E+00
  0.00000000E+00  0.00000000E+00  0.00000000E+00  0.00000000E+00  0.00000000E+00
  0.00000000E+00  0.00000000E+00  0.00000000E+00  0.00000000E+00  0.00000000E+00
  0.00000000E+00  0.00000000E+00  0.00000000E+00  0.00000000E+00  0.00000000E+00
  0.00000000E+00  0.00000000E+00  2.95230679E-01  0.00000000E+00  0.00000000E+00
  0.00000000E+00  0.00000000E+00  5.40293116E-01  0.00000000E+00  0.00000000E+00
  0.00000000E+00  0.00000000E+00  0.00000000E+00  0.00000000E+00  0.00000000E+00
  0.00000000E+00  1.57053721E-01  6.04936129E-01  7.89574208E-01  4.76292275E-01
  0.00000000E+00  0.00000000E+00  1.02103048E-01  0.00000000E+00  0.00000000E+00
  4.80657448E-01  0.00000000E+00  0.00000000E+00  5.69553411E-01 -9.81148968E-02
  0.00000000E+00  0.00000000E+00 -2.95230679E-01  0.00000000E+00 -1.06930937E-02
  0.00000000E+00  0.00000000E+00 -5.40293116E-01  0.00000000E+00  2.84964978E-01
  8.67674035E-01  9.31584681E-01  4.99863277E-01  0.00000000E+00  0.00000000E+00
  0.00000000E+00  0.00000000E+00  0.00000000E+00  0.00000000E+00  0.00000000E+00
  0.00000000E+00  0.00000000E+00  0.00000000E+00 -3.70255125E-01  0.00000000E+00
  0.00000000E+00 -4.80657448E-01  0.00000000E+00  0.00000000E+00 -1.49727959E-01
  0.00000000E+00  0.00000000E+00  0.00000000E+00 -4.60895850E-02  0.00000000E+00
  0.00000000E+00  0.00000000E+00  0.00000000E+00  2.08134051E-01  0.00000000E+00
  0.00000000E+00  0.00000000E+00  0.00000000E+00  0.00000000E+00  0.00000000E+00
  0.00000000E+00  0.00000000E+00  0.00000000E+00  0.00000000E+00  0.00000000E+00
  0.00000000E+00  0.00000000E+00  0.00000000E+00  0.00000000E+00  0.00000000E+00
  0.00000000E+00  0.00000000E+00  0.00000000E+00  0.00000000E+00  0.00000000E+00
  0.00000000E+00  0.00000000E+00  0.00000000E+00  0.00000000E+00  0.00000000E+00
  0.00000000E+00  0.00000000E+00  0.00000000E+00  1.77370689E-01  0.00000000E+00
  0.00000000E+00  0.00000000E+00  0.00000000E+00  9.70067450E-01  0.00000000E+00
  0.00000000E+00  0.00000000E+00  0.00000000E+00  0.00000000E+00  0.00000000E+00
  0.00000000E+00  0.00000000E+00  0.00000000E+00  0.00000000E+00  0.00000000E+00
  7.32086036E-02  5.01412931E-01  1.40576517E+00  1.71586054E+00  0.00000000E+00
  0.00000000E+00  1.41978407E-02  0.00000000E+00  0.00000000E+00  1.49727959E-01
  0.00000000E+00  0.00000000E+00  6.43168072E-01 -9.86604630E-02  0.00000000E+00
  0.00000000E+00 -1.77370689E-01  0.00000000E+00 -4.92057894E-01  0.00000000E+00
  0.00000000E+00 -9.70067450E-01  0.00000000E+00  8.86326162E-02  5.87362976E-01
  1.56019339E+00  1.78809431E+00  0.00000000E+00  0.00000000E+00  0.00000000E+00
  0.00000000E+00  0.00000000E+00  0.00000000E+00  0.00000000E+00  0.00000000E+00
  0.00000000E+00  0.00000000E+00  0.00000000E+00  0.00000000E+00  0.00000000E+00
 -1.95846684E-01  0.00000000E+00  0.00000000E+00 -5.69553411E-01  0.00000000E+00
  0.00000000E+00 -6.43168072E-01  0.00000000E+00  0.00000000E+00  0.00000000E+00
  1.10160472E-01  0.00000000E+00  0.00000000E+00  0.00000000E+00  0.00000000E+00
  6.84811080E-01  0.00000000E+00  0.00000000E+00  0.00000000E+00  0.00000000E+00
  0.00000000E+00  0.00000000E+00  0.00000000E+00  0.00000000E+00  0.00000000E+00
  0.00000000E+00  0.00000000E+00  0.00000000E+00  0.00000000E+00  0.00000000E+00
  0.00000000E+00  0.00000000E+00  0.00000000E+00  0.00000000E+00  0.00000000E+00
  0.00000000E+00  1.56111991E-01  0.00000000E+00  0.00000000E+00 -9.81148968E-02
  0.00000000E+00  0.00000000E+00 -9.86604630E-02  0.00000000E+00  0.00000000E+00
  0.00000000E+00 -1.18953069E-01  0.00000000E+00  0.00000000E+00  0.00000000E+00
  0.00000000E+00 -2.41660904E-01  0.00000000E+00  0.00000000E+00  0.00000000E+00
  0.00000000E+00  0.00000000E+00  0.00000000E+00  0.00000000E+00 -2.34839285E-01
  0.00000000E+00  0.00000000E+00 -3.03841983E-01  0.00000000E+00  0.00000000E+00
 -1.23766691E-01  0.00000000E+00  0.00000000E+00  0.00000000E+00  0.00000000E+00
  0.00000000E+00  0.00000000E+00  0.00000000E+00  0.00000000E+00  0.00000000E+00
  0.00000000E+00  0.00000000E+00  0.00000000E+00  0.00000000E+00  0.00000000E+00
  0.00000000E+00  0.00000000E+00  0.00000000E+00  0.00000000E+00  0.00000000E+00
 -2.43196896E-01  0.00000000E+00  0.00000000E+00  0.00000000E+00  0.00000000E+00
 -7.66077786E-02  0.00000000E+00  0.00000000E+00  0.00000000E+00  0.00000000E+00
  0.00000000E+00  0.00000000E+00  0.00000000E+00  0.00000000E+00  0.00000000E+00
  0.00000000E+00  0.00000000E+00  0.00000000E+00  0.00000000E+00  0.00000000E+00
  0.00000000E+00 -2.05066652E-01 -2.42044258E-01 -8.15480021E-02 -1.02671026E-02
  0.00000000E+00  0.00000000E+00 -1.73536324E-01  0.00000000E+00  0.00000000E+00
 -4.60895850E-02  0.00000000E+00  0.00000000E+00  1.10160472E-01  1.18953069E-01
  0.00000000E+00  0.00000000E+00  2.43196896E-01  0.00000000E+00  2.68412810E-01
  0.00000000E+00  0.00000000E+00  7.66077786E-02  0.00000000E+00  0.00000000E+00
  0.00000000E+00  0.00000000E+00  0.00000000E+00  0.00000000E+00  0.00000000E+00
  4.06753573E-01  0.00000000E+00  0.00000000E+00  5.26269752E-01  0.00000000E+00
  0.00000000E+00  2.14370196E-01  0.00000000E+00  0.00000000E+00  0.00000000E+00
  0.00000000E+00  0.00000000E+00  0.00000000E+00  0.00000000E+00  0.00000000E+00
 -1.18973554E-01  0.00000000E+00  0.00000000E+00 -2.95230679E-01  0.00000000E+00
  0.00000000E+00 -1.77370689E-01  0.00000000E+00  0.00000000E+00  0.00000000E+00
 -2.43196896E-01  0.00000000E+00  0.00000000E+00  0.00000000E+00  0.00000000E+00
 -3.27831668E-01  0.00000000E+00  0.00000000E+00  0.00000000E+00  0.00000000E+00
  0.00000000E+00  0.00000000E+00  0.00000000E+00 -4.06753573E-01  0.00000000E+00
  0.00000000E+00 -5.26269752E-01  0.00000000E+00  0.00000000E+00 -2.14370196E-01
  0.00000000E+00  0.00000000E+00  0.00000000E+00  0.00000000E+00  0.00000000E+00
  0.00000000E+00  0.00000000E+00  0.00000000E+00  0.00000000E+00  1.18973554E-01
  0.00000000E+00  0.00000000E+00  2.95230679E-01  0.00000000E+00  0.00000000E+00
  1.77370689E-01  0.00000000E+00  0.00000000E+00  0.00000000E+00  2.43196896E-01
  0.00000000E+00  0.00000000E+00  0.00000000E+00  0.00000000E+00  3.27831668E-01
  0.00000000E+00  0.00000000E+00  0.00000000E+00  0.00000000E+00  0.00000000E+00
  0.00000000E+00  0.00000000E+00  4.06753573E-01  0.00000000E+00  0.00000000E+00
  5.26269752E-01  0.00000000E+00  0.00000000E+00  2.14370196E-01  0.00000000E+00
  0.00000000E+00  0.00000000E+00  0.00000000E+00  0.00000000E+00  0.00000000E+00
  0.00000000E+00  0.00000000E+00  0.00000000E+00  0.00000000E+00  0.00000000E+00
  0.00000000E+00  1.88016209E-01  0.00000000E+00  0.00000000E+00 -1.06930937E-02
  0.00000000E+00  0.00000000E+00 -4.92057894E-01  0.00000000E+00  0.00000000E+00
  0.00000000E+00 -2.68412810E-01  0.00000000E+00  0.00000000E+00  0.00000000E+00
  0.00000000E+00 -7.99910186E-01  0.00000000E+00  0.00000000E+00  0.00000000E+00
  0.00000000E+00  0.00000000E+00  0.00000000E+00  0.00000000E+00 -7.44264636E-02
  0.00000000E+00  0.00000000E+00 -4.24195101E-01  0.00000000E+00  0.00000000E+00
 -6.48776709E-01  0.00000000E+00  0.00000000E+00  0.00000000E+00  0.00000000E+00
  0.00000000E+00  0.00000000E+00  0.00000000E+00  0.00000000E+00  0.00000000E+00
  0.00000000E+00  0.00000000E+00  0.00000000E+00  0.00000000E+00  0.00000000E+00
  0.00000000E+00  0.00000000E+00  0.00000000E+00  0.00000000E+00  0.00000000E+00
  0.00000000E+00  0.00000000E+00  0.00000000E+00  0.00000000E+00  0.00000000E+00
 -3.27831668E-01  0.00000000E+00  0.00000000E+00  0.00000000E+00  0.00000000E+00
 -5.54875487E-01  0.00000000E+00  0.00000000E+00  0.00000000E+00  0.00000000E+00
  0.00000000E+00  0.00000000E+00  0.00000000E+00  0.00000000E+00  0.00000000E+00
  0.00000000E+00  0.00000000E+00  0.00000000E+00  0.00000000E+00  0.00000000E+00
  0.00000000E+00  0.00000000E+00  0.00000000E+00  0.00000000E+00  0.00000000E+00
  0.00000000E+00 -1.58541807E-01 -5.18377182E-01 -4.44028268E-01 -1.01345630E-01
  0.00000000E+00  0.00000000E+00  1.21096709E-02  0.00000000E+00  0.00000000E+00
  2.08134051E-01  0.00000000E+00  0.00000000E+00  6.84811080E-01  2.41660904E-01
  0.00000000E+00  0.00000000E+00  3.27831668E-01  0.00000000E+00  7.99910186E-01
  0.00000000E+00  0.00000000E+00  5.54875487E-01  0.00000000E+00  0.00000000E+00
  0.00000000E+00  0.00000000E+00  0.00000000E+00  0.00000000E+00  0.00000000E+00
  1.28910416E-01  0.00000000E+00  0.00000000E+00  7.34727467E-01  0.00000000E+00
  0.00000000E+00  1.12371422E+00  0.00000000E+00  0.00000000E+00  0.00000000E+00
  0.00000000E+00  0.00000000E+00  0.00000000E+00  0.00000000E+00  0.00000000E+00
  0.00000000E+00  0.00000000E+00  0.00000000E+00  0.00000000E+00  0.00000000E+00
 -8.40299591E-02  0.00000000E+00  0.00000000E+00 -5.40293116E-01  0.00000000E+00
  0.00000000E+00 -9.70067450E-01  0.00000000E+00  0.00000000E+00  0.00000000E+00
 -7.66077786E-02  0.00000000E+00  0.00000000E+00  0.00000000E+00  0.00000000E+00
 -5.54875487E-01  0.00000000E+00  0.00000000E+00  0.00000000E+00  0.00000000E+00
  0.00000000E+00  0.00000000E+00  0.00000000E+00 -1.28910416E-01  0.00000000E+00
  0.00000000E+00 -7.34727467E-01  0.00000000E+00  0.00000000E+00 -1.12371422E+00
  0.00000000E+00  0.00000000E+00  0.00000000E+00  0.00000000E+00  0.00000000E+00
  0.00000000E+00  0.00000000E+00  0.00000000E+00  0.00000000E+00  0.00000000E+00
  0.00000000E+00  0.00000000E+00  0.00000000E+00  0.00000000E+00  8.40299591E-02
  0.00000000E+00  0.00000000E+00  5.40293116E-01  0.00000000E+00  0.00000000E+00
  9.70067450E-01  0.00000000E+00  0.00000000E+00  0.00000000E+00  7.66077786E-02
  0.00000000E+00  0.00000000E+00  0.00000000E+00  0.00000000E+00  5.54875487E-01
  0.00000000E+00  0.00000000E+00  0.00000000E+00  0.00000000E+00  0.00000000E+00
  0.00000000E+00  0.00000000E+00  1.28910416E-01  0.00000000E+00  0.00000000E+00
  7.34727467E-01  0.00000000E+00  0.00000000E+00  1.12371422E+00  0.00000000E+00
  0.00000000E+00  0.00000000E+00  0.00000000E+00  0.00000000E+00  0.00000000E+00
  0.00000000E+00  0.00000000E+00  0.00000000E+00  0.00000000E+00  0.00000000E+00
  0.00000000E+00  0.00000000E+00  0.00000000E+00  0.00000000E+00  0.00000000E+00
  0.00000000E+00  0.00000000E+00  0.00000000E+00  0.00000000E+00  4.76445229E-06
  0.00000000E+00  0.00000000E+00  2.56420539E-03  0.00000000E+00  0.00000000E+00
  0.00000000E+00  2.25762221E-09  0.00000000E+00  0.00000000E+00  0.00000000E+00
  0.00000000E+00  4.66401813E-04  0.00000000E+00  0.00000000E+00  0.00000000E+00
  0.00000000E+00  0.00000000E+00  0.00000000E+00  0.00000000E+00  2.83203180E-07
  0.00000000E+00  0.00000000E+00  4.32984878E-04  0.00000000E+00  0.00000000E+00
  1.09823224E-02  0.00000000E+00  0.00000000E+00  0.00000000E+00  9.12341919E-06
  0.00000000E+00  0.00000000E+00  0.00000000E+00  0.00000000E+00  8.44952493E-03
  0.00000000E+00  0.00000000E+00  0.00000000E+00  0.00000000E+00  0.00000000E+00
  0.00000000E+00  0.00000000E+00  0.00000000E+00  2.17774005E-05  0.00000000E+00
  0.00000000E+00  1.08437067E-03  0.00000000E+00  0.00000000E+00  3.12944987E-02
  0.00000000E+00  0.00000000E+00  0.00000000E+00  1.43079998E-04  0.00000000E+00
  0.00000000E+00  0.00000000E+00  0.00000000E+00  1.47839817E-02  0.00000000E+00
  0.00000000E+00  0.00000000E+00  0.00000000E+00  0.00000000E+00  0.00000000E+00
  0.00000000E+00  1.31445407E-03  0.00000000E+00  0.00000000E+00  1.68760215E-02
  0.00000000E+00  0.00000000E+00  1.04318786E-01  0.00000000E+00  0.00000000E+00
  0.00000000E+00  5.21374414E-03  0.00000000E+00  0.00000000E+00  0.00000000E+00
  0.00000000E+00  1.00156740E-01  0.00000000E+00  0.00000000E+00  0.00000000E+00
  0.00000000E+00  0.00000000E+00  0.00000000E+00  0.00000000E+00  0.00000000E+00
  0.00000000E+00  7.57350787E-03  0.00000000E+00  0.00000000E+00  4.34500894E-02
  0.00000000E+00  0.00000000E+00  2.26078318E-01  0.00000000E+00  0.00000000E+00
  0.00000000E+00  1.24075164E-02  0.00000000E+00  0.00000000E+00  0.00000000E+00
  0.00000000E+00  1.43348307E-01  0.00000000E+00  0.00000000E+00  0.00000000E+00
  0.00000000E+00  0.00000000E+00  0.00000000E+00  0.00000000E+00  3.33873018E-02
  0.00000000E+00  0.00000000E+00  1.52973422E-01  0.00000000E+00  0.00000000E+00
  4.99727066E-01  0.00000000E+00  0.00000000E+00  0.00000000E+00  4.06420050E-02
  0.00000000E+00  0.00000000E+00  0.00000000E+00  0.00000000E+00  3.38749695E-01
  0.00000000E+00  0.00000000E+00  0.00000000E+00  0.00000000E+00  0.00000000E+00
  0.00000000E+00  0.00000000E+00  0.00000000E+00  0.00000000E+00  0.00000000E+00
  4.38419949E-02  0.00000000E+00  0.00000000E+00  2.04205049E-01  0.00000000E+00
  0.00000000E+00  8.32700812E-01  0.00000000E+00  0.00000000E+00  0.00000000E+00
  1.83153291E-02  0.00000000E+00  0.00000000E+00  0.00000000E+00  0.00000000E+00
  1.92475172E-01  0.00000000E+00  0.00000000E+00  0.00000000E+00  0.00000000E+00
  0.00000000E+00  0.00000000E+00  0.00000000E+00  6.44059469E-02  0.00000000E+00
  0.00000000E+00  2.94922428E-01  0.00000000E+00  0.00000000E+00  1.13965421E+00
  0.00000000E+00  0.00000000E+00  0.00000000E+00  2.06100798E-02  0.00000000E+00
  0.00000000E+00  0.00000000E+00  0.00000000E+00  2.10781580E-01  0.00000000E+00
  0.00000000E+00  0.00000000E+00  0.00000000E+00  0.00000000E+00  0.00000000E+00
  0.00000000E+00  0.00000000E+00  0.00000000E+00  0.00000000E+00  0.00000000E+00
  0.00000000E+00  0.00000000E+00  0.00000000E+00  0.00000000E+00  0.00000000E+00
  0.00000000E+00  0.00000000E+00  0.00000000E+00  0.00000000E+00  0.00000000E+00
  0.00000000E+00  0.00000000E+00  0.00000000E+00  0.00000000E+00  0.00000000E+00
  0.00000000E+00  0.00000000E+00  4.63247115E-05  0.00000000E+00  0.00000000E+00
  0.00000000E+00  0.00000000E+00  0.00000000E+00  0.00000000E+00  0.00000000E+00
  0.00000000E+00  0.00000000E+00  0.00000000E+00  0.00000000E+00  0.00000000E+00
  0.00000000E+00  0.00000000E+00  0.00000000E+00  0.00000000E+00  0.00000000E+00
  5.99302255E-07  0.00000000E+00  0.00000000E+00  0.00000000E+00  0.00000000E+00
  1.20273550E-03  0.00000000E+00  0.00000000E+00  0.00000000E+00  0.00000000E+00
  0.00000000E+00  0.00000000E+00  2.17774005E-05  7.57350787E-03  4.38419949E-02
  0.00000000E+00  0.00000000E+00  0.00000000E+00  0.00000000E+00  0.00000000E+00
  3.06027714E-05  0.00000000E+00  0.00000000E+00  2.82436792E-02  0.00000000E+00
  0.00000000E+00  0.00000000E+00  0.00000000E+00  0.00000000E+00  2.38992802E-03
  0.00000000E+00  0.00000000E+00 -4.63247115E-05  0.00000000E+00  2.83203180E-07
  1.31445407E-03  3.33873018E-02  6.44059469E-02  0.00000000E+00  0.00000000E+00
  3.76196197E-07  0.00000000E+00  0.00000000E+00  2.61928106E-03  0.00000000E+00
  0.00000000E+00  9.46912867E-02  1.20232656E-05  0.00000000E+00  0.00000000E+00
 -5.99302255E-07  0.00000000E+00  3.62861693E-02  0.00000000E+00  0.00000000E+00
 -1.20273550E-03  0.00000000E+00  4.17326919E-01  4.72884226E-01  2.80778475E-01
  1.11862100E-01  0.00000000E+00  0.00000000E+00  0.00000000E+00  0.00000000E+00
  0.00000000E+00  0.00000000E+00  0.00000000E+00  0.00000000E+00  0.00000000E+00
  0.00000000E+00 -8.43914377E-06  0.00000000E+00  0.00000000E+00 -2.04751619E-03
  0.00000000E+00  0.00000000E+00  0.00000000E+00  0.00000000E+00  0.00000000E+00
  0.00000000E+00  0.00000000E+00  0.00000000E+00 -6.88496157E-04  0.00000000E+00
  0.00000000E+00  0.00000000E+00  0.00000000E+00  0.00000000E+00  0.00000000E+00
  0.00000000E+00 -3.76196197E-07  0.00000000E+00  0.00000000E+00 -7.22303520E-04
  0.00000000E+00  0.00000000E+00 -6.86461354E-03  0.00000000E+00  0.00000000E+00
  0.00000000E+00 -1.54955016E-05  0.00000000E+00  0.00000000E+00  0.00000000E+00
  0.00000000E+00 -1.00416848E-02  0.00000000E+00  0.00000000E+00  0.00000000E+00
  0.00000000E+00  0.00000000E+00  0.00000000E+00  0.00000000E+00  0.00000000E+00
  0.00000000E+00  0.00000000E+00  0.00000000E+00  0.00000000E+00  0.00000000E+00
  0.00000000E+00  0.00000000E+00  0.00000000E+00  0.00000000E+00  0.00000000E+00
  0.00000000E+00  0.00000000E+00  0.00000000E+00  0.00000000E+00  0.00000000E+00
  0.00000000E+00  0.00000000E+00  0.00000000E+00  1.17083049E-05  0.00000000E+00
  0.00000000E+00  0.00000000E+00  0.00000000E+00  2.46601929E-03  0.00000000E+00
  0.00000000E+00  0.00000000E+00  0.00000000E+00  0.00000000E+00  0.00000000E+00
  0.00000000E+00  0.00000000E+00  0.00000000E+00  0.00000000E+00  0.00000000E+00
  0.00000000E+00  0.00000000E+00  0.00000000E+00  0.00000000E+00  0.00000000E+00
  0.00000000E+00  9.52739117E-04  0.00000000E+00  0.00000000E+00  0.00000000E+00
  0.00000000E+00  2.55808097E-02  0.00000000E+00  0.00000000E+00  0.00000000E+00
  0.00000000E+00  0.00000000E+00  0.00000000E+00  0.00000000E+00  0.00000000E+00
  4.76445229E-06  1.08437067E-03  4.34500894E-02  2.04205049E-01  0.00000000E+00
  0.00000000E+00  8.43914377E-06  0.00000000E+00  0.00000000E+00  2.02816394E-03
  0.00000000E+00  0.00000000E+00  1.37058220E-01  4.64072139E-05  0.00000000E+00
  0.00000000E+00 -1.17083049E-05  0.00000000E+00  2.40585523E-02  0.00000000E+00
  0.00000000E+00 -2.46601929E-03  0.00000000E+00  4.32984878E-04  1.68760215E-02
  1.52973422E-01  2.94922428E-01  0.00000000E+00  0.00000000E+00  7.22303520E-04
  0.00000000E+00  0.00000000E+00  3.14911421E-02  0.00000000E+00  0.00000000E+00
  3.67941925E-01  1.99981949E-03  0.00000000E+00  0.00000000E+00 -9.52739117E-04
  0.00000000E+00  1.41026367E-01  0.00000000E+00  0.00000000E+00 -2.55808097E-02
  0.00000000E+00  2.84964978E-01  8.67674035E-01  9.31584681E-01  4.99863277E-01
  0.00000000E+00  0.00000000E+00  0.00000000E+00  0.00000000E+00  0.00000000E+00
  0.00000000E+00  0.00000000E+00  0.00000000E+00  0.00000000E+00  0.00000000E+00
 -3.06027714E-05  0.00000000E+00  0.00000000E+00 -2.02816394E-03  0.00000000E+00
  0.00000000E+00 -3.60307692E-02  0.00000000E+00  0.00000000E+00  0.00000000E+00
 -2.39160177E-04  0.00000000E+00  0.00000000E+00  0.00000000E+00  0.00000000E+00
 -2.56312837E-02  0.00000000E+00  0.00000000E+00  0.00000000E+00  0.00000000E+00
  0.00000000E+00  0.00000000E+00  0.00000000E+00 -2.61928106E-03  0.00000000E+00
  0.00000000E+00 -3.14911421E-02  0.00000000E+00  0.00000000E+00 -9.67270009E-02
  0.00000000E+00  0.00000000E+00  0.00000000E+00 -1.10788850E-02  0.00000000E+00
  0.00000000E+00  0.00000000E+00  0.00000000E+00 -1.46202370E-01  0.00000000E+00
  0.00000000E+00  0.00000000E+00  0.00000000E+00  0.00000000E+00  0.00000000E+00
  0.00000000E+00  0.00000000E+00  0.00000000E+00  0.00000000E+00  0.00000000E+00
  0.00000000E+00  0.00000000E+00  0.00000000E+00  0.00000000E+00  0.00000000E+00
  0.00000000E+00  0.00000000E+00  0.00000000E+00  0.00000000E+00  0.00000000E+00
  0.00000000E+00  0.00000000E+00  0.00000000E+00  0.00000000E+00  0.00000000E+00
  0.00000000E+00  0.00000000E+00  0.00000000E+00  6.40031872E-03  0.00000000E+00
  0.00000000E+00  0.00000000E+00  0.00000000E+00  7.36605577E-02  0.00000000E+00
  0.00000000E+00  0.00000000E+00  0.00000000E+00  0.00000000E+00  0.00000000E+00
  0.00000000E+00  0.00000000E+00  0.00000000E+00  0.00000000E+00  0.00000000E+00
  0.00000000E+00  0.00000000E+00  0.00000000E+00  0.00000000E+00  0.00000000E+00
  0.00000000E+00  2.70630075E-02  0.00000000E+00  0.00000000E+00  0.00000000E+00
  0.00000000E+00  2.25510519E-01  0.00000000E+00  0.00000000E+00  0.00000000E+00
  0.00000000E+00  0.00000000E+00  0.00000000E+00  0.00000000E+00  0.00000000E+00
  0.00000000E+00  0.00000000E+00  0.00000000E+00  2.56420539E-03  3.12944987E-02
  2.26078318E-01  8.32700812E-01  0.00000000E+00  0.00000000E+00  2.04751619E-03
  0.00000000E+00  0.00000000E+00  3.60307692E-02  0.00000000E+00  0.00000000E+00
  4.48075415E-01 -1.19101373E-03  0.00000000E+00  0.00000000E+00 -6.40031872E-03
  0.00000000E+00  5.31832005E-02  0.00000000E+00  0.00000000E+00 -7.36605577E-02
  0.00000000E+00  1.09823224E-02  1.04318786E-01  4.99727066E-01  1.13965421E+00
  0.00000000E+00  0.00000000E+00  6.86461354E-03  0.00000000E+00  0.00000000E+00
  9.67270009E-02  0.00000000E+00  0.00000000E+00  7.58315974E-01 -9.38398481E-03
  0.00000000E+00  0.00000000E+00 -2.70630075E-02  0.00000000E+00  4.25015012E-02
  0.00000000E+00  0.00000000E+00 -2.25510519E-01  0.00000000E+00  8.86326162E-02
  5.87362976E-01  1.56019339E+00  1.78809431E+00  0.00000000E+00  0.00000000E+00
  0.00000000E+00  0.00000000E+00  0.00000000E+00  0.00000000E+00  0.00000000E+00
  0.00000000E+00  0.00000000E+00  0.00000000E+00  0.00000000E+00  0.00000000E+00
  0.00000000E+00 -2.82436792E-02  0.00000000E+00  0.00000000E+00 -1.37058220E-01
  0.00000000E+00  0.00000000E+00 -4.48075415E-01  0.00000000E+00  0.00000000E+00
  0.00000000E+00 -3.85472843E-02  0.00000000E+00  0.00000000E+00  0.00000000E+00
  0.00000000E+00 -3.27778766E-01  0.00000000E+00  0.00000000E+00  0.00000000E+00
  0.00000000E+00  0.00000000E+00  0.00000000E+00  0.00000000E+00 -9.46912867E-02
  0.00000000E+00  0.00000000E+00 -3.67941925E-01  0.00000000E+00  0.00000000E+00
 -7.58315974E-01  0.00000000E+00  0.00000000E+00  0.00000000E+00 -8.49527643E-02
  0.00000000E+00  0.00000000E+00  0.00000000E+00  0.00000000E+00 -4.98841871E-01
  0.00000000E+00  0.00000000E+00  0.00000000E+00  0.00000000E+00  0.00000000E+00
  0.00000000E+00  0.00000000E+00  0.00000000E+00  0.00000000E+00  0.00000000E+00
  0.00000000E+00  0.00000000E+00  0.00000000E+00  0.00000000E+00  0.00000000E+00
  0.00000000E+00  0.00000000E+00  0.00000000E+00  0.00000000E+00  0.00000000E+00
  0.00000000E+00  0.00000000E+00  0.00000000E+00  4.64072139E-05  0.00000000E+00
  0.00000000E+00 -1.19101373E-03  0.00000000E+00  0.00000000E+00  0.00000000E+00
  1.41899103E-07  0.00000000E+00  0.00000000E+00  0.00000000E+00  0.00000000E+00
  1.32082704E-03  0.00000000E+00  0.00000000E+00  0.00000000E+00  0.00000000E+00
  0.00000000E+00  0.00000000E+00  0.00000000E+00  1.20232656E-05  0.00000000E+00
  0.00000000E+00  1.99981949E-03  0.00000000E+00  0.00000000E+00 -9.38398481E-03
  0.00000000E+00  0.00000000E+00  0.00000000E+00  2.18666985E-04  0.00000000E+00
  0.00000000E+00  0.00000000E+00  0.00000000E+00  6.71956732E-03  0.00000000E+00
  0.00000000E+00  0.00000000E+00  0.00000000E+00  0.00000000E+00  0.00000000E+00
  0.00000000E+00 -2.34839285E-01  0.00000000E+00  0.00000000E+00 -3.03841983E-01
  0.00000000E+00  0.00000000E+00 -1.23766691E-01  0.00000000E+00  0.00000000E+00
  0.00000000E+00  0.00000000E+00  0.00000000E+00  0.00000000E+00  0.00000000E+00
  0.00000000E+00  0.00000000E+00  0.00000000E+00  0.00000000E+00  0.00000000E+00
  0.00000000E+00  0.00000000E+00  0.00000000E+00  0.00000000E+00  0.00000000E+00
  0.00000000E+00  0.00000000E+00 -6.66085222E-09  0.00000000E+00  0.00000000E+00
  0.00000000E+00  0.00000000E+00 -2.58922144E-04  0.00000000E+00  0.00000000E+00
  0.00000000E+00  0.00000000E+00  0.00000000E+00  0.00000000E+00  0.00000000E+00
  0.00000000E+00  0.00000000E+00  0.00000000E+00  0.00000000E+00  0.00000000E+00
  0.00000000E+00  0.00000000E+00  0.00000000E+00  0.00000000E+00  0.00000000E+00
 -1.84611713E-05  0.00000000E+00  0.00000000E+00  0.00000000E+00  0.00000000E+00
 -4.42672975E-03  0.00000000E+00  0.00000000E+00  0.00000000E+00  0.00000000E+00
  0.00000000E+00  0.00000000E+00  0.00000000E+00  0.00000000E+00  0.00000000E+00
  0.00000000E+00  0.00000000E+00  0.00000000E+00  0.00000000E+00  0.00000000E+00
  0.00000000E+00 -2.25762221E-09 -1.43079998E-04 -1.24075164E-02 -1.83153291E-02
  0.00000000E+00  0.00000000E+00  0.00000000E+00  0.00000000E+00  0.00000000E+00
 -2.39160177E-04  0.00000000E+00  0.00000000E+00 -3.85472843E-02 -1.41899103E-07
  0.00000000E+00  0.00000000E+00  6.66085222E-09  0.00000000E+00 -8.24036162E-03
  0.00000000E+00  0.00000000E+00  2.58922144E-04  0.00000000E+00 -9.12341919E-06
 -5.21374414E-03 -4.06420050E-02 -2.06100798E-02  0.00000000E+00  0.00000000E+00
 -1.54955016E-05  0.00000000E+00  0.00000000E+00 -1.10788850E-02  0.00000000E+00
  0.00000000E+00 -8.49527643E-02 -2.18666985E-04  0.00000000E+00  0.00000000E+00
  1.84611713E-05  0.00000000E+00 -7.30031346E-02  0.00000000E+00  0.00000000E+00
  4.42672975E-03  0.00000000E+00  0.00000000E+00  0.00000000E+00  0.00000000E+00
  0.00000000E+00  0.00000000E+00  0.00000000E+00  4.06753573E-01  0.00000000E+00
  0.00000000E+00  5.26269752E-01  0.00000000E+00  0.00000000E+00  2.14370196E-01
  0.00000000E+00  0.00000000E+00  0.00000000E+00  0.00000000E+00  0.00000000E+00
  0.00000000E+00  0.00000000E+00  0.00000000E+00  0.00000000E+00  0.00000000E+00
  0.00000000E+00 -1.17083049E-05  0.00000000E+00  0.00000000E+00 -6.40031872E-03
  0.00000000E+00  0.00000000E+00  0.00000000E+00 -6.66085222E-09  0.00000000E+00
  0.00000000E+00  0.00000000E+00  0.00000000E+00 -1.10801905E-03  0.00000000E+00
  0.00000000E+00  0.00000000E+00  0.00000000E+00  0.00000000E+00  0.00000000E+00
  0.00000000E+00 -5.99302255E-07  0.00000000E+00  0.00000000E+00 -9.52739117E-04
  0.00000000E+00  0.00000000E+00 -2.70630075E-02  0.00000000E+00  0.00000000E+00
  0.00000000E+00 -1.84611713E-05  0.00000000E+00  0.00000000E+00  0.00000000E+00
  0.00000000E+00 -1.89435358E-02  0.00000000E+00  0.00000000E+00  0.00000000E+00
  0.00000000E+00  0.00000000E+00  0.00000000E+00  0.00000000E+00 -4.06753573E-01
  0.00000000E+00  0.00000000E+00 -5.26269752E-01  0.00000000E+00  0.00000000E+00
 -2.14370196E-01  0.00000000E+00  0.00000000E+00  0.00000000E+00  0.00000000E+00
  0.00000000E+00  0.00000000E+00  0.00000000E+00  0.00000000E+00  0.00000000E+00
  0.00000000E+00  0.00000000E+00  0.00000000E+00  1.17083049E-05  0.00000000E+00
  0.00000000E+00  6.40031872E-03  0.00000000E+00  0.00000000E+00  0.00000000E+00
  6.66085222E-09  0.00000000E+00  0.00000000E+00  0.00000000E+00  0.00000000E+00
  1.10801905E-03  0.00000000E+00  0.00000000E+00  0.00000000E+00  0.00000000E+00
  0.00000000E+00  0.00000000E+00  0.00000000E+00  5.99302255E-07  0.00000000E+00
  0.00000000E+00  9.52739117E-04  0.00000000E+00  0.00000000E+00  2.70630075E-02
  0.00000000E+00  0.00000000E+00  0.00000000E+00  1.84611713E-05  0.00000000E+00
  0.00000000E+00  0.00000000E+00  0.00000000E+00  1.89435358E-02  0.00000000E+00
  0.00000000E+00  0.00000000E+00  0.00000000E+00  0.00000000E+00  0.00000000E+00
  0.00000000E+00  4.06753573E-01  0.00000000E+00  0.00000000E+00  5.26269752E-01
  0.00000000E+00  0.00000000E+00  2.14370196E-01  0.00000000E+00  0.00000000E+00
  0.00000000E+00  0.00000000E+00  0.00000000E+00  0.00000000E+00  0.00000000E+00
  0.00000000E+00  0.00000000E+00  0.00000000E+00  0.00000000E+00  0.00000000E+00
  2.38992802E-03  0.00000000E+00  0.00000000E+00  2.40585523E-02  0.00000000E+00
  0.00000000E+00  5.31832005E-02  0.00000000E+00  0.00000000E+00  0.00000000E+00
  8.24036162E-03  0.00000000E+00  0.00000000E+00  0.00000000E+00  0.00000000E+00
  1.05982070E-01  0.00000000E+00  0.00000000E+00  0.00000000E+00  0.00000000E+00
  0.00000000E+00  0.00000000E+00  0.00000000E+00  3.62861693E-02  0.00000000E+00
  0.00000000E+00  1.41026367E-01  0.00000000E+00  0.00000000E+00  4.25015012E-02
  0.00000000E+00  0.00000000E+00  0.00000000E+00  7.30031346E-02  0.00000000E+00
  0.00000000E+00  0.00000000E+00  0.00000000E+00  2.17716191E-01  0.00000000E+00
  0.00000000E+00  0.00000000E+00  0.00000000E+00  0.00000000E+00  0.00000000E+00
  0.00000000E+00 -7.44264636E-02  0.00000000E+00  0.00000000E+00 -4.24195101E-01
  0.00000000E+00  0.00000000E+00 -6.48776709E-01  0.00000000E+00  0.00000000E+00
  0.00000000E+00  0.00000000E+00  0.00000000E+00  0.00000000E+00  0.00000000E+00
  0.00000000E+00  0.00000000E+00  0.00000000E+00  0.00000000E+00  0.00000000E+00
  0.00000000E+00  0.00000000E+00  0.00000000E+00  0.00000000E+00  0.00000000E+00
  0.00000000E+00  0.00000000E+00  0.00000000E+00  0.00000000E+00  0.00000000E+00
  0.00000000E+00  0.00000000E+00 -1.10801905E-03  0.00000000E+00  0.00000000E+00
  0.00000000E+00  0.00000000E+00 -2.90291115E-02  0.00000000E+00  0.00000000E+00
  0.00000000E+00  0.00000000E+00  0.00000000E+00  0.00000000E+00  0.00000000E+00
  0.00000000E+00  0.00000000E+00  0.00000000E+00  0.00000000E+00  0.00000000E+00
  0.00000000E+00  0.00000000E+00  0.00000000E+00  0.00000000E+00  0.00000000E+00
 -1.89435358E-02  0.00000000E+00  0.00000000E+00  0.00000000E+00  0.00000000E+00
 -1.51132316E-01  0.00000000E+00  0.00000000E+00  0.00000000E+00  0.00000000E+00
  0.00000000E+00  0.00000000E+00  0.00000000E+00  0.00000000E+00  0.00000000E+00
  0.00000000E+00  0.00000000E+00  0.00000000E+00  0.00000000E+00  0.00000000E+00
  0.00000000E+00  0.00000000E+00  0.00000000E+00  0.00000000E+00  0.00000000E+00
  0.00000000E+00 -4.66401813E-04 -1.47839817E-02 -1.43348307E-01 -1.92475172E-01
  0.00000000E+00  0.00000000E+00 -6.88496157E-04  0.00000000E+00  0.00000000E+00
 -2.56312837E-02  0.00000000E+00  0.00000000E+00 -3.27778766E-01 -1.32082704E-03
  0.00000000E+00  0.00000000E+00  1.10801905E-03  0.00000000E+00 -1.05982070E-01
  0.00000000E+00  0.00000000E+00  2.90291115E-02  0.00000000E+00 -8.44952493E-03
 -1.00156740E-01 -3.38749695E-01 -2.10781580E-01  0.00000000E+00  0.00000000E+00
 -1.00416848E-02  0.00000000E+00  0.00000000E+00 -1.46202370E-01  0.00000000E+00
  0.00000000E+00 -4.98841871E-01 -6.71956732E-03  0.00000000E+00  0.00000000E+00
  1.89435358E-02  0.00000000E+00 -2.17716191E-01  0.00000000E+00  0.00000000E+00
  1.51132316E-01  0.00000000E+00  0.00000000E+00  0.00000000E+00  0.00000000E+00
  0.00000000E+00  0.00000000E+00  0.00000000E+00  1.28910416E-01  0.00000000E+00
  0.00000000E+00  7.34727467E-01  0.00000000E+00  0.00000000E+00  1.12371422E+00
  0.00000000E+00  0.00000000E+00  0.00000000E+00  0.00000000E+00  0.00000000E+00
  0.00000000E+00  0.00000000E+00  0.00000000E+00  0.00000000E+00  0.00000000E+00
  0.00000000E+00  0.00000000E+00  0.00000000E+00 -4.63247115E-05  0.00000000E+00
  0.00000000E+00 -2.46601929E-03  0.00000000E+00  0.00000000E+00 -7.36605577E-02
  0.00000000E+00  0.00000000E+00  0.00000000E+00 -2.58922144E-04  0.00000000E+00
  0.00000000E+00  0.00000000E+00  0.00000000E+00 -2.90291115E-02  0.00000000E+00
  0.00000000E+00  0.00000000E+00  0.00000000E+00  0.00000000E+00  0.00000000E+00
  0.00000000E+00 -1.20273550E-03  0.00000000E+00  0.00000000E+00 -2.55808097E-02
  0.00000000E+00  0.00000000E+00 -2.25510519E-01  0.00000000E+00  0.00000000E+00
  0.00000000E+00 -4.42672975E-03  0.00000000E+00  0.00000000E+00  0.00000000E+00
  0.00000000E+00 -1.51132316E-01  0.00000000E+00  0.00000000E+00  0.00000000E+00
  0.00000000E+00  0.00000000E+00  0.00000000E+00  0.00000000E+00 -1.28910416E-01
  0.00000000E+00  0.00000000E+00 -7.34727467E-01  0.00000000E+00  0.00000000E+00
 -1.12371422E+00  0.00000000E+00  0.00000000E+00  0.00000000E+00  0.00000000E+00
  0.00000000E+00  0.00000000E+00  0.00000000E+00  0.00000000E+00  0.00000000E+00
  0.00000000E+00  0.00000000E+00  0.00000000E+00  0.00000000E+00  0.00000000E+00
  4.63247115E-05  0.00000000E+00  0.00000000E+00  2.46601929E-03  0.00000000E+00
  0.00000000E+00  7.36605577E-02  0.00000000E+00  0.00000000E+00  0.00000000E+00
  2.58922144E-04  0.00000000E+00  0.00000000E+00  0.00000000E+00  0.00000000E+00
  2.90291115E-02  0.00000000E+00  0.00000000E+00  0.00000000E+00  0.00000000E+00
  0.00000000E+00  0.00000000E+00  0.00000000E+00  1.20273550E-03  0.00000000E+00
  0.00000000E+00  2.55808097E-02  0.00000000E+00  0.00000000E+00  2.25510519E-01
  0.00000000E+00  0.00000000E+00  0.00000000E+00  4.42672975E-03  0.00000000E+00
  0.00000000E+00  0.00000000E+00  0.00000000E+00  1.51132316E-01  0.00000000E+00
  0.00000000E+00  0.00000000E+00  0.00000000E+00  0.00000000E+00  0.00000000E+00
  0.00000000E+00  1.28910416E-01  0.00000000E+00  0.00000000E+00  7.34727467E-01
  0.00000000E+00  0.00000000E+00  1.12371422E+00  0.00000000E+00  0.00000000E+00
  0.00000000E+00  0.00000000E+00  0.00000000E+00  0.00000000E+00  0.00000000E+00
  0.00000000E+00  0.00000000E+00  0.00000000E+00  0.00000000E+00  0.00000000E+00
Multipole Matrix (0,0,1)                   R   N=        2415
 -1.42713765E+00 -1.00796598E+00 -1.42713765E+00 -5.33075650E-01 -1.12583763E+00
 -1.42713765E+00 -2.03622537E-01 -5.30245698E-01 -1.01368344E+00 -1.42713765E+00
  0.00000000E+00  0.00000000E+00  0.00000000E+00  0.00000000E+00 -1.42713765E+00
  0.00000000E+00  0.00000000E+00  0.00000000E+00  0.00000000E+00  0.00000000E+00
 -1.42713765E+00  4.17326919E-01  4.72884226E-01  2.80778475E-01  1.11862100E-01
  0.00000000E+00  0.00000000E+00 -1.42713765E+00  0.00000000E+00  0.00000000E+00
  0.00000000E+00  0.00000000E+00 -8.77580569E-01  0.00000000E+00  0.00000000E+00
 -1.42713765E+00  0.00000000E+00  0.00000000E+00  0.00000000E+00  0.00000000E+00
  0.00000000E+00 -8.77580569E-01  0.00000000E+00  0.00000000E+00 -1.42713765E+00
  2.84964978E-01  8.67674035E-01  9.31584681E-01  4.99863277E-01  0.00000000E+00
  0.00000000E+00 -8.77580569E-01  0.00000000E+00  0.00000000E+00 -1.42713765E+00
  0.00000000E+00  0.00000000E+00  0.00000000E+00  0.00000000E+00 -2.54938596E-01
  0.00000000E+00  0.00000000E+00 -8.47891973E-01  0.00000000E+00  0.00000000E+00
 -1.42713765E+00  0.00000000E+00  0.00000000E+00  0.00000000E+00  0.00000000E+00
  0.00000000E+00 -2.54938596E-01  0.00000000E+00  0.00000000E+00 -8.47891973E-01
  0.00000000E+00  0.00000000E+00 -1.42713765E+00  8.86326162E-02  5.87362976E-01
  1.56019339E+00  1.78809431E+00  0.00000000E+00  0.00000000E+00 -2.54938596E-01
  0.00000000E+00  0.00000000E+00 -8.47891973E-01  0.00000000E+00  0.00000000E+00
 -1.42713765E+00  0.00000000E+00  0.00000000E+00  0.00000000E+00  0.00000000E+00
  0.00000000E+00  0.00000000E+00  4.69678570E-01  0.00000000E+00  0.00000000E+00
  6.07683966E-01  0.00000000E+00  0.00000000E+00  2.47533381E-01 -1.42713765E+00
  0.00000000E+00  0.00000000E+00  0.00000000E+00  0.00000000E+00  4.06753573E-01
  0.00000000E+00  0.00000000E+00  5.26269752E-01  0.00000000E+00  0.00000000E+00
  2.14370196E-01  0.00000000E+00  0.00000000E+00  0.00000000E+00 -1.42713765E+00
  0.00000000E+00  0.00000000E+00  0.00000000E+00  0.00000000E+00  0.00000000E+00
  4.06753573E-01  0.00000000E+00  0.00000000E+00  5.26269752E-01  0.00000000E+00
  0.00000000E+00  2.14370196E-01  0.00000000E+00  0.00000000E+00  0.00000000E+00
 -1.42713765E+00 -1.42034073E-17  3.63511159E-17  3.30639246E-17 -6.40027145E-18
  0.00000000E+00  0.00000000E+00  1.11038724E-17  0.00000000E+00  0.00000000E+00
  4.09699414E-18  0.00000000E+00  0.00000000E+00  4.41234122E-18  2.03924443E-17
  0.00000000E+00  0.00000000E+00 -1.42713765E+00  0.00000000E+00  0.00000000E+00
  0.00000000E+00  0.00000000E+00  0.00000000E+00  0.00000000E+00  0.00000000E+00
  0.00000000E+00  0.00000000E+00  0.00000000E+00  0.00000000E+00  0.00000000E+00
  0.00000000E+00  0.00000000E+00  0.00000000E+00  0.00000000E+00  0.00000000E+00
 -1.42713765E+00  0.00000000E+00  0.00000000E+00  0.00000000E+00  0.00000000E+00
  0.00000000E+00  0.00000000E+00  1.48852927E-01  0.00000000E+00  0.00000000E+00
  8.48390202E-01  0.00000000E+00  0.00000000E+00  1.29755342E+00 -6.08065235E-01
  0.00000000E+00  0.00000000E+00  2.20925788E-17  0.00000000E+00 -1.42713765E+00
  0.00000000E+00  0.00000000E+00  0.00000000E+00  0.00000000E+00  1.28910416E-01
  0.00000000E+00  0.00000000E+00  7.34727467E-01  0.00000000E+00  0.00000000E+00
  1.12371422E+00  0.00000000E+00  0.00000000E+00  0.00000000E+00 -6.08065235E-01
  0.00000000E+00  0.00000000E+00  0.00000000E+00  0.00000000E+00 -1.42713765E+00
  0.00000000E+00  0.00000000E+00  0.00000000E+00  0.00000000E+00  0.00000000E+00
  1.28910416E-01  0.00000000E+00  0.00000000E+00  7.34727467E-01  0.00000000E+00
  0.00000000E+00  1.12371422E+00  0.00000000E+00  0.00000000E+00  0.00000000E+00
 -6.08065235E-01  0.00000000E+00  0.00000000E+00  0.00000000E+00  0.00000000E+00
 -1.42713765E+00 -9.42624833E-18  2.90288774E-17 -1.44833925E-17 -1.14739705E-17
  0.00000000E+00  0.00000000E+00  6.56517578E-18  0.00000000E+00  0.00000000E+00
 -4.12095071E-18  0.00000000E+00  0.00000000E+00  4.87874335E-17  5.66299686E-18
  0.00000000E+00  0.00000000E+00 -6.08065235E-01  0.00000000E+00 -5.37037068E-18
  0.00000000E+00  0.00000000E+00 -1.42713765E+00  0.00000000E+00  0.00000000E+00
  0.00000000E+00  0.00000000E+00  0.00000000E+00  0.00000000E+00  0.00000000E+00
  0.00000000E+00  0.00000000E+00  0.00000000E+00  0.00000000E+00  0.00000000E+00
  0.00000000E+00  0.00000000E+00  0.00000000E+00  0.00000000E+00  0.00000000E+00
 -6.08065235E-01  0.00000000E+00  0.00000000E+00  0.00000000E+00  0.00000000E+00
 -1.42713765E+00 -1.83182253E-01 -1.22596642E-01 -3.36827935E-02 -3.89862954E-03
  0.00000000E+00  0.00000000E+00 -1.79974882E-01  0.00000000E+00  0.00000000E+00
 -3.00051531E-02  0.00000000E+00  0.00000000E+00  4.52157659E-02 -3.63460519E-02
  0.00000000E+00  0.00000000E+00 -1.83487666E-18  0.00000000E+00  1.06845476E-01
  0.00000000E+00  0.00000000E+00  1.02900796E-18  0.00000000E+00  0.00000000E+00
 -4.72319384E-01 -5.12088212E-01 -2.30157860E-01 -3.63741984E-02  0.00000000E+00
  0.00000000E+00 -2.14106764E-02  0.00000000E+00  0.00000000E+00  1.68543399E-01
  0.00000000E+00  0.00000000E+00  3.42752831E-01  1.37725739E-01  0.00000000E+00
  0.00000000E+00  2.47822610E-17  0.00000000E+00  4.27296192E-01  0.00000000E+00
  0.00000000E+00  8.69757280E-19  0.00000000E+00  0.00000000E+00  0.00000000E+00
 -4.05764848E-01 -7.30140512E-01 -6.42709751E-01 -1.92012176E-01  0.00000000E+00
  0.00000000E+00  1.40965822E-01  0.00000000E+00  0.00000000E+00  5.28393685E-01
  0.00000000E+00  0.00000000E+00  1.11272492E+00  7.62114660E-02  0.00000000E+00
  0.00000000E+00 -1.42702222E-18  0.00000000E+00  4.36969534E-01  0.00000000E+00
  0.00000000E+00 -3.97734864E-17  0.00000000E+00  0.00000000E+00  0.00000000E+00
  0.00000000E+00 -1.89713401E-01 -4.69149400E-01 -7.80667083E-01 -6.95447202E-01
  0.00000000E+00  0.00000000E+00  9.55992378E-02  0.00000000E+00  0.00000000E+00
  4.30279656E-01  0.00000000E+00  0.00000000E+00  1.57435113E+00  1.12597314E-02
  0.00000000E+00  0.00000000E+00 -5.03749779E-18  0.00000000E+00  1.11561843E-01
  0.00000000E+00  0.00000000E+00  1.10037962E-17  0.00000000E+00  0.00000000E+00
  0.00000000E+00  0.00000000E+00  0.00000000E+00  0.00000000E+00  0.00000000E+00
  0.00000000E+00  0.00000000E+00 -1.70280156E-01  0.00000000E+00  0.00000000E+00
 -1.02103048E-01  0.00000000E+00  0.00000000E+00 -1.41978407E-02  0.00000000E+00
  0.00000000E+00  0.00000000E+00 -1.73536324E-01  0.00000000E+00  0.00000000E+00
  0.00000000E+00  0.00000000E+00  1.21096709E-02  0.00000000E+00  0.00000000E+00
  0.00000000E+00  0.00000000E+00  0.00000000E+00  0.00000000E+00  0.00000000E+00
  0.00000000E+00  0.00000000E+00  0.00000000E+00  0.00000000E+00  0.00000000E+00
  0.00000000E+00 -1.70280156E-01  0.00000000E+00  0.00000000E+00 -1.02103048E-01
  0.00000000E+00  0.00000000E+00 -1.41978407E-02  0.00000000E+00  0.00000000E+00
  0.00000000E+00 -1.73536324E-01  0.00000000E+00  0.00000000E+00  0.00000000E+00
  0.00000000E+00  1.21096709E-02  0.00000000E+00  0.00000000E+00  0.00000000E+00
  0.00000000E+00  0.00000000E+00  0.00000000E+00  0.00000000E+00  0.00000000E+00
  3.85044813E-01  3.44747966E-01  2.37622909E-01  1.06542044E-01  0.00000000E+00
  0.00000000E+00  3.17686182E-01  0.00000000E+00  0.00000000E+00  2.92540662E-01
  0.00000000E+00  0.00000000E+00  1.72951337E-01  1.01869714E-01  0.00000000E+00
  0.00000000E+00 -9.95613989E-19  0.00000000E+00  2.03006810E-01  0.00000000E+00
  0.00000000E+00 -1.94041266E-18  0.00000000E+00  4.17326919E-01  4.72884226E-01
  2.80778475E-01  1.11862100E-01  0.00000000E+00  0.00000000E+00  0.00000000E+00
  0.00000000E+00  0.00000000E+00  0.00000000E+00  0.00000000E+00 -3.70255125E-01
  0.00000000E+00  0.00000000E+00 -4.80657448E-01  0.00000000E+00  0.00000000E+00
 -1.49727959E-01  0.00000000E+00  0.00000000E+00  0.00000000E+00 -4.60895850E-02
  0.00000000E+00  0.00000000E+00  0.00000000E+00  0.00000000E+00  2.08134051E-01
  0.00000000E+00  0.00000000E+00  0.00000000E+00  0.00000000E+00  0.00000000E+00
  0.00000000E+00  0.00000000E+00  0.00000000E+00  0.00000000E+00  0.00000000E+00
  0.00000000E+00  0.00000000E+00  0.00000000E+00  0.00000000E+00  0.00000000E+00
  0.00000000E+00 -3.70255125E-01  0.00000000E+00  0.00000000E+00 -4.80657448E-01
  0.00000000E+00  0.00000000E+00 -1.49727959E-01  0.00000000E+00  0.00000000E+00
  0.00000000E+00 -4.60895850E-02  0.00000000E+00  0.00000000E+00  0.00000000E+00
  0.00000000E+00  2.08134051E-01  0.00000000E+00  0.00000000E+00  0.00000000E+00
  0.00000000E+00  0.00000000E+00  0.00000000E+00  0.00000000E+00  0.00000000E+00
  0.00000000E+00  0.00000000E+00  0.00000000E+00  7.75323427E-01  9.71371055E-01
  8.58706269E-01  4.79287839E-01  0.00000000E+00  0.00000000E+00 -1.79712029E-01
  0.00000000E+00  0.00000000E+00 -1.00818821E-01  0.00000000E+00  0.00000000E+00
  3.19358178E-01 -1.47180403E-01  0.00000000E+00  0.00000000E+00 -5.39178773E-17
  0.00000000E+00  2.75930370E-01  0.00000000E+00  0.00000000E+00 -1.88742870E-17
  0.00000000E+00  2.84964978E-01  8.67674035E-01  9.31584681E-01  4.99863277E-01
  0.00000000E+00  0.00000000E+00  0.00000000E+00  0.00000000E+00  0.00000000E+00
  0.00000000E+00  0.00000000E+00  0.00000000E+00  0.00000000E+00  0.00000000E+00
 -1.95846684E-01  0.00000000E+00  0.00000000E+00 -5.69553411E-01  0.00000000E+00
  0.00000000E+00 -6.43168072E-01  0.00000000E+00  0.00000000E+00  0.00000000E+00
  1.10160472E-01  0.00000000E+00  0.00000000E+00  0.00000000E+00  0.00000000E+00
  6.84811080E-01  0.00000000E+00  0.00000000E+00  0.00000000E+00  0.00000000E+00
  0.00000000E+00  0.00000000E+00  0.00000000E+00  0.00000000E+00  0.00000000E+00
  0.00000000E+00  0.00000000E+00  0.00000000E+00  0.00000000E+00  0.00000000E+00
  0.00000000E+00  0.00000000E+00  0.00000000E+00  0.00000000E+00  0.00000000E+00
 -1.95846684E-01  0.00000000E+00  0.00000000E+00 -5.69553411E-01  0.00000000E+00
  0.00000000E+00 -6.43168072E-01  0.00000000E+00  0.00000000E+00  0.00000000E+00
  1.10160472E-01  0.00000000E+00  0.00000000E+00  0.00000000E+00  0.00000000E+00
  6.84811080E-01  0.00000000E+00  0.00000000E+00  0.00000000E+00  0.00000000E+00
  0.00000000E+00  0.00000000E+00  0.00000000E+00  0.00000000E+00  0.00000000E+00
  0.00000000E+00  0.00000000E+00  0.00000000E+00  0.00000000E+00  0.00000000E+00
  4.14139457E-01  1.00819196E+00  1.70081648E+00  1.75090492E+00  0.00000000E+00
  0.00000000E+00 -3.01623276E-01  0.00000000E+00  0.00000000E+00 -8.01995083E-01
  0.00000000E+00  0.00000000E+00 -5.09552715E-01  6.80429845E-02  0.00000000E+00
  0.00000000E+00 -1.88133362E-17  0.00000000E+00  5.77806142E-01  0.00000000E+00
  0.00000000E+00 -4.91129740E-17  0.00000000E+00  8.86326162E-02  5.87362976E-01
  1.56019339E+00  1.78809431E+00  0.00000000E+00  0.00000000E+00  0.00000000E+00
  0.00000000E+00  0.00000000E+00  0.00000000E+00  0.00000000E+00  0.00000000E+00
  0.00000000E+00 -6.05553899E-01 -3.23184331E-01 -9.59077756E-02 -1.18696647E-02
  0.00000000E+00  0.00000000E+00 -7.86778394E-02  0.00000000E+00  0.00000000E+00
  8.01608178E-02  0.00000000E+00  0.00000000E+00  1.37017107E-01  7.91725526E-02
  0.00000000E+00  0.00000000E+00 -1.00414926E-17  0.00000000E+00  1.88084675E-01
  0.00000000E+00  0.00000000E+00 -4.03419933E-18  0.00000000E+00  0.00000000E+00
  0.00000000E+00  0.00000000E+00  0.00000000E+00  0.00000000E+00  0.00000000E+00
  4.69678570E-01  0.00000000E+00  0.00000000E+00  6.07683966E-01  0.00000000E+00
  0.00000000E+00  2.47533381E-01  0.00000000E+00  0.00000000E+00  0.00000000E+00
  0.00000000E+00  0.00000000E+00  5.08341007E-01  0.00000000E+00  0.00000000E+00
  4.20521372E-01  0.00000000E+00  0.00000000E+00  1.83856443E-01  0.00000000E+00
  0.00000000E+00  0.00000000E+00  2.80361032E-01  0.00000000E+00  0.00000000E+00
  0.00000000E+00  0.00000000E+00  2.37094373E-01  0.00000000E+00  0.00000000E+00
  0.00000000E+00  0.00000000E+00  0.00000000E+00  0.00000000E+00  0.00000000E+00
  4.06753573E-01  0.00000000E+00  0.00000000E+00  5.26269752E-01  0.00000000E+00
  0.00000000E+00  2.14370196E-01  0.00000000E+00  0.00000000E+00  0.00000000E+00
  0.00000000E+00  0.00000000E+00  0.00000000E+00  0.00000000E+00  0.00000000E+00
  0.00000000E+00  5.08341007E-01  0.00000000E+00  0.00000000E+00  4.20521372E-01
  0.00000000E+00  0.00000000E+00  1.83856443E-01  0.00000000E+00  0.00000000E+00
  0.00000000E+00  2.80361032E-01  0.00000000E+00  0.00000000E+00  0.00000000E+00
  0.00000000E+00  2.37094373E-01  0.00000000E+00  0.00000000E+00  0.00000000E+00
  0.00000000E+00  0.00000000E+00  0.00000000E+00  0.00000000E+00  4.06753573E-01
  0.00000000E+00  0.00000000E+00  5.26269752E-01  0.00000000E+00  0.00000000E+00
  2.14370196E-01  0.00000000E+00  0.00000000E+00  0.00000000E+00  0.00000000E+00
 -1.21507365E-18 -2.69253762E-18 -2.28205748E-18 -2.16455270E-19  0.00000000E+00
  0.00000000E+00 -3.32064498E-18  0.00000000E+00  0.00000000E+00 -1.36598230E-18
  0.00000000E+00  0.00000000E+00 -2.19366462E-18  3.44474129E-18  0.00000000E+00
  0.00000000E+00 -2.43196896E-01  0.00000000E+00 -1.36949092E-17  0.00000000E+00
  0.00000000E+00 -7.66077786E-02  0.00000000E+00  0.00000000E+00  0.00000000E+00
  0.00000000E+00  0.00000000E+00  0.00000000E+00  0.00000000E+00  1.11038724E-17
  0.00000000E+00  0.00000000E+00  4.09699414E-18  0.00000000E+00  0.00000000E+00
  4.41234122E-18  0.00000000E+00  0.00000000E+00  0.00000000E+00  0.00000000E+00
  0.00000000E+00  0.00000000E+00  0.00000000E+00  0.00000000E+00  0.00000000E+00
  0.00000000E+00  0.00000000E+00  0.00000000E+00  0.00000000E+00  0.00000000E+00
  0.00000000E+00  0.00000000E+00  0.00000000E+00  0.00000000E+00  0.00000000E+00
  0.00000000E+00  0.00000000E+00 -2.43196896E-01  0.00000000E+00  0.00000000E+00
  0.00000000E+00  0.00000000E+00 -7.66077786E-02  0.00000000E+00  0.00000000E+00
  0.00000000E+00  0.00000000E+00  0.00000000E+00  0.00000000E+00  0.00000000E+00
  0.00000000E+00  0.00000000E+00  0.00000000E+00  0.00000000E+00  0.00000000E+00
  0.00000000E+00  0.00000000E+00  0.00000000E+00  0.00000000E+00  0.00000000E+00
  0.00000000E+00 -5.78058645E-01 -8.24485959E-01 -5.44215794E-01 -1.17582438E-01
  0.00000000E+00  0.00000000E+00  5.21131691E-01  0.00000000E+00  0.00000000E+00
  9.58870076E-01  0.00000000E+00  0.00000000E+00  9.74785009E-01 -2.42400546E-01
  0.00000000E+00  0.00000000E+00  3.26184639E-17  0.00000000E+00 -2.29496229E-01
  0.00000000E+00  0.00000000E+00  4.77832792E-17  0.00000000E+00  0.00000000E+00
  0.00000000E+00  0.00000000E+00  0.00000000E+00  0.00000000E+00  0.00000000E+00
  1.48852927E-01  0.00000000E+00  0.00000000E+00  8.48390202E-01  0.00000000E+00
  0.00000000E+00  1.29755342E+00  0.00000000E+00  0.00000000E+00  0.00000000E+00
  0.00000000E+00  0.00000000E+00  0.00000000E+00  0.00000000E+00  0.00000000E+00
  0.00000000E+00  0.00000000E+00  4.93713544E-01  0.00000000E+00  0.00000000E+00
  1.06206525E+00  0.00000000E+00  0.00000000E+00  1.08786563E+00  0.00000000E+00
  0.00000000E+00  0.00000000E+00 -3.11689068E-01  0.00000000E+00  0.00000000E+00
  0.00000000E+00  0.00000000E+00 -2.75734109E-01  0.00000000E+00  0.00000000E+00
  0.00000000E+00  0.00000000E+00  0.00000000E+00  0.00000000E+00  0.00000000E+00
  1.28910416E-01  0.00000000E+00  0.00000000E+00  7.34727467E-01  0.00000000E+00
  0.00000000E+00  1.12371422E+00  0.00000000E+00  0.00000000E+00  0.00000000E+00
  0.00000000E+00  0.00000000E+00  0.00000000E+00  0.00000000E+00  0.00000000E+00
  0.00000000E+00  0.00000000E+00  0.00000000E+00  0.00000000E+00  0.00000000E+00
  0.00000000E+00  4.93713544E-01  0.00000000E+00  0.00000000E+00  1.06206525E+00
  0.00000000E+00  0.00000000E+00  1.08786563E+00  0.00000000E+00  0.00000000E+00
  0.00000000E+00 -3.11689068E-01  0.00000000E+00  0.00000000E+00  0.00000000E+00
  0.00000000E+00 -2.75734109E-01  0.00000000E+00  0.00000000E+00  0.00000000E+00
  0.00000000E+00  0.00000000E+00  0.00000000E+00  0.00000000E+00  1.28910416E-01
  0.00000000E+00  0.00000000E+00  7.34727467E-01  0.00000000E+00  0.00000000E+00
  1.12371422E+00  0.00000000E+00  0.00000000E+00  0.00000000E+00  0.00000000E+00
  0.00000000E+00  0.00000000E+00  0.00000000E+00  0.00000000E+00  0.00000000E+00
 -1.68438094E-18  3.19156985E-19  1.35652255E-17 -1.34183694E-18  0.00000000E+00
  0.00000000E+00  2.52302186E-19  0.00000000E+00  0.00000000E+00  5.94717067E-19
  0.00000000E+00  0.00000000E+00 -5.92485496E-18 -8.34317237E-19  0.00000000E+00
  0.00000000E+00 -3.27831668E-01  0.00000000E+00  1.89602326E-17  0.00000000E+00
  0.00000000E+00 -5.54875487E-01  0.00000000E+00  0.00000000E+00  0.00000000E+00
  0.00000000E+00  0.00000000E+00  0.00000000E+00  0.00000000E+00  6.56517578E-18
  0.00000000E+00  0.00000000E+00 -4.12095071E-18  0.00000000E+00  0.00000000E+00
  4.87874335E-17  0.00000000E+00  0.00000000E+00  0.00000000E+00  0.00000000E+00
  0.00000000E+00  0.00000000E+00  0.00000000E+00  0.00000000E+00  0.00000000E+00
  0.00000000E+00  0.00000000E+00  0.00000000E+00  0.00000000E+00  0.00000000E+00
  0.00000000E+00  0.00000000E+00  0.00000000E+00  0.00000000E+00  0.00000000E+00
  0.00000000E+00  0.00000000E+00  0.00000000E+00  0.00000000E+00  0.00000000E+00
  0.00000000E+00  0.00000000E+00 -3.27831668E-01  0.00000000E+00  0.00000000E+00
  0.00000000E+00  0.00000000E+00 -5.54875487E-01  0.00000000E+00  0.00000000E+00
  0.00000000E+00  0.00000000E+00  0.00000000E+00  0.00000000E+00  0.00000000E+00
  0.00000000E+00  0.00000000E+00  0.00000000E+00  0.00000000E+00  0.00000000E+00
  0.00000000E+00  0.00000000E+00  0.00000000E+00  0.00000000E+00  0.00000000E+00
  0.00000000E+00  0.00000000E+00  0.00000000E+00  0.00000000E+00  0.00000000E+00
  0.00000000E+00  0.00000000E+00  1.49120524E-04  4.42492045E-02  2.57450493E-01
  0.00000000E+00  0.00000000E+00  0.00000000E+00  0.00000000E+00  0.00000000E+00
  2.22470182E-04  0.00000000E+00  0.00000000E+00  1.65944959E-01  3.57637711E-08
  0.00000000E+00  0.00000000E+00  4.53673133E-26  0.00000000E+00  1.50068649E-02
  0.00000000E+00  0.00000000E+00 -4.93249282E-22  0.00000000E+00  4.31065339E-06
  8.55797816E-03  1.97285189E-01  3.80203715E-01  0.00000000E+00  0.00000000E+00
  6.87979697E-06  0.00000000E+00  0.00000000E+00  1.76232590E-02  0.00000000E+00
  0.00000000E+00  5.65151468E-01  1.52659983E-04  0.00000000E+00  0.00000000E+00
  4.16152834E-22  0.00000000E+00  2.29014571E-01  0.00000000E+00  0.00000000E+00
 -6.88961974E-20  0.00000000E+00  4.71672656E+00 -4.08212880E-06  3.51265944E-03
  1.34287350E-01  6.55559413E-01  0.00000000E+00  0.00000000E+00 -1.93376967E-06
  0.00000000E+00  0.00000000E+00  7.06254576E-03  0.00000000E+00  0.00000000E+00
  4.38694664E-01  1.71964738E-04  0.00000000E+00  0.00000000E+00 -1.00592467E-22
  0.00000000E+00  8.77154988E-02  0.00000000E+00  0.00000000E+00 -4.22322080E-19
  0.00000000E+00  2.33751632E-03  6.29036283E-02  4.97955487E-01  9.65431396E-01
  0.00000000E+00  0.00000000E+00  4.89715477E-03  0.00000000E+00  0.00000000E+00
  1.28538453E-01  0.00000000E+00  0.00000000E+00  1.25600800E+00  1.63015005E-02
  0.00000000E+00  0.00000000E+00 -1.64726901E-19  0.00000000E+00  5.92444295E-01
  0.00000000E+00  0.00000000E+00  1.80296494E-18  0.00000000E+00  3.33135343E+00
  4.71672656E+00 -9.92038352E-03  1.87851374E-03  2.36762799E-01  1.15780766E+00
  0.00000000E+00  0.00000000E+00 -2.07171505E-03  0.00000000E+00  0.00000000E+00
  3.57039523E-02  0.00000000E+00  0.00000000E+00  6.98334341E-01  6.34420543E-03
  0.00000000E+00  0.00000000E+00  6.72385332E-19  0.00000000E+00  2.04919177E-01
  0.00000000E+00  0.00000000E+00 -6.74257420E-19  0.00000000E+00  1.65011597E-02
  1.56967552E-01  7.52434179E-01  1.71273853E+00  0.00000000E+00  0.00000000E+00
  4.37660016E-02  0.00000000E+00  0.00000000E+00  2.99276077E-01  0.00000000E+00
  0.00000000E+00  1.64541756E+00  5.64249168E-02  0.00000000E+00  0.00000000E+00
  1.34125177E-18  0.00000000E+00  6.53621594E-01  0.00000000E+00  0.00000000E+00
 -2.55817679E-18  0.00000000E+00  1.76182871E+00  3.72092226E+00  4.71672656E+00
 -7.30562584E-02 -1.51069225E-01 -7.08139145E-02  1.02108926E+00  0.00000000E+00
  0.00000000E+00  2.58959751E-02  0.00000000E+00  0.00000000E+00  1.37551592E-01
  0.00000000E+00  0.00000000E+00  7.79035605E-01  1.69352885E-02  0.00000000E+00
  0.00000000E+00 -6.82753278E-18  0.00000000E+00  1.92687484E-01  0.00000000E+00
  0.00000000E+00  8.83040691E-18  0.00000000E+00  7.81691910E-03  7.48520475E-02
  4.21263634E-01  1.78065595E+00  0.00000000E+00  0.00000000E+00  6.56826273E-02
  0.00000000E+00  0.00000000E+00  3.15183505E-01  0.00000000E+00  0.00000000E+00
  1.39390322E+00  2.41106219E-02  0.00000000E+00  0.00000000E+00 -2.85493569E-21
  0.00000000E+00  2.56079740E-01  0.00000000E+00  0.00000000E+00  4.15131682E-18
  0.00000000E+00  6.72977711E-01  1.75247564E+00  3.35024979E+00  4.71672656E+00
  0.00000000E+00  0.00000000E+00  0.00000000E+00  0.00000000E+00  0.00000000E+00
  0.00000000E+00  0.00000000E+00  2.15338556E-05  0.00000000E+00  0.00000000E+00
  2.12074388E-02  0.00000000E+00  0.00000000E+00  0.00000000E+00  0.00000000E+00
  0.00000000E+00  0.00000000E+00  0.00000000E+00  0.00000000E+00  3.08913129E-03
  0.00000000E+00  0.00000000E+00  0.00000000E+00  0.00000000E+00  0.00000000E+00
  0.00000000E+00  0.00000000E+00  3.76196197E-07  0.00000000E+00  0.00000000E+00
  2.61928106E-03  0.00000000E+00  0.00000000E+00  9.46912867E-02  0.00000000E+00
  0.00000000E+00  0.00000000E+00  2.20235114E-05  0.00000000E+00  0.00000000E+00
  0.00000000E+00  0.00000000E+00  6.52549598E-02  0.00000000E+00  0.00000000E+00
  0.00000000E+00  0.00000000E+00  0.00000000E+00  0.00000000E+00  0.00000000E+00
  4.71672656E+00  0.00000000E+00  0.00000000E+00  0.00000000E+00  0.00000000E+00
  0.00000000E+00  0.00000000E+00  0.00000000E+00  0.00000000E+00  2.15338556E-05
  0.00000000E+00  0.00000000E+00  2.12074388E-02  0.00000000E+00  0.00000000E+00
  0.00000000E+00  0.00000000E+00  0.00000000E+00  0.00000000E+00  0.00000000E+00
  0.00000000E+00  3.08913129E-03  0.00000000E+00  0.00000000E+00  0.00000000E+00
  0.00000000E+00  0.00000000E+00  0.00000000E+00  0.00000000E+00  3.76196197E-07
  0.00000000E+00  0.00000000E+00  2.61928106E-03  0.00000000E+00  0.00000000E+00
  9.46912867E-02  0.00000000E+00  0.00000000E+00  0.00000000E+00  2.20235114E-05
  0.00000000E+00  0.00000000E+00  0.00000000E+00  0.00000000E+00  6.52549598E-02
  0.00000000E+00  0.00000000E+00  0.00000000E+00  0.00000000E+00  0.00000000E+00
  0.00000000E+00  0.00000000E+00  4.71672656E+00  0.00000000E+00 -2.88727961E-04
 -3.35115862E-02 -1.88688494E-02  0.00000000E+00  0.00000000E+00  0.00000000E+00
  0.00000000E+00  0.00000000E+00 -4.50722913E-04  0.00000000E+00  0.00000000E+00
 -1.04863634E-01  0.00000000E+00  0.00000000E+00  0.00000000E+00  0.00000000E+00
  0.00000000E+00 -2.27313062E-02  0.00000000E+00  0.00000000E+00  2.98293549E-21
  0.00000000E+00 -7.72491369E-06 -1.41577985E-02 -1.08801896E-01 -6.70606162E-03
  0.00000000E+00  0.00000000E+00 -1.13995896E-05  0.00000000E+00  0.00000000E+00
 -3.09287322E-02  0.00000000E+00  0.00000000E+00 -2.18188591E-01 -3.12972851E-04
  0.00000000E+00  0.00000000E+00  4.93573682E-22  0.00000000E+00 -2.46386189E-01
  0.00000000E+00  0.00000000E+00 -2.20505482E-19  0.00000000E+00  4.17326919E-01
  4.72884226E-01  2.80778475E-01  1.11862100E-01  0.00000000E+00  0.00000000E+00
  4.71672656E+00  0.00000000E+00  0.00000000E+00  0.00000000E+00  0.00000000E+00
 -6.29771988E-07  0.00000000E+00  0.00000000E+00  1.08593312E-03  0.00000000E+00
  0.00000000E+00  9.68519581E-02  0.00000000E+00  0.00000000E+00  0.00000000E+00
  2.41320591E-05  0.00000000E+00  0.00000000E+00  0.00000000E+00  0.00000000E+00
  2.98236894E-02  0.00000000E+00  0.00000000E+00  0.00000000E+00  0.00000000E+00
  0.00000000E+00  0.00000000E+00  0.00000000E+00  7.22303520E-04  0.00000000E+00
  0.00000000E+00  3.14911421E-02  0.00000000E+00  0.00000000E+00  3.67941925E-01
  0.00000000E+00  0.00000000E+00  0.00000000E+00  5.36926719E-03  0.00000000E+00
  0.00000000E+00  0.00000000E+00  0.00000000E+00  2.95426452E-01  0.00000000E+00
  0.00000000E+00  0.00000000E+00  0.00000000E+00  0.00000000E+00  0.00000000E+00
  0.00000000E+00  2.90042631E+00  0.00000000E+00  0.00000000E+00  4.71672656E+00
  0.00000000E+00  0.00000000E+00  0.00000000E+00  0.00000000E+00  0.00000000E+00
 -6.29771988E-07  0.00000000E+00  0.00000000E+00  1.08593312E-03  0.00000000E+00
  0.00000000E+00  9.68519581E-02  0.00000000E+00  0.00000000E+00  0.00000000E+00
  2.41320591E-05  0.00000000E+00  0.00000000E+00  0.00000000E+00  0.00000000E+00
  2.98236894E-02  0.00000000E+00  0.00000000E+00  0.00000000E+00  0.00000000E+00
  0.00000000E+00  0.00000000E+00  0.00000000E+00  7.22303520E-04  0.00000000E+00
  0.00000000E+00  3.14911421E-02  0.00000000E+00  0.00000000E+00  3.67941925E-01
  0.00000000E+00  0.00000000E+00  0.00000000E+00  5.36926719E-03  0.00000000E+00
  0.00000000E+00  0.00000000E+00  0.00000000E+00  2.95426452E-01  0.00000000E+00
  0.00000000E+00  0.00000000E+00  0.00000000E+00  0.00000000E+00  0.00000000E+00
  0.00000000E+00  2.90042631E+00  0.00000000E+00  0.00000000E+00  4.71672656E+00
 -2.32133648E-06 -7.21791023E-03 -1.44670220E-01 -7.09517669E-02  0.00000000E+00
  0.00000000E+00 -8.33374488E-06  0.00000000E+00  0.00000000E+00 -1.48184936E-02
  0.00000000E+00  0.00000000E+00 -3.92671626E-01 -3.62335199E-04  0.00000000E+00
  0.00000000E+00 -1.03800156E-22  0.00000000E+00 -1.52488650E-01  0.00000000E+00
  0.00000000E+00  5.46452055E-20  0.00000000E+00 -5.17543038E-03 -1.16104407E-01
 -3.99757153E-01 -1.62928409E-02  0.00000000E+00  0.00000000E+00 -1.09491278E-02
  0.00000000E+00  0.00000000E+00 -2.40341456E-01  0.00000000E+00  0.00000000E+00
 -6.83132466E-01 -3.73442377E-02  0.00000000E+00  0.00000000E+00  3.79227561E-19
  0.00000000E+00 -7.47649045E-01  0.00000000E+00  0.00000000E+00 -6.77292387E-18
  0.00000000E+00  2.84964978E-01  8.67674035E-01  9.31584681E-01  4.99863277E-01
  0.00000000E+00  0.00000000E+00  2.90042631E+00  0.00000000E+00  0.00000000E+00
  4.71672656E+00  0.00000000E+00  0.00000000E+00  0.00000000E+00  0.00000000E+00
 -4.98872417E-03  0.00000000E+00  0.00000000E+00 -4.17549265E-03  0.00000000E+00
  0.00000000E+00  2.39911539E-01  0.00000000E+00  0.00000000E+00  0.00000000E+00
 -7.10512415E-04  0.00000000E+00  0.00000000E+00  0.00000000E+00  0.00000000E+00
  1.07680441E-01  0.00000000E+00  0.00000000E+00  0.00000000E+00  0.00000000E+00
  0.00000000E+00  0.00000000E+00  0.00000000E+00  6.86461354E-03  0.00000000E+00
  0.00000000E+00  9.67270009E-02  0.00000000E+00  0.00000000E+00  7.58315974E-01
  0.00000000E+00  0.00000000E+00  0.00000000E+00  3.78724764E-02  0.00000000E+00
  0.00000000E+00  0.00000000E+00  0.00000000E+00  5.24635797E-01  0.00000000E+00
  0.00000000E+00  0.00000000E+00  0.00000000E+00  0.00000000E+00  0.00000000E+00
  0.00000000E+00  8.42578603E-01  0.00000000E+00  0.00000000E+00  2.80230473E+00
  0.00000000E+00  0.00000000E+00  4.71672656E+00  0.00000000E+00  0.00000000E+00
  0.00000000E+00  0.00000000E+00  0.00000000E+00 -4.98872417E-03  0.00000000E+00
  0.00000000E+00 -4.17549265E-03  0.00000000E+00  0.00000000E+00  2.39911539E-01
  0.00000000E+00  0.00000000E+00  0.00000000E+00 -7.10512415E-04  0.00000000E+00
  0.00000000E+00  0.00000000E+00  0.00000000E+00  1.07680441E-01  0.00000000E+00
  0.00000000E+00  0.00000000E+00  0.00000000E+00  0.00000000E+00  0.00000000E+00
  0.00000000E+00  6.86461354E-03  0.00000000E+00  0.00000000E+00  9.67270009E-02
  0.00000000E+00  0.00000000E+00  7.58315974E-01  0.00000000E+00  0.00000000E+00
  0.00000000E+00  3.78724764E-02  0.00000000E+00  0.00000000E+00  0.00000000E+00
  0.00000000E+00  5.24635797E-01  0.00000000E+00  0.00000000E+00  0.00000000E+00
  0.00000000E+00  0.00000000E+00  0.00000000E+00  0.00000000E+00  8.42578603E-01
  0.00000000E+00  0.00000000E+00  2.80230473E+00  0.00000000E+00  0.00000000E+00
  4.71672656E+00  3.93281205E-02  2.65664832E-02 -2.40183622E-01 -7.11927161E-02
  0.00000000E+00  0.00000000E+00  4.63364083E-03  0.00000000E+00  0.00000000E+00
 -7.97430400E-02  0.00000000E+00  0.00000000E+00 -6.83796078E-01 -2.13859087E-02
  0.00000000E+00  0.00000000E+00 -1.04348388E-18  0.00000000E+00 -3.50535109E-01
  0.00000000E+00  0.00000000E+00  4.14171465E-20  0.00000000E+00 -3.48808317E-02
 -2.56246898E-01 -6.38154442E-01  1.12995506E-01  0.00000000E+00  0.00000000E+00
 -1.10011149E-01  0.00000000E+00  0.00000000E+00 -5.22100063E-01  0.00000000E+00
  0.00000000E+00 -9.62489487E-01 -1.05203788E-01  0.00000000E+00  0.00000000E+00
  3.26611342E-18  0.00000000E+00 -6.12635041E-01  0.00000000E+00  0.00000000E+00
 -2.11067293E-18  0.00000000E+00  8.86326162E-02  5.87362976E-01  1.56019339E+00
  1.78809431E+00  0.00000000E+00  0.00000000E+00  8.42578603E-01  0.00000000E+00
  0.00000000E+00  2.80230473E+00  0.00000000E+00  0.00000000E+00  4.71672656E+00
  2.53005187E-08  9.15919315E-04  2.33935309E-02 -6.13834873E-03  0.00000000E+00
  0.00000000E+00  0.00000000E+00  0.00000000E+00  0.00000000E+00  1.69722194E-03
  0.00000000E+00  0.00000000E+00  5.51372278E-02  1.70629287E-06  0.00000000E+00
  0.00000000E+00  1.62164608E-24  0.00000000E+00  3.76351031E-02  0.00000000E+00
  0.00000000E+00  4.50883066E-20  0.00000000E+00  1.19037810E-04  2.73351656E-02
  5.08001526E-02 -1.07365458E-02  0.00000000E+00  0.00000000E+00  2.25446104E-04
  0.00000000E+00  0.00000000E+00  6.35872501E-02  0.00000000E+00  0.00000000E+00
  4.64847147E-02  2.84253913E-03  0.00000000E+00  0.00000000E+00  1.71209178E-21
  0.00000000E+00  2.28202826E-01  0.00000000E+00  0.00000000E+00 -1.62985945E-19
  0.00000000E+00  0.00000000E+00  0.00000000E+00  0.00000000E+00  0.00000000E+00
  0.00000000E+00  0.00000000E+00  4.69678570E-01  0.00000000E+00  0.00000000E+00
  6.07683966E-01  0.00000000E+00  0.00000000E+00  2.47533381E-01  4.71672656E+00
  0.00000000E+00  0.00000000E+00  0.00000000E+00  0.00000000E+00  0.00000000E+00
  0.00000000E+00  0.00000000E+00 -1.59495974E-04  0.00000000E+00  0.00000000E+00
 -2.70990307E-02  0.00000000E+00  0.00000000E+00  0.00000000E+00 -1.38728072E-07
  0.00000000E+00  0.00000000E+00  0.00000000E+00  0.00000000E+00 -1.03087500E-02
  0.00000000E+00  0.00000000E+00  0.00000000E+00  0.00000000E+00  0.00000000E+00
  0.00000000E+00  0.00000000E+00 -1.54955016E-05  0.00000000E+00  0.00000000E+00
 -1.10788850E-02  0.00000000E+00  0.00000000E+00 -8.49527643E-02  0.00000000E+00
  0.00000000E+00  0.00000000E+00 -4.15664671E-04  0.00000000E+00  0.00000000E+00
  0.00000000E+00  0.00000000E+00 -1.35298598E-01  0.00000000E+00  0.00000000E+00
  0.00000000E+00  0.00000000E+00  0.00000000E+00  0.00000000E+00  0.00000000E+00
  4.06753573E-01  0.00000000E+00  0.00000000E+00  5.26269752E-01  0.00000000E+00
  0.00000000E+00  2.14370196E-01  0.00000000E+00  0.00000000E+00  0.00000000E+00
  4.71672656E+00  0.00000000E+00  0.00000000E+00  0.00000000E+00  0.00000000E+00
  0.00000000E+00  0.00000000E+00  0.00000000E+00  0.00000000E+00 -1.59495974E-04
  0.00000000E+00  0.00000000E+00 -2.70990307E-02  0.00000000E+00  0.00000000E+00
  0.00000000E+00 -1.38728072E-07  0.00000000E+00  0.00000000E+00  0.00000000E+00
  0.00000000E+00 -1.03087500E-02  0.00000000E+00  0.00000000E+00  0.00000000E+00
  0.00000000E+00  0.00000000E+00  0.00000000E+00  0.00000000E+00 -1.54955016E-05
  0.00000000E+00  0.00000000E+00 -1.10788850E-02  0.00000000E+00  0.00000000E+00
 -8.49527643E-02  0.00000000E+00  0.00000000E+00  0.00000000E+00 -4.15664671E-04
  0.00000000E+00  0.00000000E+00  0.00000000E+00  0.00000000E+00 -1.35298598E-01
  0.00000000E+00  0.00000000E+00  0.00000000E+00  0.00000000E+00  0.00000000E+00
  0.00000000E+00  0.00000000E+00  4.06753573E-01  0.00000000E+00  0.00000000E+00
  5.26269752E-01  0.00000000E+00  0.00000000E+00  2.14370196E-01  0.00000000E+00
  0.00000000E+00  0.00000000E+00  4.71672656E+00  5.09139335E-26  5.83053880E-21
  9.16876498E-19  2.26629902E-17  0.00000000E+00  0.00000000E+00  0.00000000E+00
  0.00000000E+00  0.00000000E+00  1.17871511E-20  0.00000000E+00  0.00000000E+00
  9.53389215E-18  1.45142382E-24  0.00000000E+00  0.00000000E+00  3.56639809E-09
  0.00000000E+00 -2.72488268E-19  0.00000000E+00  0.00000000E+00  7.90496860E-04
  0.00000000E+00  2.09193989E-22  6.69741382E-19 -2.00960726E-18 -3.97614241E-18
  0.00000000E+00  0.00000000E+00  2.62453800E-22  0.00000000E+00  0.00000000E+00
  1.64801751E-18  0.00000000E+00  0.00000000E+00 -3.20949807E-17  1.07345618E-20
  0.00000000E+00  0.00000000E+00  1.84611713E-05  0.00000000E+00 -3.75371573E-18
  0.00000000E+00  0.00000000E+00  1.89435358E-02  0.00000000E+00  1.45262289E-17
  2.13164611E-16  3.29246954E-17  2.01980963E-17  0.00000000E+00  0.00000000E+00
  1.11038724E-17  0.00000000E+00  0.00000000E+00  4.09699414E-18  0.00000000E+00
  0.00000000E+00  4.41234122E-18  5.15742679E-17  0.00000000E+00  0.00000000E+00
  4.71672656E+00  0.00000000E+00  0.00000000E+00  0.00000000E+00  0.00000000E+00
  0.00000000E+00  0.00000000E+00  0.00000000E+00  0.00000000E+00  0.00000000E+00
  0.00000000E+00  0.00000000E+00  0.00000000E+00  0.00000000E+00  0.00000000E+00
  0.00000000E+00  0.00000000E+00  0.00000000E+00  3.56639809E-09  0.00000000E+00
  0.00000000E+00  0.00000000E+00  0.00000000E+00  7.90496860E-04  0.00000000E+00
  0.00000000E+00  0.00000000E+00  0.00000000E+00  0.00000000E+00  0.00000000E+00
  0.00000000E+00  0.00000000E+00  0.00000000E+00  0.00000000E+00  0.00000000E+00
  0.00000000E+00  0.00000000E+00  0.00000000E+00  0.00000000E+00  0.00000000E+00
  0.00000000E+00  1.84611713E-05  0.00000000E+00  0.00000000E+00  0.00000000E+00
  0.00000000E+00  1.89435358E-02  0.00000000E+00  0.00000000E+00  0.00000000E+00
  0.00000000E+00  0.00000000E+00  0.00000000E+00  0.00000000E+00  0.00000000E+00
  0.00000000E+00  0.00000000E+00  0.00000000E+00  0.00000000E+00  0.00000000E+00
  0.00000000E+00  0.00000000E+00  0.00000000E+00  0.00000000E+00  4.71672656E+00
 -2.02570743E-03  2.46919525E-02  1.38651124E-01 -7.92228106E-02  0.00000000E+00
  0.00000000E+00 -1.64513667E-03  0.00000000E+00  0.00000000E+00  5.72708284E-02
  0.00000000E+00  0.00000000E+00  2.54371824E-01  4.08367034E-03  0.00000000E+00
  0.00000000E+00 -9.43971710E-20  0.00000000E+00  2.72696218E-01  0.00000000E+00
  0.00000000E+00 -1.38977795E-18  0.00000000E+00  3.45331238E-02  2.45822050E-01
  2.40095624E-01 -1.19301576E-01  0.00000000E+00  0.00000000E+00  7.30951598E-02
  0.00000000E+00  0.00000000E+00  4.54635969E-01  0.00000000E+00  0.00000000E+00
  1.03574973E-01  1.35810102E-01  0.00000000E+00  0.00000000E+00 -3.36696584E-18
  0.00000000E+00  5.65031713E-01  0.00000000E+00  0.00000000E+00  1.27331967E-17
  0.00000000E+00  0.00000000E+00  0.00000000E+00  0.00000000E+00  0.00000000E+00
  0.00000000E+00  0.00000000E+00  1.48852927E-01  0.00000000E+00  0.00000000E+00
  8.48390202E-01  0.00000000E+00  0.00000000E+00  1.29755342E+00  2.00967121E+00
  0.00000000E+00  0.00000000E+00 -2.62291957E-17  0.00000000E+00  4.71672656E+00
  0.00000000E+00  0.00000000E+00  0.00000000E+00  0.00000000E+00  4.54498731E-04
  0.00000000E+00  0.00000000E+00 -8.85229965E-03  0.00000000E+00  0.00000000E+00
 -1.96022087E-01  0.00000000E+00  0.00000000E+00  0.00000000E+00 -2.19584007E-05
  0.00000000E+00  0.00000000E+00  0.00000000E+00  0.00000000E+00 -1.29372236E-01
  0.00000000E+00  0.00000000E+00  0.00000000E+00  0.00000000E+00  0.00000000E+00
  0.00000000E+00  0.00000000E+00 -1.00416848E-02  0.00000000E+00  0.00000000E+00
 -1.46202370E-01  0.00000000E+00  0.00000000E+00 -4.98841871E-01  0.00000000E+00
  0.00000000E+00  0.00000000E+00 -4.95257037E-02  0.00000000E+00  0.00000000E+00
  0.00000000E+00  0.00000000E+00 -6.79360137E-01  0.00000000E+00  0.00000000E+00
  0.00000000E+00  0.00000000E+00  0.00000000E+00  0.00000000E+00  0.00000000E+00
  1.28910416E-01  0.00000000E+00  0.00000000E+00  7.34727467E-01  0.00000000E+00
  0.00000000E+00  1.12371422E+00  0.00000000E+00  0.00000000E+00  0.00000000E+00
  2.00967121E+00  0.00000000E+00  0.00000000E+00  0.00000000E+00  0.00000000E+00
  4.71672656E+00  0.00000000E+00  0.00000000E+00  0.00000000E+00  0.00000000E+00
  0.00000000E+00  4.54498731E-04  0.00000000E+00  0.00000000E+00 -8.85229965E-03
  0.00000000E+00  0.00000000E+00 -1.96022087E-01  0.00000000E+00  0.00000000E+00
  0.00000000E+00 -2.19584007E-05  0.00000000E+00  0.00000000E+00  0.00000000E+00
  0.00000000E+00 -1.29372236E-01  0.00000000E+00  0.00000000E+00  0.00000000E+00
  0.00000000E+00  0.00000000E+00  0.00000000E+00  0.00000000E+00 -1.00416848E-02
  0.00000000E+00  0.00000000E+00 -1.46202370E-01  0.00000000E+00  0.00000000E+00
 -4.98841871E-01  0.00000000E+00  0.00000000E+00  0.00000000E+00 -4.95257037E-02
  0.00000000E+00  0.00000000E+00  0.00000000E+00  0.00000000E+00 -6.79360137E-01
  0.00000000E+00  0.00000000E+00  0.00000000E+00  0.00000000E+00  0.00000000E+00
  0.00000000E+00  0.00000000E+00  1.28910416E-01  0.00000000E+00  0.00000000E+00
  7.34727467E-01  0.00000000E+00  0.00000000E+00  1.12371422E+00  0.00000000E+00
  0.00000000E+00  0.00000000E+00  2.00967121E+00  0.00000000E+00  0.00000000E+00
  0.00000000E+00  0.00000000E+00  4.71672656E+00  2.73420041E-22  1.95434689E-19
 -4.00097792E-18 -3.50017290E-17  0.00000000E+00  0.00000000E+00  8.38570142E-22
  0.00000000E+00  0.00000000E+00  1.53561601E-19  0.00000000E+00  0.00000000E+00
  1.80880418E-17 -4.90917572E-21  0.00000000E+00  0.00000000E+00 -5.86000505E-05
  0.00000000E+00 -2.92030599E-18  0.00000000E+00  0.00000000E+00  1.55429612E-02
  0.00000000E+00  2.68998845E-20  1.03786022E-18 -2.20888392E-17  5.29367553E-17
  0.00000000E+00  0.00000000E+00  5.28239451E-20  0.00000000E+00  0.00000000E+00
 -2.94700734E-18  0.00000000E+00  0.00000000E+00  3.37252516E-17 -4.23374505E-19
  0.00000000E+00  0.00000000E+00  4.42672975E-03  0.00000000E+00  9.92100655E-18
  0.00000000E+00  0.00000000E+00  1.51132316E-01  0.00000000E+00 -3.86625100E-18
  1.33176787E-16  4.40321123E-17 -9.15304125E-17  0.00000000E+00  0.00000000E+00
  6.56517578E-18  0.00000000E+00  0.00000000E+00 -4.12095071E-18  0.00000000E+00
  0.00000000E+00  4.87874335E-17  2.62291957E-17  0.00000000E+00  0.00000000E+00
  2.00967121E+00  0.00000000E+00 -7.92240468E-18  0.00000000E+00  0.00000000E+00
  4.71672656E+00  0.00000000E+00  0.00000000E+00  0.00000000E+00  0.00000000E+00
  0.00000000E+00  0.00000000E+00  0.00000000E+00  0.00000000E+00  0.00000000E+00
  0.00000000E+00  0.00000000E+00  0.00000000E+00  0.00000000E+00  0.00000000E+00
  0.00000000E+00  0.00000000E+00  0.00000000E+00 -5.86000505E-05  0.00000000E+00
  0.00000000E+00  0.00000000E+00  0.00000000E+00  1.55429612E-02  0.00000000E+00
  0.00000000E+00  0.00000000E+00  0.00000000E+00  0.00000000E+00  0.00000000E+00
  0.00000000E+00  0.00000000E+00  0.00000000E+00  0.00000000E+00  0.00000000E+00
  0.00000000E+00  0.00000000E+00  0.00000000E+00  0.00000000E+00  0.00000000E+00
  0.00000000E+00  4.42672975E-03  0.00000000E+00  0.00000000E+00  0.00000000E+00
  0.00000000E+00  1.51132316E-01  0.00000000E+00  0.00000000E+00  0.00000000E+00
  0.00000000E+00  0.00000000E+00  0.00000000E+00  0.00000000E+00  0.00000000E+00
  0.00000000E+00  0.00000000E+00  0.00000000E+00  0.00000000E+00  0.00000000E+00
  0.00000000E+00  0.00000000E+00  0.00000000E+00  0.00000000E+00  2.00967121E+00
  0.00000000E+00  0.00000000E+00  0.00000000E+00  0.00000000E+00  4.71672656E+00
Multipole Matrix (2,0,0)                   R   N=        2415
  1.76393444E-01  2.21880681E-01  7.67341928E-01  1.39282807E-01  9.20511195E-01
  2.43427459E+00  5.68664226E-02  5.29175765E-01  2.77544267E+00  9.89707047E+00
  0.00000000E+00  0.00000000E+00  0.00000000E+00  0.00000000E+00  5.33049041E-01
  0.00000000E+00  0.00000000E+00  0.00000000E+00  0.00000000E+00  0.00000000E+00
  1.77683014E-01  0.00000000E+00  0.00000000E+00  0.00000000E+00  0.00000000E+00
  0.00000000E+00  0.00000000E+00  1.77683014E-01  0.00000000E+00  0.00000000E+00
  0.00000000E+00  0.00000000E+00  5.13863703E-01  0.00000000E+00  0.00000000E+00
  1.93298969E+00  0.00000000E+00  0.00000000E+00  0.00000000E+00  0.00000000E+00
  0.00000000E+00  1.71287901E-01  0.00000000E+00  0.00000000E+00  6.44329897E-01
  0.00000000E+00  0.00000000E+00  0.00000000E+00  0.00000000E+00  0.00000000E+00
  0.00000000E+00  1.71287901E-01  0.00000000E+00  0.00000000E+00  6.44329897E-01
  0.00000000E+00  0.00000000E+00  0.00000000E+00  0.00000000E+00  1.77570879E-01
  0.00000000E+00  0.00000000E+00  1.81873674E+00  0.00000000E+00  0.00000000E+00
  7.35294118E+00  0.00000000E+00  0.00000000E+00  0.00000000E+00  0.00000000E+00
  0.00000000E+00  5.91902931E-02  0.00000000E+00  0.00000000E+00  6.06245580E-01
  0.00000000E+00  0.00000000E+00  2.45098039E+00  0.00000000E+00  0.00000000E+00
  0.00000000E+00  0.00000000E+00  0.00000000E+00  0.00000000E+00  5.91902931E-02
  0.00000000E+00  0.00000000E+00  6.06245580E-01  0.00000000E+00  0.00000000E+00
  2.45098039E+00 -1.07745898E-01 -2.49557776E-01 -1.94349589E-01 -8.64529820E-02
  0.00000000E+00  0.00000000E+00  0.00000000E+00  0.00000000E+00  0.00000000E+00
  0.00000000E+00  0.00000000E+00  0.00000000E+00  0.00000000E+00  3.94197414E-01
  0.00000000E+00  0.00000000E+00  0.00000000E+00  0.00000000E+00  0.00000000E+00
  0.00000000E+00  0.00000000E+00  0.00000000E+00  0.00000000E+00  0.00000000E+00
  0.00000000E+00  0.00000000E+00  0.00000000E+00  0.00000000E+00  7.09555345E-01
  0.00000000E+00  0.00000000E+00  0.00000000E+00  0.00000000E+00  0.00000000E+00
  0.00000000E+00  0.00000000E+00  0.00000000E+00  0.00000000E+00  0.00000000E+00
  0.00000000E+00  0.00000000E+00  0.00000000E+00  0.00000000E+00  0.00000000E+00
  2.36518448E-01  1.86621370E-01  4.32246747E-01  3.36623363E-01  1.49740957E-01
  0.00000000E+00  0.00000000E+00  0.00000000E+00  0.00000000E+00  0.00000000E+00
  0.00000000E+00  0.00000000E+00  0.00000000E+00  0.00000000E+00 -2.73107980E-01
  0.00000000E+00  0.00000000E+00  7.09555345E-01  0.00000000E+00  0.00000000E+00
  0.00000000E+00  0.00000000E+00  0.00000000E+00  0.00000000E+00  0.00000000E+00
  0.00000000E+00  0.00000000E+00  0.00000000E+00  0.00000000E+00  0.00000000E+00
  0.00000000E+00  0.00000000E+00  0.00000000E+00  0.00000000E+00  0.00000000E+00
  7.09555345E-01 -4.10760608E-02 -4.28456575E-01 -1.01378802E+00 -8.50326284E-01
  0.00000000E+00  0.00000000E+00  0.00000000E+00  0.00000000E+00  0.00000000E+00
  0.00000000E+00  0.00000000E+00  0.00000000E+00  0.00000000E+00  2.72286101E-01
  0.00000000E+00  0.00000000E+00 -1.88645345E-01  0.00000000E+00  1.68690958E+00
  0.00000000E+00  0.00000000E+00  0.00000000E+00  0.00000000E+00  0.00000000E+00
  0.00000000E+00  0.00000000E+00  0.00000000E+00  0.00000000E+00  0.00000000E+00
  0.00000000E+00  0.00000000E+00  0.00000000E+00  0.00000000E+00  4.90114982E-01
  0.00000000E+00  0.00000000E+00  0.00000000E+00  0.00000000E+00  3.03643725E+00
  0.00000000E+00  0.00000000E+00  0.00000000E+00  0.00000000E+00  0.00000000E+00
  0.00000000E+00  0.00000000E+00  0.00000000E+00  0.00000000E+00  0.00000000E+00
  0.00000000E+00  0.00000000E+00  0.00000000E+00  0.00000000E+00  0.00000000E+00
  1.63371661E-01  0.00000000E+00  0.00000000E+00  0.00000000E+00  0.00000000E+00
  1.01214575E+00  7.11458243E-02  7.42108557E-01  1.75593236E+00  1.47280833E+00
  0.00000000E+00  0.00000000E+00  0.00000000E+00  0.00000000E+00  0.00000000E+00
  0.00000000E+00  0.00000000E+00  0.00000000E+00  0.00000000E+00 -1.88645345E-01
  0.00000000E+00  0.00000000E+00  4.90114982E-01  0.00000000E+00 -1.16872524E+00
  0.00000000E+00  0.00000000E+00  3.03643725E+00  0.00000000E+00  0.00000000E+00
  0.00000000E+00  0.00000000E+00  0.00000000E+00  0.00000000E+00  0.00000000E+00
  0.00000000E+00  0.00000000E+00  0.00000000E+00  0.00000000E+00  0.00000000E+00
  0.00000000E+00  0.00000000E+00  0.00000000E+00  0.00000000E+00  0.00000000E+00
  4.90114982E-01  0.00000000E+00  0.00000000E+00  0.00000000E+00  0.00000000E+00
  3.03643725E+00  5.07390008E-02  1.31835277E-01  1.14905760E-01  5.40732862E-02
  0.00000000E+00  0.00000000E+00  7.21977834E-02  0.00000000E+00  0.00000000E+00
  1.68908199E-01  0.00000000E+00  0.00000000E+00  9.61503559E-02  5.59015051E-02
  0.00000000E+00  0.00000000E+00  5.99842961E-02  0.00000000E+00  8.09948657E-02
  0.00000000E+00  0.00000000E+00  4.69761791E-02  0.00000000E+00  1.76393444E-01
  1.31835277E-01  5.50678144E-01  7.85162425E-01  5.04503550E-01  0.00000000E+00
  0.00000000E+00  7.40329391E-02  0.00000000E+00  0.00000000E+00  3.94048721E-01
  0.00000000E+00  0.00000000E+00  5.44968867E-01 -1.03286651E-01  0.00000000E+00
  0.00000000E+00  2.60284223E-01  0.00000000E+00 -7.88986464E-02  0.00000000E+00
  0.00000000E+00  5.57441038E-01  0.00000000E+00  2.21880681E-01  7.67341928E-01
  1.14905760E-01  7.85162425E-01  2.19254536E+00  2.66317414E+00  0.00000000E+00
  0.00000000E+00  2.24309253E-02  0.00000000E+00  0.00000000E+00  2.35837684E-01
  0.00000000E+00  0.00000000E+00  1.00654047E+00 -1.54664747E-01  0.00000000E+00
  0.00000000E+00  2.78193529E-01  0.00000000E+00 -7.67101976E-01  0.00000000E+00
  0.00000000E+00  1.51476171E+00  0.00000000E+00  1.39282807E-01  9.20511195E-01
  2.43427459E+00  5.40732862E-02  5.04503550E-01  2.66317414E+00  9.64572685E+00
  0.00000000E+00  0.00000000E+00  2.67676944E-03  0.00000000E+00  0.00000000E+00
  4.15479285E-02  0.00000000E+00  0.00000000E+00  4.86059321E-01 -8.20188774E-02
  0.00000000E+00  0.00000000E+00  1.42402855E-01  0.00000000E+00 -8.03802370E-01
  0.00000000E+00  0.00000000E+00  1.40564555E+00  0.00000000E+00  5.68664226E-02
  5.29175765E-01  2.77544267E+00  9.89707047E+00  0.00000000E+00  0.00000000E+00
  0.00000000E+00  0.00000000E+00  1.27202410E-01  0.00000000E+00  0.00000000E+00
  2.76587391E-01  0.00000000E+00  0.00000000E+00  1.46301077E-01  0.00000000E+00
  0.00000000E+00  0.00000000E+00  2.90864652E-01  0.00000000E+00  0.00000000E+00
  0.00000000E+00  0.00000000E+00  3.06041176E-01  0.00000000E+00  0.00000000E+00
  0.00000000E+00  0.00000000E+00  0.00000000E+00  0.00000000E+00  0.00000000E+00
  5.33049041E-01  0.00000000E+00  0.00000000E+00  0.00000000E+00  0.00000000E+00
  0.00000000E+00  4.24008033E-02  0.00000000E+00  0.00000000E+00  9.21957970E-02
  0.00000000E+00  0.00000000E+00  4.87670256E-02  0.00000000E+00  0.00000000E+00
  0.00000000E+00  9.69548840E-02  0.00000000E+00  0.00000000E+00  0.00000000E+00
  0.00000000E+00  1.02013725E-01  0.00000000E+00  0.00000000E+00  0.00000000E+00
  0.00000000E+00  0.00000000E+00  0.00000000E+00  0.00000000E+00  1.77683014E-01
 -7.21977834E-02 -7.40329391E-02 -2.24309253E-02 -2.67676944E-03  0.00000000E+00
  0.00000000E+00 -7.91058076E-02  0.00000000E+00  0.00000000E+00 -2.20221145E-02
  0.00000000E+00  0.00000000E+00  2.98743695E-02  1.63805947E-02  0.00000000E+00
  0.00000000E+00 -7.28367536E-02  0.00000000E+00  7.77250028E-02  0.00000000E+00
  0.00000000E+00 -1.79085929E-02  0.00000000E+00  0.00000000E+00  0.00000000E+00
  0.00000000E+00  0.00000000E+00  0.00000000E+00  0.00000000E+00  1.77683014E-01
  0.00000000E+00  0.00000000E+00  0.00000000E+00  0.00000000E+00  2.76587391E-01
  0.00000000E+00  0.00000000E+00  1.30205505E+00  0.00000000E+00  0.00000000E+00
  1.54286571E+00  0.00000000E+00  0.00000000E+00  0.00000000E+00  3.39400503E-01
  0.00000000E+00  0.00000000E+00  0.00000000E+00  0.00000000E+00  1.41343080E+00
  0.00000000E+00  0.00000000E+00  0.00000000E+00  0.00000000E+00  0.00000000E+00
  0.00000000E+00  0.00000000E+00  5.13863703E-01  0.00000000E+00  0.00000000E+00
  1.93298969E+00  0.00000000E+00  0.00000000E+00  0.00000000E+00  0.00000000E+00
  0.00000000E+00  9.21957970E-02  0.00000000E+00  0.00000000E+00  4.34018350E-01
  0.00000000E+00  0.00000000E+00  5.14288571E-01  0.00000000E+00  0.00000000E+00
  0.00000000E+00  1.13133501E-01  0.00000000E+00  0.00000000E+00  0.00000000E+00
  0.00000000E+00  4.71143602E-01  0.00000000E+00  0.00000000E+00  0.00000000E+00
  0.00000000E+00  0.00000000E+00  0.00000000E+00  0.00000000E+00  1.71287901E-01
  0.00000000E+00  0.00000000E+00  6.44329897E-01 -1.68908199E-01 -3.94048721E-01
 -2.35837684E-01 -4.15479285E-02  0.00000000E+00  0.00000000E+00 -2.20221145E-02
  0.00000000E+00  0.00000000E+00  9.10361805E-02  0.00000000E+00  0.00000000E+00
  3.45086992E-01  2.33060782E-01  0.00000000E+00  0.00000000E+00 -3.08201316E-01
  0.00000000E+00  5.49965751E-01  0.00000000E+00  0.00000000E+00 -2.99929045E-01
  0.00000000E+00  0.00000000E+00  0.00000000E+00  0.00000000E+00  0.00000000E+00
  0.00000000E+00  0.00000000E+00  1.71287901E-01  0.00000000E+00  0.00000000E+00
  6.44329897E-01  0.00000000E+00  0.00000000E+00  0.00000000E+00  0.00000000E+00
  1.46301077E-01  0.00000000E+00  0.00000000E+00  1.54286571E+00  0.00000000E+00
  0.00000000E+00  6.62749946E+00  0.00000000E+00  0.00000000E+00  0.00000000E+00
  6.68321920E-02  0.00000000E+00  0.00000000E+00  0.00000000E+00  0.00000000E+00
  1.21384657E+00  0.00000000E+00  0.00000000E+00  0.00000000E+00  0.00000000E+00
  0.00000000E+00  0.00000000E+00  0.00000000E+00  1.77570879E-01  0.00000000E+00
  0.00000000E+00  1.81873674E+00  0.00000000E+00  0.00000000E+00  7.35294118E+00
  0.00000000E+00  0.00000000E+00  0.00000000E+00  0.00000000E+00  0.00000000E+00
  4.87670256E-02  0.00000000E+00  0.00000000E+00  5.14288571E-01  0.00000000E+00
  0.00000000E+00  2.20916649E+00  0.00000000E+00  0.00000000E+00  0.00000000E+00
  2.22773973E-02  0.00000000E+00  0.00000000E+00  0.00000000E+00  0.00000000E+00
  4.04615523E-01  0.00000000E+00  0.00000000E+00  0.00000000E+00  0.00000000E+00
  0.00000000E+00  0.00000000E+00  0.00000000E+00  5.91902931E-02  0.00000000E+00
  0.00000000E+00  6.06245580E-01  0.00000000E+00  0.00000000E+00  2.45098039E+00
 -9.61503559E-02 -5.44968867E-01 -1.00654047E+00 -4.86059321E-01  0.00000000E+00
  0.00000000E+00  2.98743695E-02  0.00000000E+00  0.00000000E+00  3.45086992E-01
  0.00000000E+00  0.00000000E+00  1.75022180E+00  1.54134231E-01  0.00000000E+00
  0.00000000E+00 -2.30854990E-01  0.00000000E+00  9.64206563E-01  0.00000000E+00
  0.00000000E+00 -9.79804256E-01  0.00000000E+00  0.00000000E+00  0.00000000E+00
  0.00000000E+00  0.00000000E+00  0.00000000E+00  0.00000000E+00  5.91902931E-02
  0.00000000E+00  0.00000000E+00  6.06245580E-01  0.00000000E+00  0.00000000E+00
  2.45098039E+00  5.59015051E-02 -1.03286651E-01 -1.54664747E-01 -8.20188774E-02
  0.00000000E+00  0.00000000E+00 -1.63805947E-02  0.00000000E+00  0.00000000E+00
 -2.33060782E-01  0.00000000E+00  0.00000000E+00 -1.54134231E-01 -8.81944457E-02
  0.00000000E+00  0.00000000E+00  7.11201355E-03  0.00000000E+00 -4.62813036E-02
  0.00000000E+00  0.00000000E+00 -1.13516434E-01  0.00000000E+00 -1.07745898E-01
 -2.49557776E-01 -1.94349589E-01 -8.64529820E-02  0.00000000E+00  0.00000000E+00
  0.00000000E+00  0.00000000E+00  0.00000000E+00  0.00000000E+00  0.00000000E+00
  0.00000000E+00  0.00000000E+00  3.94197414E-01  0.00000000E+00  0.00000000E+00
  0.00000000E+00  0.00000000E+00 -2.90864652E-01  0.00000000E+00  0.00000000E+00
 -3.39400503E-01  0.00000000E+00  0.00000000E+00 -6.68321920E-02  0.00000000E+00
  0.00000000E+00  0.00000000E+00 -2.78784138E-01  0.00000000E+00  0.00000000E+00
  0.00000000E+00  0.00000000E+00  6.01250910E-02  0.00000000E+00  0.00000000E+00
  0.00000000E+00  0.00000000E+00  0.00000000E+00  0.00000000E+00  0.00000000E+00
  0.00000000E+00  0.00000000E+00  0.00000000E+00  0.00000000E+00  0.00000000E+00
  0.00000000E+00  0.00000000E+00  0.00000000E+00  0.00000000E+00  0.00000000E+00
  7.09555345E-01  0.00000000E+00  0.00000000E+00  0.00000000E+00  0.00000000E+00
  0.00000000E+00 -9.69548840E-02  0.00000000E+00  0.00000000E+00 -1.13133501E-01
  0.00000000E+00  0.00000000E+00 -2.22773973E-02  0.00000000E+00  0.00000000E+00
  0.00000000E+00 -9.29280458E-02  0.00000000E+00  0.00000000E+00  0.00000000E+00
  0.00000000E+00  2.00416970E-02  0.00000000E+00  0.00000000E+00  0.00000000E+00
  0.00000000E+00  0.00000000E+00  0.00000000E+00  0.00000000E+00  0.00000000E+00
  0.00000000E+00  0.00000000E+00  0.00000000E+00  0.00000000E+00  0.00000000E+00
  0.00000000E+00  0.00000000E+00  0.00000000E+00  0.00000000E+00  2.36518448E-01
  5.99842961E-02  2.60284223E-01  2.78193529E-01  1.42402855E-01  0.00000000E+00
  0.00000000E+00  7.28367536E-02  0.00000000E+00  0.00000000E+00  3.08201316E-01
  0.00000000E+00  0.00000000E+00  2.30854990E-01  7.11201355E-03  0.00000000E+00
  0.00000000E+00  2.41829031E-01  0.00000000E+00  9.34815757E-02  0.00000000E+00
  0.00000000E+00  3.25987774E-01  0.00000000E+00  1.86621370E-01  4.32246747E-01
  3.36623363E-01  1.49740957E-01  0.00000000E+00  0.00000000E+00  0.00000000E+00
  0.00000000E+00  0.00000000E+00  0.00000000E+00  0.00000000E+00  0.00000000E+00
  0.00000000E+00 -2.73107980E-01  0.00000000E+00  0.00000000E+00  7.09555345E-01
  0.00000000E+00  0.00000000E+00  0.00000000E+00  0.00000000E+00  0.00000000E+00
  0.00000000E+00  0.00000000E+00  0.00000000E+00  0.00000000E+00  0.00000000E+00
  0.00000000E+00  0.00000000E+00  0.00000000E+00  0.00000000E+00  0.00000000E+00
  0.00000000E+00  0.00000000E+00  2.41829031E-01  0.00000000E+00  0.00000000E+00
  0.00000000E+00  0.00000000E+00  3.25987774E-01  0.00000000E+00  0.00000000E+00
  0.00000000E+00  0.00000000E+00  0.00000000E+00  0.00000000E+00  0.00000000E+00
  0.00000000E+00  0.00000000E+00  0.00000000E+00  0.00000000E+00  0.00000000E+00
  0.00000000E+00  0.00000000E+00  0.00000000E+00  0.00000000E+00  0.00000000E+00
  7.09555345E-01  8.09948657E-02 -7.88986464E-02 -7.67101976E-01 -8.03802370E-01
  0.00000000E+00  0.00000000E+00 -7.77250028E-02  0.00000000E+00  0.00000000E+00
 -5.49965751E-01  0.00000000E+00  0.00000000E+00 -9.64206563E-01 -4.62813036E-02
  0.00000000E+00  0.00000000E+00  9.34815757E-02  0.00000000E+00  5.86263052E-01
  0.00000000E+00  0.00000000E+00 -6.80210772E-01  0.00000000E+00 -4.10760608E-02
 -4.28456575E-01 -1.01378802E+00 -8.50326284E-01  0.00000000E+00  0.00000000E+00
  0.00000000E+00  0.00000000E+00  0.00000000E+00  0.00000000E+00  0.00000000E+00
  0.00000000E+00  0.00000000E+00  2.72286101E-01  0.00000000E+00  0.00000000E+00
 -1.88645345E-01  0.00000000E+00  1.68690958E+00  0.00000000E+00  0.00000000E+00
  0.00000000E+00  0.00000000E+00 -3.06041176E-01  0.00000000E+00  0.00000000E+00
 -1.41343080E+00  0.00000000E+00  0.00000000E+00 -1.21384657E+00  0.00000000E+00
  0.00000000E+00  0.00000000E+00  6.01250910E-02  0.00000000E+00  0.00000000E+00
  0.00000000E+00  0.00000000E+00  1.17332665E+00  0.00000000E+00  0.00000000E+00
  0.00000000E+00  0.00000000E+00  0.00000000E+00  0.00000000E+00  0.00000000E+00
  0.00000000E+00  0.00000000E+00  0.00000000E+00  0.00000000E+00  0.00000000E+00
  0.00000000E+00  0.00000000E+00  0.00000000E+00  0.00000000E+00  0.00000000E+00
  4.90114982E-01  0.00000000E+00  0.00000000E+00  0.00000000E+00  0.00000000E+00
  3.03643725E+00  0.00000000E+00  0.00000000E+00  0.00000000E+00  0.00000000E+00
  0.00000000E+00 -1.02013725E-01  0.00000000E+00  0.00000000E+00 -4.71143602E-01
  0.00000000E+00  0.00000000E+00 -4.04615523E-01  0.00000000E+00  0.00000000E+00
  0.00000000E+00  2.00416970E-02  0.00000000E+00  0.00000000E+00  0.00000000E+00
  0.00000000E+00  3.91108884E-01  0.00000000E+00  0.00000000E+00  0.00000000E+00
  0.00000000E+00  0.00000000E+00  0.00000000E+00  0.00000000E+00  0.00000000E+00
  0.00000000E+00  0.00000000E+00  0.00000000E+00  0.00000000E+00  0.00000000E+00
  0.00000000E+00  0.00000000E+00  0.00000000E+00  0.00000000E+00  1.63371661E-01
  0.00000000E+00  0.00000000E+00  0.00000000E+00  0.00000000E+00  1.01214575E+00
  4.69761791E-02  5.57441038E-01  1.51476171E+00  1.40564555E+00  0.00000000E+00
  0.00000000E+00  1.79085929E-02  0.00000000E+00  0.00000000E+00  2.99929045E-01
  0.00000000E+00  0.00000000E+00  9.79804256E-01 -1.13516434E-01  0.00000000E+00
  0.00000000E+00  3.25987774E-01  0.00000000E+00 -6.80210772E-01  0.00000000E+00
  0.00000000E+00  2.36115220E+00  0.00000000E+00  7.11458243E-02  7.42108557E-01
  1.75593236E+00  1.47280833E+00  0.00000000E+00  0.00000000E+00  0.00000000E+00
  0.00000000E+00  0.00000000E+00  0.00000000E+00  0.00000000E+00  0.00000000E+00
  0.00000000E+00 -1.88645345E-01  0.00000000E+00  0.00000000E+00  4.90114982E-01
  0.00000000E+00 -1.16872524E+00  0.00000000E+00  0.00000000E+00  3.03643725E+00
  0.00000000E+00  0.00000000E+00  0.00000000E+00  0.00000000E+00  0.00000000E+00
  0.00000000E+00  0.00000000E+00  0.00000000E+00  0.00000000E+00  0.00000000E+00
  0.00000000E+00  0.00000000E+00  0.00000000E+00  0.00000000E+00  0.00000000E+00
  0.00000000E+00  0.00000000E+00  3.25987774E-01  0.00000000E+00  0.00000000E+00
  0.00000000E+00  0.00000000E+00  2.36115220E+00  0.00000000E+00  0.00000000E+00
  0.00000000E+00  0.00000000E+00  0.00000000E+00  0.00000000E+00  0.00000000E+00
  0.00000000E+00  0.00000000E+00  0.00000000E+00  0.00000000E+00  0.00000000E+00
  0.00000000E+00  0.00000000E+00  0.00000000E+00  0.00000000E+00  0.00000000E+00
  4.90114982E-01  0.00000000E+00  0.00000000E+00  0.00000000E+00  0.00000000E+00
  3.03643725E+00  0.00000000E+00  1.46978583E-05  3.94044900E-03  2.23602362E-02
  0.00000000E+00  0.00000000E+00  0.00000000E+00  0.00000000E+00  0.00000000E+00
  2.19412893E-05  0.00000000E+00  0.00000000E+00  1.44946593E-02  4.09685445E-09
  0.00000000E+00  0.00000000E+00  1.58524441E-10  0.00000000E+00  1.34675838E-03
  0.00000000E+00  0.00000000E+00  3.25392155E-05  0.00000000E+00  3.94265678E-07
  7.60558943E-04  1.70323012E-02  3.28043605E-02  0.00000000E+00  0.00000000E+00
  6.03344850E-07  0.00000000E+00  0.00000000E+00  1.53227862E-03  0.00000000E+00
  0.00000000E+00  4.76642816E-02  1.25129899E-05  0.00000000E+00  0.00000000E+00
  8.34414898E-07  0.00000000E+00  1.85664768E-02  0.00000000E+00  0.00000000E+00
  7.64710073E-04  0.00000000E+00  1.76393444E-01  1.46978583E-05  1.63875240E-03
  4.82998514E-02  2.18423696E-01  0.00000000E+00  0.00000000E+00  2.51565040E-05
  0.00000000E+00  0.00000000E+00  3.04084236E-03  0.00000000E+00  0.00000000E+00
  1.46426576E-01  9.89435117E-05  0.00000000E+00  0.00000000E+00  3.57401393E-05
  0.00000000E+00  2.76956455E-02  0.00000000E+00  0.00000000E+00  3.69291007E-03
  0.00000000E+00  7.60558943E-04  2.04669874E-02  1.62020044E-01  3.14122932E-01
  0.00000000E+00  0.00000000E+00  1.16570526E-03  0.00000000E+00  0.00000000E+00
  3.63316655E-02  0.00000000E+00  0.00000000E+00  3.74725739E-01  2.36577918E-03
  0.00000000E+00  0.00000000E+00  1.69639873E-03  0.00000000E+00  1.36319756E-01
  0.00000000E+00  0.00000000E+00  3.25880525E-02  0.00000000E+00  2.21880681E-01
  7.67341928E-01  3.94044900E-03  4.82998514E-02  3.50405890E-01  1.29116334E+00
  0.00000000E+00  0.00000000E+00  3.16532624E-03  0.00000000E+00  0.00000000E+00
  5.58710288E-02  0.00000000E+00  0.00000000E+00  6.96872171E-01 -1.77897974E-03
  0.00000000E+00  0.00000000E+00  9.83202128E-03  0.00000000E+00  8.37476544E-02
  0.00000000E+00  0.00000000E+00  1.13592725E-01  0.00000000E+00  1.70323012E-02
  1.62020044E-01  7.76653629E-01  1.76786838E+00  0.00000000E+00  0.00000000E+00
  1.07127708E-02  0.00000000E+00  0.00000000E+00  1.51011864E-01  0.00000000E+00
  0.00000000E+00  1.18256814E+00 -1.44187399E-02  0.00000000E+00  0.00000000E+00
  4.19501952E-02  0.00000000E+00  6.90429716E-02  0.00000000E+00  0.00000000E+00
  3.49653415E-01  0.00000000E+00  1.39282807E-01  9.20511195E-01  2.43427459E+00
  2.23602362E-02  2.18423696E-01  1.29116334E+00  6.14410656E+00  0.00000000E+00
  0.00000000E+00  4.75054458E-03  0.00000000E+00  0.00000000E+00  7.66863485E-02
  0.00000000E+00  0.00000000E+00  1.01548152E+00 -3.25518539E-02  0.00000000E+00
  0.00000000E+00  5.90078480E-02  0.00000000E+00 -2.94677567E-01  0.00000000E+00
  0.00000000E+00  6.20111474E-01  0.00000000E+00  3.28043605E-02  3.14122932E-01
  1.76786838E+00  7.47267293E+00  0.00000000E+00  0.00000000E+00  5.35769704E-03
  0.00000000E+00  0.00000000E+00  8.50273170E-02  0.00000000E+00  0.00000000E+00
  1.06697741E+00 -4.86261738E-02  0.00000000E+00  0.00000000E+00  8.64919388E-02
  0.00000000E+00 -4.57447278E-01  0.00000000E+00  0.00000000E+00  8.84562685E-01
  0.00000000E+00  5.68664226E-02  5.29175765E-01  2.77544267E+00  9.89707047E+00
  0.00000000E+00  0.00000000E+00  0.00000000E+00  0.00000000E+00  0.00000000E+00
  0.00000000E+00  0.00000000E+00  5.31026643E-06  0.00000000E+00  0.00000000E+00
  4.90091108E-03  0.00000000E+00  0.00000000E+00  0.00000000E+00  0.00000000E+00
  0.00000000E+00  0.00000000E+00  0.00000000E+00  0.00000000E+00  7.26330329E-04
  0.00000000E+00  0.00000000E+00  0.00000000E+00  0.00000000E+00  0.00000000E+00
  0.00000000E+00  0.00000000E+00  8.50297423E-08  0.00000000E+00  0.00000000E+00
  5.92022981E-04  0.00000000E+00  0.00000000E+00  2.14025973E-02  0.00000000E+00
  0.00000000E+00  0.00000000E+00  4.84240668E-06  0.00000000E+00  0.00000000E+00
  0.00000000E+00  0.00000000E+00  1.44774035E-02  0.00000000E+00  0.00000000E+00
  0.00000000E+00  0.00000000E+00  0.00000000E+00  0.00000000E+00  0.00000000E+00
  5.33049041E-01  0.00000000E+00  0.00000000E+00  0.00000000E+00  0.00000000E+00
  0.00000000E+00  0.00000000E+00  0.00000000E+00  0.00000000E+00  1.77008881E-06
  0.00000000E+00  0.00000000E+00  1.63363703E-03  0.00000000E+00  0.00000000E+00
  0.00000000E+00  0.00000000E+00  0.00000000E+00  0.00000000E+00  0.00000000E+00
  0.00000000E+00  2.42110110E-04  0.00000000E+00  0.00000000E+00  0.00000000E+00
  0.00000000E+00  0.00000000E+00  0.00000000E+00  0.00000000E+00  2.83432474E-08
  0.00000000E+00  0.00000000E+00  1.97340994E-04  0.00000000E+00  0.00000000E+00
  7.13419910E-03  0.00000000E+00  0.00000000E+00  0.00000000E+00  1.61413556E-06
  0.00000000E+00  0.00000000E+00  0.00000000E+00  0.00000000E+00  4.82580115E-03
  0.00000000E+00  0.00000000E+00  0.00000000E+00  0.00000000E+00  0.00000000E+00
  0.00000000E+00  0.00000000E+00  1.77683014E-01  0.00000000E+00 -2.51565040E-05
 -3.16532624E-03 -4.75054458E-03  0.00000000E+00  0.00000000E+00  0.00000000E+00
  0.00000000E+00  0.00000000E+00 -3.88714028E-05  0.00000000E+00  0.00000000E+00
 -1.00957093E-02  0.00000000E+00  0.00000000E+00  0.00000000E+00  0.00000000E+00
  0.00000000E+00 -1.91317905E-03  0.00000000E+00  0.00000000E+00 -4.25026276E-05
  0.00000000E+00 -6.03344850E-07 -1.16570526E-03 -1.07127708E-02 -5.35769704E-03
  0.00000000E+00  0.00000000E+00 -8.58864050E-07  0.00000000E+00  0.00000000E+00
 -2.47314359E-03  0.00000000E+00  0.00000000E+00 -2.30556992E-02 -2.24636536E-05
  0.00000000E+00  0.00000000E+00 -1.21260930E-06  0.00000000E+00 -1.99866102E-02
  0.00000000E+00  0.00000000E+00 -8.47173337E-04  0.00000000E+00  0.00000000E+00
  0.00000000E+00  0.00000000E+00  0.00000000E+00  0.00000000E+00  0.00000000E+00
  1.77683014E-01  0.00000000E+00  0.00000000E+00  0.00000000E+00  0.00000000E+00
  5.31026643E-06  0.00000000E+00  0.00000000E+00  1.27620659E-03  0.00000000E+00
  0.00000000E+00  8.62428326E-02  0.00000000E+00  0.00000000E+00  0.00000000E+00
  5.79456401E-05  0.00000000E+00  0.00000000E+00  0.00000000E+00  0.00000000E+00
  2.77726508E-02  0.00000000E+00  0.00000000E+00  0.00000000E+00  0.00000000E+00
  0.00000000E+00  0.00000000E+00  0.00000000E+00  5.92022981E-04  0.00000000E+00
  0.00000000E+00  2.58111435E-02  0.00000000E+00  0.00000000E+00  3.01576926E-01
  0.00000000E+00  0.00000000E+00  0.00000000E+00  3.61992714E-03  0.00000000E+00
  0.00000000E+00  0.00000000E+00  0.00000000E+00  2.21174087E-01  0.00000000E+00
  0.00000000E+00  0.00000000E+00  0.00000000E+00  0.00000000E+00  0.00000000E+00
  0.00000000E+00  5.13863703E-01  0.00000000E+00  0.00000000E+00  1.93298969E+00
  0.00000000E+00  0.00000000E+00  0.00000000E+00  0.00000000E+00  0.00000000E+00
  1.77008881E-06  0.00000000E+00  0.00000000E+00  4.25402195E-04  0.00000000E+00
  0.00000000E+00  2.87476109E-02  0.00000000E+00  0.00000000E+00  0.00000000E+00
  1.93152134E-05  0.00000000E+00  0.00000000E+00  0.00000000E+00  0.00000000E+00
  9.25755026E-03  0.00000000E+00  0.00000000E+00  0.00000000E+00  0.00000000E+00
  0.00000000E+00  0.00000000E+00  0.00000000E+00  1.97340994E-04  0.00000000E+00
  0.00000000E+00  8.60371450E-03  0.00000000E+00  0.00000000E+00  1.00525642E-01
  0.00000000E+00  0.00000000E+00  0.00000000E+00  1.20664238E-03  0.00000000E+00
  0.00000000E+00  0.00000000E+00  0.00000000E+00  7.37246955E-02  0.00000000E+00
  0.00000000E+00  0.00000000E+00  0.00000000E+00  0.00000000E+00  0.00000000E+00
  0.00000000E+00  1.71287901E-01  0.00000000E+00  0.00000000E+00  6.44329897E-01
 -2.19412893E-05 -3.04084236E-03 -5.58710288E-02 -7.66863485E-02  0.00000000E+00
  0.00000000E+00 -3.88714028E-05  0.00000000E+00  0.00000000E+00 -5.80497971E-03
  0.00000000E+00  0.00000000E+00 -1.46539825E-01 -1.86258262E-04  0.00000000E+00
  0.00000000E+00 -5.26190219E-05  0.00000000E+00 -4.68058641E-02  0.00000000E+00
  0.00000000E+00 -5.89333741E-03  0.00000000E+00 -1.53227862E-03 -3.63316655E-02
 -1.51011864E-01 -8.50273170E-02  0.00000000E+00  0.00000000E+00 -2.47314359E-03
  0.00000000E+00  0.00000000E+00 -6.56638386E-02  0.00000000E+00  0.00000000E+00
 -2.60737843E-01 -5.50652330E-03  0.00000000E+00  0.00000000E+00 -3.28716751E-03
  0.00000000E+00 -1.73610454E-01  0.00000000E+00  0.00000000E+00 -4.69329892E-02
  0.00000000E+00  0.00000000E+00  0.00000000E+00  0.00000000E+00  0.00000000E+00
  0.00000000E+00  0.00000000E+00  1.71287901E-01  0.00000000E+00  0.00000000E+00
  6.44329897E-01  0.00000000E+00  0.00000000E+00  0.00000000E+00  0.00000000E+00
  4.90091108E-03  0.00000000E+00  0.00000000E+00  8.62428326E-02  0.00000000E+00
  0.00000000E+00  1.07250813E+00  0.00000000E+00  0.00000000E+00  0.00000000E+00
  1.03820042E-02  0.00000000E+00  0.00000000E+00  0.00000000E+00  0.00000000E+00
  3.96800865E-01  0.00000000E+00  0.00000000E+00  0.00000000E+00  0.00000000E+00
  0.00000000E+00  0.00000000E+00  0.00000000E+00  2.14025973E-02  0.00000000E+00
  0.00000000E+00  3.01576926E-01  0.00000000E+00  0.00000000E+00  2.36428917E+00
  0.00000000E+00  0.00000000E+00  0.00000000E+00  3.37019281E-02  0.00000000E+00
  0.00000000E+00  0.00000000E+00  0.00000000E+00  9.32617377E-01  0.00000000E+00
  0.00000000E+00  0.00000000E+00  0.00000000E+00  0.00000000E+00  0.00000000E+00
  0.00000000E+00  1.77570879E-01  0.00000000E+00  0.00000000E+00  1.81873674E+00
  0.00000000E+00  0.00000000E+00  7.35294118E+00  0.00000000E+00  0.00000000E+00
  0.00000000E+00  0.00000000E+00  0.00000000E+00  1.63363703E-03  0.00000000E+00
  0.00000000E+00  2.87476109E-02  0.00000000E+00  0.00000000E+00  3.57502712E-01
  0.00000000E+00  0.00000000E+00  0.00000000E+00  3.46066807E-03  0.00000000E+00
  0.00000000E+00  0.00000000E+00  0.00000000E+00  1.32266955E-01  0.00000000E+00
  0.00000000E+00  0.00000000E+00  0.00000000E+00  0.00000000E+00  0.00000000E+00
  0.00000000E+00  7.13419910E-03  0.00000000E+00  0.00000000E+00  1.00525642E-01
  0.00000000E+00  0.00000000E+00  7.88096389E-01  0.00000000E+00  0.00000000E+00
  0.00000000E+00  1.12339760E-02  0.00000000E+00  0.00000000E+00  0.00000000E+00
  0.00000000E+00  3.10872459E-01  0.00000000E+00  0.00000000E+00  0.00000000E+00
  0.00000000E+00  0.00000000E+00  0.00000000E+00  0.00000000E+00  5.91902931E-02
  0.00000000E+00  0.00000000E+00  6.06245580E-01  0.00000000E+00  0.00000000E+00
  2.45098039E+00 -1.44946593E-02 -1.46426576E-01 -6.96872171E-01 -1.01548152E+00
  0.00000000E+00  0.00000000E+00 -1.00957093E-02  0.00000000E+00  0.00000000E+00
 -1.46539825E-01  0.00000000E+00  0.00000000E+00 -1.01895454E+00  1.06694778E-02
  0.00000000E+00  0.00000000E+00 -3.58620210E-02  0.00000000E+00 -7.85243971E-02
  0.00000000E+00  0.00000000E+00 -3.20293509E-01  0.00000000E+00 -4.76642816E-02
 -3.74725739E-01 -1.18256814E+00 -1.06697741E+00  0.00000000E+00  0.00000000E+00
 -2.30556992E-02  0.00000000E+00  0.00000000E+00 -2.60737843E-01  0.00000000E+00
  0.00000000E+00 -1.00028816E+00  5.33382343E-02  0.00000000E+00  0.00000000E+00
 -1.16414830E-01  0.00000000E+00  2.17086126E-01  0.00000000E+00  0.00000000E+00
 -7.52798994E-01  0.00000000E+00  0.00000000E+00  0.00000000E+00  0.00000000E+00
  0.00000000E+00  0.00000000E+00  0.00000000E+00  5.91902931E-02  0.00000000E+00
  0.00000000E+00  6.06245580E-01  0.00000000E+00  0.00000000E+00  2.45098039E+00
  4.09685445E-09  9.89435117E-05 -1.77897974E-03 -3.25518539E-02  0.00000000E+00
  0.00000000E+00  0.00000000E+00  0.00000000E+00  0.00000000E+00  1.86258262E-04
  0.00000000E+00  0.00000000E+00 -1.06694778E-02  2.32062579E-07  0.00000000E+00
  0.00000000E+00  1.12213814E-08  0.00000000E+00  2.97983454E-03  0.00000000E+00
  0.00000000E+00  7.54604061E-05  0.00000000E+00  1.25129899E-05  2.36577918E-03
 -1.44187399E-02 -4.86261738E-02  0.00000000E+00  0.00000000E+00  2.24636536E-05
  0.00000000E+00  0.00000000E+00  5.50652330E-03  0.00000000E+00  0.00000000E+00
 -5.33382343E-02  2.57284946E-04  0.00000000E+00  0.00000000E+00  2.29988837E-05
  0.00000000E+00  5.39757926E-03  0.00000000E+00  0.00000000E+00  8.96644969E-05
  0.00000000E+00 -1.07745898E-01 -2.49557776E-01 -1.94349589E-01 -8.64529820E-02
  0.00000000E+00  0.00000000E+00  0.00000000E+00  0.00000000E+00  0.00000000E+00
  0.00000000E+00  0.00000000E+00  0.00000000E+00  0.00000000E+00  3.94197414E-01
  0.00000000E+00  0.00000000E+00  0.00000000E+00  0.00000000E+00  0.00000000E+00
  0.00000000E+00  0.00000000E+00 -5.79456401E-05  0.00000000E+00  0.00000000E+00
 -1.03820042E-02  0.00000000E+00  0.00000000E+00  0.00000000E+00 -5.98465326E-08
  0.00000000E+00  0.00000000E+00  0.00000000E+00  0.00000000E+00 -3.61245248E-03
  0.00000000E+00  0.00000000E+00  0.00000000E+00  0.00000000E+00  0.00000000E+00
  0.00000000E+00  0.00000000E+00 -4.84240668E-06  0.00000000E+00  0.00000000E+00
 -3.61992714E-03  0.00000000E+00  0.00000000E+00 -3.37019281E-02  0.00000000E+00
  0.00000000E+00  0.00000000E+00 -1.25060075E-04  0.00000000E+00  0.00000000E+00
  0.00000000E+00  0.00000000E+00 -4.50746166E-02  0.00000000E+00  0.00000000E+00
  0.00000000E+00  0.00000000E+00  0.00000000E+00  0.00000000E+00  0.00000000E+00
  0.00000000E+00  0.00000000E+00  0.00000000E+00  0.00000000E+00  0.00000000E+00
  0.00000000E+00  0.00000000E+00  0.00000000E+00  0.00000000E+00  0.00000000E+00
  7.09555345E-01  0.00000000E+00  0.00000000E+00  0.00000000E+00  0.00000000E+00
  0.00000000E+00  0.00000000E+00  0.00000000E+00  0.00000000E+00 -1.93152134E-05
  0.00000000E+00  0.00000000E+00 -3.46066807E-03  0.00000000E+00  0.00000000E+00
  0.00000000E+00 -1.99488442E-08  0.00000000E+00  0.00000000E+00  0.00000000E+00
  0.00000000E+00 -1.20415083E-03  0.00000000E+00  0.00000000E+00  0.00000000E+00
  0.00000000E+00  0.00000000E+00  0.00000000E+00  0.00000000E+00 -1.61413556E-06
  0.00000000E+00  0.00000000E+00 -1.20664238E-03  0.00000000E+00  0.00000000E+00
 -1.12339760E-02  0.00000000E+00  0.00000000E+00  0.00000000E+00 -4.16866918E-05
  0.00000000E+00  0.00000000E+00  0.00000000E+00  0.00000000E+00 -1.50248722E-02
  0.00000000E+00  0.00000000E+00  0.00000000E+00  0.00000000E+00  0.00000000E+00
  0.00000000E+00  0.00000000E+00  0.00000000E+00  0.00000000E+00  0.00000000E+00
  0.00000000E+00  0.00000000E+00  0.00000000E+00  0.00000000E+00  0.00000000E+00
  0.00000000E+00  0.00000000E+00  2.36518448E-01  1.58524441E-10  3.57401393E-05
  9.83202128E-03  5.90078480E-02  0.00000000E+00  0.00000000E+00  0.00000000E+00
  0.00000000E+00  0.00000000E+00  5.26190219E-05  0.00000000E+00  0.00000000E+00
  3.58620210E-02  1.12213814E-08  0.00000000E+00  0.00000000E+00  1.53852466E-09
  0.00000000E+00  3.08734441E-03  0.00000000E+00  0.00000000E+00  2.55930410E-04
  0.00000000E+00  8.34414898E-07  1.69639873E-03  4.19501952E-02  8.64919388E-02
  0.00000000E+00  0.00000000E+00  1.21260930E-06  0.00000000E+00  0.00000000E+00
  3.28716751E-03  0.00000000E+00  0.00000000E+00  1.16414830E-01  2.29988837E-05
  0.00000000E+00  0.00000000E+00  5.55437023E-06  0.00000000E+00  3.96218794E-02
  0.00000000E+00  0.00000000E+00  5.69949813E-03  0.00000000E+00  1.86621370E-01
  4.32246747E-01  3.36623363E-01  1.49740957E-01  0.00000000E+00  0.00000000E+00
  0.00000000E+00  0.00000000E+00  0.00000000E+00  0.00000000E+00  0.00000000E+00
  0.00000000E+00  0.00000000E+00 -2.73107980E-01  0.00000000E+00  0.00000000E+00
  7.09555345E-01  0.00000000E+00  0.00000000E+00  0.00000000E+00  0.00000000E+00
  0.00000000E+00  0.00000000E+00  0.00000000E+00  0.00000000E+00  0.00000000E+00
  0.00000000E+00  0.00000000E+00  0.00000000E+00  0.00000000E+00  0.00000000E+00
  0.00000000E+00  0.00000000E+00  0.00000000E+00  1.53852466E-09  0.00000000E+00
  0.00000000E+00  0.00000000E+00  0.00000000E+00  2.55930410E-04  0.00000000E+00
  0.00000000E+00  0.00000000E+00  0.00000000E+00  0.00000000E+00  0.00000000E+00
  0.00000000E+00  0.00000000E+00  0.00000000E+00  0.00000000E+00  0.00000000E+00
  0.00000000E+00  0.00000000E+00  0.00000000E+00  0.00000000E+00  0.00000000E+00
  0.00000000E+00  5.55437023E-06  0.00000000E+00  0.00000000E+00  0.00000000E+00
  0.00000000E+00  5.69949813E-03  0.00000000E+00  0.00000000E+00  0.00000000E+00
  0.00000000E+00  0.00000000E+00  0.00000000E+00  0.00000000E+00  0.00000000E+00
  0.00000000E+00  0.00000000E+00  0.00000000E+00  0.00000000E+00  0.00000000E+00
  0.00000000E+00  0.00000000E+00  0.00000000E+00  0.00000000E+00  7.09555345E-01
  1.34675838E-03  2.76956455E-02  8.37476544E-02 -2.94677567E-01  0.00000000E+00
  0.00000000E+00  1.91317905E-03  0.00000000E+00  0.00000000E+00  4.68058641E-02
  0.00000000E+00  0.00000000E+00  7.85243971E-02  2.97983454E-03  0.00000000E+00
  0.00000000E+00  3.08734441E-03  0.00000000E+00  1.14733249E-01  0.00000000E+00
  0.00000000E+00  4.04412681E-02  0.00000000E+00  1.85664768E-02  1.36319756E-01
  6.90429716E-02 -4.57447278E-01  0.00000000E+00  0.00000000E+00  1.99866102E-02
  0.00000000E+00  0.00000000E+00  1.73610454E-01  0.00000000E+00  0.00000000E+00
 -2.17086126E-01  5.39757926E-03  0.00000000E+00  0.00000000E+00  3.96218794E-02
  0.00000000E+00  4.81209988E-02  0.00000000E+00  0.00000000E+00  1.30885940E-01
  0.00000000E+00 -4.10760608E-02 -4.28456575E-01 -1.01378802E+00 -8.50326284E-01
  0.00000000E+00  0.00000000E+00  0.00000000E+00  0.00000000E+00  0.00000000E+00
  0.00000000E+00  0.00000000E+00  0.00000000E+00  0.00000000E+00  2.72286101E-01
  0.00000000E+00  0.00000000E+00 -1.88645345E-01  0.00000000E+00  1.68690958E+00
  0.00000000E+00  0.00000000E+00  0.00000000E+00  0.00000000E+00 -7.26330329E-04
  0.00000000E+00  0.00000000E+00 -2.77726508E-02  0.00000000E+00  0.00000000E+00
 -3.96800865E-01  0.00000000E+00  0.00000000E+00  0.00000000E+00 -3.61245248E-03
  0.00000000E+00  0.00000000E+00  0.00000000E+00  0.00000000E+00 -2.38832686E-01
  0.00000000E+00  0.00000000E+00  0.00000000E+00  0.00000000E+00  0.00000000E+00
  0.00000000E+00  0.00000000E+00 -1.44774035E-02  0.00000000E+00  0.00000000E+00
 -2.21174087E-01  0.00000000E+00  0.00000000E+00 -9.32617377E-01  0.00000000E+00
  0.00000000E+00  0.00000000E+00 -4.50746166E-02  0.00000000E+00  0.00000000E+00
  0.00000000E+00  0.00000000E+00 -8.74689002E-01  0.00000000E+00  0.00000000E+00
  0.00000000E+00  0.00000000E+00  0.00000000E+00  0.00000000E+00  0.00000000E+00
  0.00000000E+00  0.00000000E+00  0.00000000E+00  0.00000000E+00  0.00000000E+00
  0.00000000E+00  0.00000000E+00  0.00000000E+00  0.00000000E+00  0.00000000E+00
  4.90114982E-01  0.00000000E+00  0.00000000E+00  0.00000000E+00  0.00000000E+00
  3.03643725E+00  0.00000000E+00  0.00000000E+00  0.00000000E+00  0.00000000E+00
  0.00000000E+00 -2.42110110E-04  0.00000000E+00  0.00000000E+00 -9.25755026E-03
  0.00000000E+00  0.00000000E+00 -1.32266955E-01  0.00000000E+00  0.00000000E+00
  0.00000000E+00 -1.20415083E-03  0.00000000E+00  0.00000000E+00  0.00000000E+00
  0.00000000E+00 -7.96108953E-02  0.00000000E+00  0.00000000E+00  0.00000000E+00
  0.00000000E+00  0.00000000E+00  0.00000000E+00  0.00000000E+00 -4.82580115E-03
  0.00000000E+00  0.00000000E+00 -7.37246955E-02  0.00000000E+00  0.00000000E+00
 -3.10872459E-01  0.00000000E+00  0.00000000E+00  0.00000000E+00 -1.50248722E-02
  0.00000000E+00  0.00000000E+00  0.00000000E+00  0.00000000E+00 -2.91563001E-01
  0.00000000E+00  0.00000000E+00  0.00000000E+00  0.00000000E+00  0.00000000E+00
  0.00000000E+00  0.00000000E+00  0.00000000E+00  0.00000000E+00  0.00000000E+00
  0.00000000E+00  0.00000000E+00  0.00000000E+00  0.00000000E+00  0.00000000E+00
  0.00000000E+00  0.00000000E+00  1.63371661E-01  0.00000000E+00  0.00000000E+00
  0.00000000E+00  0.00000000E+00  1.01214575E+00  3.25392155E-05  3.69291007E-03
  1.13592725E-01  6.20111474E-01  0.00000000E+00  0.00000000E+00  4.25026276E-05
  0.00000000E+00  0.00000000E+00  5.89333741E-03  0.00000000E+00  0.00000000E+00
  3.20293509E-01  7.54604061E-05  0.00000000E+00  0.00000000E+00  2.55930410E-04
  0.00000000E+00  4.04412681E-02  0.00000000E+00  0.00000000E+00  2.86936925E-02
  0.00000000E+00  7.64710073E-04  3.25880525E-02  3.49653415E-01  8.84562685E-01
  0.00000000E+00  0.00000000E+00  8.47173337E-04  0.00000000E+00  0.00000000E+00
  4.69329892E-02  0.00000000E+00  0.00000000E+00  7.52798994E-01  8.96644969E-05
  0.00000000E+00  0.00000000E+00  5.69949813E-03  0.00000000E+00  1.30885940E-01
  0.00000000E+00  0.00000000E+00  1.94585710E-01  0.00000000E+00  7.11458243E-02
  7.42108557E-01  1.75593236E+00  1.47280833E+00  0.00000000E+00  0.00000000E+00
  0.00000000E+00  0.00000000E+00  0.00000000E+00  0.00000000E+00  0.00000000E+00
  0.00000000E+00  0.00000000E+00 -1.88645345E-01  0.00000000E+00  0.00000000E+00
  4.90114982E-01  0.00000000E+00 -1.16872524E+00  0.00000000E+00  0.00000000E+00
  3.03643725E+00  0.00000000E+00  0.00000000E+00  0.00000000E+00  0.00000000E+00
  0.00000000E+00  0.00000000E+00  0.00000000E+00  0.00000000E+00  0.00000000E+00
  0.00000000E+00  0.00000000E+00  0.00000000E+00  0.00000000E+00  0.00000000E+00
  0.00000000E+00  0.00000000E+00  0.00000000E+00  2.55930410E-04  0.00000000E+00
  0.00000000E+00  0.00000000E+00  0.00000000E+00  2.86936925E-02  0.00000000E+00
  0.00000000E+00  0.00000000E+00  0.00000000E+00  0.00000000E+00  0.00000000E+00
  0.00000000E+00  0.00000000E+00  0.00000000E+00  0.00000000E+00  0.00000000E+00
  0.00000000E+00  0.00000000E+00  0.00000000E+00  0.00000000E+00  0.00000000E+00
  0.00000000E+00  5.69949813E-03  0.00000000E+00  0.00000000E+00  0.00000000E+00
  0.00000000E+00  1.94585710E-01  0.00000000E+00  0.00000000E+00  0.00000000E+00
  0.00000000E+00  0.00000000E+00  0.00000000E+00  0.00000000E+00  0.00000000E+00
  0.00000000E+00  0.00000000E+00  0.00000000E+00  0.00000000E+00  0.00000000E+00
  0.00000000E+00  0.00000000E+00  0.00000000E+00  0.00000000E+00  4.90114982E-01
  0.00000000E+00  0.00000000E+00  0.00000000E+00  0.00000000E+00  3.03643725E+00
Multipole Matrix (1,1,0)                   R   N=        2415
  0.00000000E+00  0.00000000E+00  0.00000000E+00  0.00000000E+00  0.00000000E+00
  0.00000000E+00  0.00000000E+00  0.00000000E+00  0.00000000E+00  0.00000000E+00
  0.00000000E+00  0.00000000E+00  0.00000000E+00  0.00000000E+00  0.00000000E+00
  0.00000000E+00  0.00000000E+00  0.00000000E+00  0.00000000E+00  1.77683014E-01
  0.00000000E+00  0.00000000E+00  0.00000000E+00  0.00000000E+00  0.00000000E+00
  0.00000000E+00  0.00000000E+00  0.00000000E+00  0.00000000E+00  0.00000000E+00
  0.00000000E+00  0.00000000E+00  0.00000000E+00  1.71287901E-01  0.00000000E+00
  0.00000000E+00  0.00000000E+00  0.00000000E+00  0.00000000E+00  0.00000000E+00
  1.71287901E-01  0.00000000E+00  0.00000000E+00  6.44329897E-01  0.00000000E+00
  0.00000000E+00  0.00000000E+00  0.00000000E+00  0.00000000E+00  0.00000000E+00
  0.00000000E+00  0.00000000E+00  0.00000000E+00  0.00000000E+00  0.00000000E+00
  0.00000000E+00  0.00000000E+00  0.00000000E+00  0.00000000E+00  0.00000000E+00
  5.91902931E-02  0.00000000E+00  0.00000000E+00  6.06245580E-01  0.00000000E+00
  0.00000000E+00  0.00000000E+00  0.00000000E+00  0.00000000E+00  0.00000000E+00
  5.91902931E-02  0.00000000E+00  0.00000000E+00  6.06245580E-01  0.00000000E+00
  0.00000000E+00  2.45098039E+00  0.00000000E+00  0.00000000E+00  0.00000000E+00
  0.00000000E+00  0.00000000E+00  0.00000000E+00  0.00000000E+00  0.00000000E+00
  0.00000000E+00  0.00000000E+00  0.00000000E+00  0.00000000E+00  0.00000000E+00
  0.00000000E+00  0.00000000E+00  0.00000000E+00  0.00000000E+00  0.00000000E+00
  0.00000000E+00  0.00000000E+00  0.00000000E+00  0.00000000E+00  0.00000000E+00
  0.00000000E+00  0.00000000E+00  0.00000000E+00  0.00000000E+00  0.00000000E+00
  0.00000000E+00  0.00000000E+00  0.00000000E+00  0.00000000E+00  0.00000000E+00
  0.00000000E+00  0.00000000E+00  0.00000000E+00  0.00000000E+00  0.00000000E+00
  0.00000000E+00  0.00000000E+00  0.00000000E+00  0.00000000E+00  0.00000000E+00
  0.00000000E+00  0.00000000E+00  0.00000000E+00  0.00000000E+00  0.00000000E+00
  0.00000000E+00  0.00000000E+00  0.00000000E+00  0.00000000E+00  0.00000000E+00
  0.00000000E+00  0.00000000E+00  0.00000000E+00  0.00000000E+00  2.36518448E-01
  0.00000000E+00  0.00000000E+00  0.00000000E+00  0.00000000E+00  0.00000000E+00
  0.00000000E+00  0.00000000E+00  0.00000000E+00  0.00000000E+00  0.00000000E+00
  0.00000000E+00  0.00000000E+00  0.00000000E+00  0.00000000E+00  0.00000000E+00
  0.00000000E+00  0.00000000E+00  0.00000000E+00  1.86621370E-01  4.32246747E-01
  3.36623363E-01  1.49740957E-01  0.00000000E+00  0.00000000E+00  0.00000000E+00
  0.00000000E+00  0.00000000E+00  0.00000000E+00  0.00000000E+00  0.00000000E+00
  0.00000000E+00 -2.73107980E-01  0.00000000E+00  0.00000000E+00 -1.36344984E-17
  0.00000000E+00  0.00000000E+00  0.00000000E+00  0.00000000E+00  0.00000000E+00
  0.00000000E+00  0.00000000E+00  0.00000000E+00  0.00000000E+00  0.00000000E+00
  0.00000000E+00  0.00000000E+00  0.00000000E+00  0.00000000E+00  0.00000000E+00
  0.00000000E+00  0.00000000E+00  0.00000000E+00 -1.88645345E-01  0.00000000E+00
  0.00000000E+00  0.00000000E+00  0.00000000E+00  0.00000000E+00  0.00000000E+00
  0.00000000E+00  0.00000000E+00  0.00000000E+00  0.00000000E+00  0.00000000E+00
  0.00000000E+00  0.00000000E+00  0.00000000E+00  0.00000000E+00  0.00000000E+00
  1.63371661E-01  0.00000000E+00  0.00000000E+00  0.00000000E+00  0.00000000E+00
  0.00000000E+00  0.00000000E+00  0.00000000E+00  0.00000000E+00  0.00000000E+00
  0.00000000E+00  0.00000000E+00  0.00000000E+00  0.00000000E+00  0.00000000E+00
  0.00000000E+00  0.00000000E+00  0.00000000E+00  0.00000000E+00  1.63371661E-01
  0.00000000E+00  0.00000000E+00  0.00000000E+00  0.00000000E+00  1.01214575E+00
  0.00000000E+00  0.00000000E+00  0.00000000E+00  0.00000000E+00  0.00000000E+00
  0.00000000E+00  0.00000000E+00  0.00000000E+00  0.00000000E+00  0.00000000E+00
  0.00000000E+00  0.00000000E+00  0.00000000E+00  0.00000000E+00  0.00000000E+00
  0.00000000E+00  0.00000000E+00  0.00000000E+00 -7.53121970E-18  0.00000000E+00
  0.00000000E+00  0.00000000E+00  0.00000000E+00  7.11458243E-02  7.42108557E-01
  1.75593236E+00  1.47280833E+00  0.00000000E+00  0.00000000E+00  0.00000000E+00
  0.00000000E+00  0.00000000E+00  0.00000000E+00  0.00000000E+00  0.00000000E+00
  0.00000000E+00 -1.88645345E-01  0.00000000E+00  0.00000000E+00 -7.53121970E-18
  0.00000000E+00 -1.16872524E+00  0.00000000E+00  0.00000000E+00 -1.53212036E-17
  0.00000000E+00  0.00000000E+00  0.00000000E+00  0.00000000E+00  0.00000000E+00
  0.00000000E+00  0.00000000E+00  0.00000000E+00  0.00000000E+00  0.00000000E+00
  0.00000000E+00  0.00000000E+00  0.00000000E+00  0.00000000E+00  0.00000000E+00
  0.00000000E+00  0.00000000E+00  0.00000000E+00  5.99842961E-02  0.00000000E+00
  0.00000000E+00  0.00000000E+00  0.00000000E+00  4.69761791E-02  0.00000000E+00
  0.00000000E+00  0.00000000E+00  0.00000000E+00  0.00000000E+00  0.00000000E+00
  0.00000000E+00  0.00000000E+00  0.00000000E+00  0.00000000E+00  0.00000000E+00
  0.00000000E+00  0.00000000E+00  0.00000000E+00  0.00000000E+00  0.00000000E+00
  0.00000000E+00  0.00000000E+00  2.60284223E-01  0.00000000E+00  0.00000000E+00
  0.00000000E+00  0.00000000E+00  5.57441038E-01  0.00000000E+00  0.00000000E+00
  0.00000000E+00  0.00000000E+00  0.00000000E+00  0.00000000E+00  0.00000000E+00
  0.00000000E+00  0.00000000E+00  0.00000000E+00  0.00000000E+00  0.00000000E+00
  0.00000000E+00  0.00000000E+00  0.00000000E+00  0.00000000E+00  0.00000000E+00
  0.00000000E+00  0.00000000E+00  2.78193529E-01  0.00000000E+00  0.00000000E+00
  0.00000000E+00  0.00000000E+00  1.51476171E+00  0.00000000E+00  0.00000000E+00
  0.00000000E+00  0.00000000E+00  0.00000000E+00  0.00000000E+00  0.00000000E+00
  0.00000000E+00  0.00000000E+00  0.00000000E+00  0.00000000E+00  0.00000000E+00
  0.00000000E+00  0.00000000E+00  0.00000000E+00  0.00000000E+00  0.00000000E+00
  0.00000000E+00  0.00000000E+00  0.00000000E+00  1.42402855E-01  0.00000000E+00
  0.00000000E+00  0.00000000E+00  0.00000000E+00  1.40564555E+00  0.00000000E+00
  0.00000000E+00  0.00000000E+00  0.00000000E+00  0.00000000E+00  0.00000000E+00
  0.00000000E+00  0.00000000E+00  0.00000000E+00  4.24008033E-02  0.00000000E+00
  0.00000000E+00  9.21957970E-02  0.00000000E+00  0.00000000E+00  4.87670256E-02
  0.00000000E+00  0.00000000E+00  0.00000000E+00  9.69548840E-02  0.00000000E+00
  0.00000000E+00  0.00000000E+00  0.00000000E+00  1.02013725E-01  0.00000000E+00
  0.00000000E+00  0.00000000E+00  0.00000000E+00  0.00000000E+00  0.00000000E+00
  0.00000000E+00  0.00000000E+00  0.00000000E+00  0.00000000E+00  0.00000000E+00
  4.24008033E-02  0.00000000E+00  0.00000000E+00  9.21957970E-02  0.00000000E+00
  0.00000000E+00  4.87670256E-02  0.00000000E+00  0.00000000E+00  0.00000000E+00
  9.69548840E-02  0.00000000E+00  0.00000000E+00  0.00000000E+00  0.00000000E+00
  1.02013725E-01  0.00000000E+00  0.00000000E+00  0.00000000E+00  0.00000000E+00
  0.00000000E+00  0.00000000E+00  0.00000000E+00  1.77683014E-01  0.00000000E+00
  0.00000000E+00  0.00000000E+00  0.00000000E+00  0.00000000E+00  0.00000000E+00
  0.00000000E+00  0.00000000E+00  0.00000000E+00  0.00000000E+00  0.00000000E+00
  0.00000000E+00  0.00000000E+00  0.00000000E+00  0.00000000E+00  0.00000000E+00
  0.00000000E+00  0.00000000E+00 -7.28367536E-02  0.00000000E+00  0.00000000E+00
  0.00000000E+00  0.00000000E+00 -1.79085929E-02  0.00000000E+00  0.00000000E+00
  0.00000000E+00  0.00000000E+00  0.00000000E+00  0.00000000E+00  0.00000000E+00
  0.00000000E+00  0.00000000E+00  0.00000000E+00  0.00000000E+00  0.00000000E+00
  9.21957970E-02  0.00000000E+00  0.00000000E+00  4.34018350E-01  0.00000000E+00
  0.00000000E+00  5.14288571E-01  0.00000000E+00  0.00000000E+00  0.00000000E+00
  1.13133501E-01  0.00000000E+00  0.00000000E+00  0.00000000E+00  0.00000000E+00
  4.71143602E-01  0.00000000E+00  0.00000000E+00  0.00000000E+00  0.00000000E+00
  0.00000000E+00  0.00000000E+00  0.00000000E+00  1.71287901E-01  0.00000000E+00
  0.00000000E+00  0.00000000E+00  0.00000000E+00  0.00000000E+00  0.00000000E+00
  9.21957970E-02  0.00000000E+00  0.00000000E+00  4.34018350E-01  0.00000000E+00
  0.00000000E+00  5.14288571E-01  0.00000000E+00  0.00000000E+00  0.00000000E+00
  1.13133501E-01  0.00000000E+00  0.00000000E+00  0.00000000E+00  0.00000000E+00
  4.71143602E-01  0.00000000E+00  0.00000000E+00  0.00000000E+00  0.00000000E+00
  0.00000000E+00  0.00000000E+00  0.00000000E+00  1.71287901E-01  0.00000000E+00
  0.00000000E+00  6.44329897E-01  0.00000000E+00  0.00000000E+00  0.00000000E+00
  0.00000000E+00  0.00000000E+00  0.00000000E+00  0.00000000E+00  0.00000000E+00
  0.00000000E+00  0.00000000E+00  0.00000000E+00  0.00000000E+00  0.00000000E+00
  0.00000000E+00  0.00000000E+00  0.00000000E+00  0.00000000E+00  0.00000000E+00
 -3.08201316E-01  0.00000000E+00  0.00000000E+00  0.00000000E+00  0.00000000E+00
 -2.99929045E-01  0.00000000E+00  0.00000000E+00  0.00000000E+00  0.00000000E+00
  0.00000000E+00  0.00000000E+00  0.00000000E+00  0.00000000E+00  0.00000000E+00
  0.00000000E+00  0.00000000E+00  0.00000000E+00  0.00000000E+00  0.00000000E+00
  0.00000000E+00  4.87670256E-02  0.00000000E+00  0.00000000E+00  5.14288571E-01
  0.00000000E+00  0.00000000E+00  2.20916649E+00  0.00000000E+00  0.00000000E+00
  0.00000000E+00  2.22773973E-02  0.00000000E+00  0.00000000E+00  0.00000000E+00
  0.00000000E+00  4.04615523E-01  0.00000000E+00  0.00000000E+00  0.00000000E+00
  0.00000000E+00  0.00000000E+00  0.00000000E+00  0.00000000E+00  5.91902931E-02
  0.00000000E+00  0.00000000E+00  6.06245580E-01  0.00000000E+00  0.00000000E+00
  0.00000000E+00  0.00000000E+00  0.00000000E+00  0.00000000E+00  4.87670256E-02
  0.00000000E+00  0.00000000E+00  5.14288571E-01  0.00000000E+00  0.00000000E+00
  2.20916649E+00  0.00000000E+00  0.00000000E+00  0.00000000E+00  2.22773973E-02
  0.00000000E+00  0.00000000E+00  0.00000000E+00  0.00000000E+00  4.04615523E-01
  0.00000000E+00  0.00000000E+00  0.00000000E+00  0.00000000E+00  0.00000000E+00
  0.00000000E+00  0.00000000E+00  5.91902931E-02  0.00000000E+00  0.00000000E+00
  6.06245580E-01  0.00000000E+00  0.00000000E+00  2.45098039E+00  0.00000000E+00
  0.00000000E+00  0.00000000E+00  0.00000000E+00  0.00000000E+00  0.00000000E+00
  0.00000000E+00  0.00000000E+00  0.00000000E+00  0.00000000E+00  0.00000000E+00
  0.00000000E+00  0.00000000E+00  0.00000000E+00  0.00000000E+00  0.00000000E+00
  0.00000000E+00  0.00000000E+00 -2.30854990E-01  0.00000000E+00  0.00000000E+00
  0.00000000E+00  0.00000000E+00 -9.79804256E-01  0.00000000E+00  0.00000000E+00
  0.00000000E+00  0.00000000E+00  0.00000000E+00  0.00000000E+00  0.00000000E+00
  0.00000000E+00  0.00000000E+00  0.00000000E+00  0.00000000E+00  0.00000000E+00
  0.00000000E+00  0.00000000E+00  0.00000000E+00  0.00000000E+00  0.00000000E+00
  0.00000000E+00  0.00000000E+00  0.00000000E+00  0.00000000E+00  0.00000000E+00
  0.00000000E+00  0.00000000E+00  0.00000000E+00  0.00000000E+00  0.00000000E+00
  0.00000000E+00  0.00000000E+00  0.00000000E+00  7.11201355E-03  0.00000000E+00
  0.00000000E+00  0.00000000E+00  0.00000000E+00 -1.13516434E-01  0.00000000E+00
  0.00000000E+00  0.00000000E+00  0.00000000E+00  0.00000000E+00  0.00000000E+00
  0.00000000E+00  0.00000000E+00  0.00000000E+00  0.00000000E+00  0.00000000E+00
  0.00000000E+00  0.00000000E+00  0.00000000E+00  0.00000000E+00  0.00000000E+00
  0.00000000E+00  0.00000000E+00  0.00000000E+00 -9.69548840E-02  0.00000000E+00
  0.00000000E+00 -1.13133501E-01  0.00000000E+00  0.00000000E+00 -2.22773973E-02
  0.00000000E+00  0.00000000E+00  0.00000000E+00 -9.29280458E-02  0.00000000E+00
  0.00000000E+00  0.00000000E+00  0.00000000E+00  2.00416970E-02  0.00000000E+00
  0.00000000E+00  0.00000000E+00  0.00000000E+00  0.00000000E+00  0.00000000E+00
  0.00000000E+00  0.00000000E+00  0.00000000E+00  0.00000000E+00  0.00000000E+00
  0.00000000E+00  0.00000000E+00  0.00000000E+00  0.00000000E+00  0.00000000E+00
  0.00000000E+00  0.00000000E+00  0.00000000E+00  0.00000000E+00  0.00000000E+00
 -9.69548840E-02  0.00000000E+00  0.00000000E+00 -1.13133501E-01  0.00000000E+00
  0.00000000E+00 -2.22773973E-02  0.00000000E+00  0.00000000E+00  0.00000000E+00
 -9.29280458E-02  0.00000000E+00  0.00000000E+00  0.00000000E+00  0.00000000E+00
  2.00416970E-02  0.00000000E+00  0.00000000E+00  0.00000000E+00  0.00000000E+00
  0.00000000E+00  0.00000000E+00  0.00000000E+00  0.00000000E+00  0.00000000E+00
  0.00000000E+00  0.00000000E+00  0.00000000E+00  0.00000000E+00  0.00000000E+00
  0.00000000E+00  0.00000000E+00  0.00000000E+00  2.36518448E-01  0.00000000E+00
  0.00000000E+00  0.00000000E+00  0.00000000E+00  0.00000000E+00  0.00000000E+00
  0.00000000E+00  0.00000000E+00  0.00000000E+00  0.00000000E+00  0.00000000E+00
  0.00000000E+00  0.00000000E+00  0.00000000E+00  0.00000000E+00  0.00000000E+00
  0.00000000E+00  0.00000000E+00 -1.87595107E-18  0.00000000E+00  0.00000000E+00
  0.00000000E+00  0.00000000E+00 -7.72203848E-18  0.00000000E+00  0.00000000E+00
  0.00000000E+00  0.00000000E+00  0.00000000E+00  0.00000000E+00  0.00000000E+00
  0.00000000E+00  0.00000000E+00  0.00000000E+00  0.00000000E+00  0.00000000E+00
  0.00000000E+00  0.00000000E+00  0.00000000E+00  0.00000000E+00  0.00000000E+00
  5.99842961E-02  2.60284223E-01  2.78193529E-01  1.42402855E-01  0.00000000E+00
  0.00000000E+00  7.28367536E-02  0.00000000E+00  0.00000000E+00  3.08201316E-01
  0.00000000E+00  0.00000000E+00  2.30854990E-01  7.11201355E-03  0.00000000E+00
  0.00000000E+00 -1.87595107E-18  0.00000000E+00  9.34815757E-02  0.00000000E+00
  0.00000000E+00 -7.72203848E-18  0.00000000E+00  1.86621370E-01  4.32246747E-01
  3.36623363E-01  1.49740957E-01  0.00000000E+00  0.00000000E+00  0.00000000E+00
  0.00000000E+00  0.00000000E+00  0.00000000E+00  0.00000000E+00  0.00000000E+00
  0.00000000E+00 -2.73107980E-01  0.00000000E+00  0.00000000E+00 -1.36344984E-17
  0.00000000E+00  0.00000000E+00  0.00000000E+00  0.00000000E+00  0.00000000E+00
  0.00000000E+00  0.00000000E+00  0.00000000E+00  0.00000000E+00  0.00000000E+00
  0.00000000E+00  0.00000000E+00  0.00000000E+00  0.00000000E+00  0.00000000E+00
  0.00000000E+00  0.00000000E+00  0.00000000E+00  9.34815757E-02  0.00000000E+00
  0.00000000E+00  0.00000000E+00  0.00000000E+00 -6.80210772E-01  0.00000000E+00
  0.00000000E+00  0.00000000E+00  0.00000000E+00  0.00000000E+00  0.00000000E+00
  0.00000000E+00  0.00000000E+00  0.00000000E+00  0.00000000E+00  0.00000000E+00
  0.00000000E+00  0.00000000E+00  0.00000000E+00  0.00000000E+00  0.00000000E+00
  0.00000000E+00 -1.88645345E-01  0.00000000E+00  0.00000000E+00  0.00000000E+00
  0.00000000E+00  0.00000000E+00  0.00000000E+00 -1.02013725E-01  0.00000000E+00
  0.00000000E+00 -4.71143602E-01  0.00000000E+00  0.00000000E+00 -4.04615523E-01
  0.00000000E+00  0.00000000E+00  0.00000000E+00  2.00416970E-02  0.00000000E+00
  0.00000000E+00  0.00000000E+00  0.00000000E+00  3.91108884E-01  0.00000000E+00
  0.00000000E+00  0.00000000E+00  0.00000000E+00  0.00000000E+00  0.00000000E+00
  0.00000000E+00  0.00000000E+00  0.00000000E+00  0.00000000E+00  0.00000000E+00
  0.00000000E+00  0.00000000E+00  0.00000000E+00  0.00000000E+00  0.00000000E+00
  0.00000000E+00  1.63371661E-01  0.00000000E+00  0.00000000E+00  0.00000000E+00
  0.00000000E+00  0.00000000E+00  0.00000000E+00  0.00000000E+00  0.00000000E+00
 -1.02013725E-01  0.00000000E+00  0.00000000E+00 -4.71143602E-01  0.00000000E+00
  0.00000000E+00 -4.04615523E-01  0.00000000E+00  0.00000000E+00  0.00000000E+00
  2.00416970E-02  0.00000000E+00  0.00000000E+00  0.00000000E+00  0.00000000E+00
  3.91108884E-01  0.00000000E+00  0.00000000E+00  0.00000000E+00  0.00000000E+00
  0.00000000E+00  0.00000000E+00  0.00000000E+00  0.00000000E+00  0.00000000E+00
  0.00000000E+00  0.00000000E+00  0.00000000E+00  0.00000000E+00  0.00000000E+00
  0.00000000E+00  0.00000000E+00  0.00000000E+00  1.63371661E-01  0.00000000E+00
  0.00000000E+00  0.00000000E+00  0.00000000E+00  1.01214575E+00  0.00000000E+00
  0.00000000E+00  0.00000000E+00  0.00000000E+00  0.00000000E+00  0.00000000E+00
  0.00000000E+00  0.00000000E+00  0.00000000E+00  0.00000000E+00  0.00000000E+00
  0.00000000E+00  0.00000000E+00  0.00000000E+00  0.00000000E+00  0.00000000E+00
  0.00000000E+00  0.00000000E+00 -7.72203848E-18  0.00000000E+00  0.00000000E+00
  0.00000000E+00  0.00000000E+00 -8.18975638E-17  0.00000000E+00  0.00000000E+00
  0.00000000E+00  0.00000000E+00  0.00000000E+00  0.00000000E+00  0.00000000E+00
  0.00000000E+00  0.00000000E+00  0.00000000E+00  0.00000000E+00  0.00000000E+00
  0.00000000E+00  0.00000000E+00  0.00000000E+00  0.00000000E+00  0.00000000E+00
 -7.53121970E-18  0.00000000E+00  0.00000000E+00  0.00000000E+00  0.00000000E+00
  4.69761791E-02  5.57441038E-01  1.51476171E+00  1.40564555E+00  0.00000000E+00
  0.00000000E+00  1.79085929E-02  0.00000000E+00  0.00000000E+00  2.99929045E-01
  0.00000000E+00  0.00000000E+00  9.79804256E-01 -1.13516434E-01  0.00000000E+00
  0.00000000E+00 -7.72203848E-18  0.00000000E+00 -6.80210772E-01  0.00000000E+00
  0.00000000E+00 -8.18975638E-17  0.00000000E+00  7.11458243E-02  7.42108557E-01
  1.75593236E+00  1.47280833E+00  0.00000000E+00  0.00000000E+00  0.00000000E+00
  0.00000000E+00  0.00000000E+00  0.00000000E+00  0.00000000E+00  0.00000000E+00
  0.00000000E+00 -1.88645345E-01  0.00000000E+00  0.00000000E+00 -7.53121970E-18
  0.00000000E+00 -1.16872524E+00  0.00000000E+00  0.00000000E+00 -1.53212036E-17
  0.00000000E+00  0.00000000E+00  0.00000000E+00  0.00000000E+00  0.00000000E+00
  0.00000000E+00  0.00000000E+00  0.00000000E+00  0.00000000E+00  0.00000000E+00
  0.00000000E+00  0.00000000E+00  0.00000000E+00  0.00000000E+00  0.00000000E+00
  0.00000000E+00  0.00000000E+00  0.00000000E+00  1.58524441E-10  0.00000000E+00
  0.00000000E+00  0.00000000E+00  0.00000000E+00  3.25392155E-05  0.00000000E+00
  0.00000000E+00  0.00000000E+00  0.00000000E+00  0.00000000E+00  0.00000000E+00
  0.00000000E+00  0.00000000E+00  0.00000000E+00  0.00000000E+00  0.00000000E+00
  0.00000000E+00  0.00000000E+00  0.00000000E+00  0.00000000E+00  0.00000000E+00
  0.00000000E+00  8.34414898E-07  0.00000000E+00  0.00000000E+00  0.00000000E+00
  0.00000000E+00  7.64710073E-04  0.00000000E+00  0.00000000E+00  0.00000000E+00
  0.00000000E+00  0.00000000E+00  0.00000000E+00  0.00000000E+00  0.00000000E+00
  0.00000000E+00  0.00000000E+00  0.00000000E+00  0.00000000E+00  0.00000000E+00
  0.00000000E+00  0.00000000E+00  0.00000000E+00  0.00000000E+00  0.00000000E+00
  3.57401393E-05  0.00000000E+00  0.00000000E+00  0.00000000E+00  0.00000000E+00
  3.69291007E-03  0.00000000E+00  0.00000000E+00  0.00000000E+00  0.00000000E+00
  0.00000000E+00  0.00000000E+00  0.00000000E+00  0.00000000E+00  0.00000000E+00
  0.00000000E+00  0.00000000E+00  0.00000000E+00  0.00000000E+00  0.00000000E+00
  0.00000000E+00  0.00000000E+00  0.00000000E+00  1.69639873E-03  0.00000000E+00
  0.00000000E+00  0.00000000E+00  0.00000000E+00  3.25880525E-02  0.00000000E+00
  0.00000000E+00  0.00000000E+00  0.00000000E+00  0.00000000E+00  0.00000000E+00
  0.00000000E+00  0.00000000E+00  0.00000000E+00  0.00000000E+00  0.00000000E+00
  0.00000000E+00  0.00000000E+00  0.00000000E+00  0.00000000E+00  0.00000000E+00
  0.00000000E+00  0.00000000E+00  0.00000000E+00  9.83202128E-03  0.00000000E+00
  0.00000000E+00  0.00000000E+00  0.00000000E+00  1.13592725E-01  0.00000000E+00
  0.00000000E+00  0.00000000E+00  0.00000000E+00  0.00000000E+00  0.00000000E+00
  0.00000000E+00  0.00000000E+00  0.00000000E+00  0.00000000E+00  0.00000000E+00
  0.00000000E+00  0.00000000E+00  0.00000000E+00  0.00000000E+00  0.00000000E+00
  0.00000000E+00  4.19501952E-02  0.00000000E+00  0.00000000E+00  0.00000000E+00
  0.00000000E+00  3.49653415E-01  0.00000000E+00  0.00000000E+00  0.00000000E+00
  0.00000000E+00  0.00000000E+00  0.00000000E+00  0.00000000E+00  0.00000000E+00
  0.00000000E+00  0.00000000E+00  0.00000000E+00  0.00000000E+00  0.00000000E+00
  0.00000000E+00  0.00000000E+00  0.00000000E+00  0.00000000E+00  0.00000000E+00
  0.00000000E+00  0.00000000E+00  5.90078480E-02  0.00000000E+00  0.00000000E+00
  0.00000000E+00  0.00000000E+00  6.20111474E-01  0.00000000E+00  0.00000000E+00
  0.00000000E+00  0.00000000E+00  0.00000000E+00  0.00000000E+00  0.00000000E+00
  0.00000000E+00  0.00000000E+00  0.00000000E+00  0.00000000E+00  0.00000000E+00
  0.00000000E+00  0.00000000E+00  0.00000000E+00  0.00000000E+00  0.00000000E+00
  8.64919388E-02  0.00000000E+00  0.00000000E+00  0.00000000E+00  0.00000000E+00
  8.84562685E-01  0.00000000E+00  0.00000000E+00  0.00000000E+00  0.00000000E+00
  0.00000000E+00  0.00000000E+00  0.00000000E+00  0.00000000E+00  0.00000000E+00
  0.00000000E+00  0.00000000E+00  0.00000000E+00  1.77008881E-06  0.00000000E+00
  0.00000000E+00  1.63363703E-03  0.00000000E+00  0.00000000E+00  0.00000000E+00
  0.00000000E+00  0.00000000E+00  0.00000000E+00  0.00000000E+00  0.00000000E+00
  2.42110110E-04  0.00000000E+00  0.00000000E+00  0.00000000E+00  0.00000000E+00
  0.00000000E+00  0.00000000E+00  0.00000000E+00  2.83432474E-08  0.00000000E+00
  0.00000000E+00  1.97340994E-04  0.00000000E+00  0.00000000E+00  7.13419910E-03
  0.00000000E+00  0.00000000E+00  0.00000000E+00  1.61413556E-06  0.00000000E+00
  0.00000000E+00  0.00000000E+00  0.00000000E+00  4.82580115E-03  0.00000000E+00
  0.00000000E+00  0.00000000E+00  0.00000000E+00  0.00000000E+00  0.00000000E+00
  0.00000000E+00  0.00000000E+00  0.00000000E+00  0.00000000E+00  0.00000000E+00
  0.00000000E+00  0.00000000E+00  0.00000000E+00  1.77008881E-06  0.00000000E+00
  0.00000000E+00  1.63363703E-03  0.00000000E+00  0.00000000E+00  0.00000000E+00
  0.00000000E+00  0.00000000E+00  0.00000000E+00  0.00000000E+00  0.00000000E+00
  2.42110110E-04  0.00000000E+00  0.00000000E+00  0.00000000E+00  0.00000000E+00
  0.00000000E+00  0.00000000E+00  0.00000000E+00  2.83432474E-08  0.00000000E+00
  0.00000000E+00  1.97340994E-04  0.00000000E+00  0.00000000E+00  7.13419910E-03
  0.00000000E+00  0.00000000E+00  0.00000000E+00  1.61413556E-06  0.00000000E+00
  0.00000000E+00  0.00000000E+00  0.00000000E+00  4.82580115E-03  0.00000000E+00
  0.00000000E+00  0.00000000E+00  0.00000000E+00  0.00000000E+00  0.00000000E+00
  0.00000000E+00  1.77683014E-01  0.00000000E+00  0.00000000E+00  0.00000000E+00
  0.00000000E+00  0.00000000E+00  0.00000000E+00  0.00000000E+00  0.00000000E+00
  0.00000000E+00  0.00000000E+00  0.00000000E+00  0.00000000E+00  0.00000000E+00
  0.00000000E+00  0.00000000E+00  0.00000000E+00  0.00000000E+00  0.00000000E+00
  0.00000000E+00  0.00000000E+00  0.00000000E+00  0.00000000E+00  0.00000000E+00
 -4.25026276E-05  0.00000000E+00  0.00000000E+00  0.00000000E+00  0.00000000E+00
  0.00000000E+00  0.00000000E+00  0.00000000E+00  0.00000000E+00  0.00000000E+00
  0.00000000E+00  0.00000000E+00  0.00000000E+00  0.00000000E+00  0.00000000E+00
  0.00000000E+00  0.00000000E+00  0.00000000E+00 -1.21260930E-06  0.00000000E+00
  0.00000000E+00  0.00000000E+00  0.00000000E+00 -8.47173337E-04  0.00000000E+00
  0.00000000E+00  0.00000000E+00  0.00000000E+00  0.00000000E+00  0.00000000E+00
  0.00000000E+00  0.00000000E+00  0.00000000E+00  0.00000000E+00  0.00000000E+00
  0.00000000E+00  1.77008881E-06  0.00000000E+00  0.00000000E+00  4.25402195E-04
  0.00000000E+00  0.00000000E+00  2.87476109E-02  0.00000000E+00  0.00000000E+00
  0.00000000E+00  1.93152134E-05  0.00000000E+00  0.00000000E+00  0.00000000E+00
  0.00000000E+00  9.25755026E-03  0.00000000E+00  0.00000000E+00  0.00000000E+00
  0.00000000E+00  0.00000000E+00  0.00000000E+00  0.00000000E+00  1.97340994E-04
  0.00000000E+00  0.00000000E+00  8.60371450E-03  0.00000000E+00  0.00000000E+00
  1.00525642E-01  0.00000000E+00  0.00000000E+00  0.00000000E+00  1.20664238E-03
  0.00000000E+00  0.00000000E+00  0.00000000E+00  0.00000000E+00  7.37246955E-02
  0.00000000E+00  0.00000000E+00  0.00000000E+00  0.00000000E+00  0.00000000E+00
  0.00000000E+00  0.00000000E+00  1.71287901E-01  0.00000000E+00  0.00000000E+00
  0.00000000E+00  0.00000000E+00  0.00000000E+00  0.00000000E+00  1.77008881E-06
  0.00000000E+00  0.00000000E+00  4.25402195E-04  0.00000000E+00  0.00000000E+00
  2.87476109E-02  0.00000000E+00  0.00000000E+00  0.00000000E+00  1.93152134E-05
  0.00000000E+00  0.00000000E+00  0.00000000E+00  0.00000000E+00  9.25755026E-03
  0.00000000E+00  0.00000000E+00  0.00000000E+00  0.00000000E+00  0.00000000E+00
  0.00000000E+00  0.00000000E+00  1.97340994E-04  0.00000000E+00  0.00000000E+00
  8.60371450E-03  0.00000000E+00  0.00000000E+00  1.00525642E-01  0.00000000E+00
  0.00000000E+00  0.00000000E+00  1.20664238E-03  0.00000000E+00  0.00000000E+00
  0.00000000E+00  0.00000000E+00  7.37246955E-02  0.00000000E+00  0.00000000E+00
  0.00000000E+00  0.00000000E+00  0.00000000E+00  0.00000000E+00  0.00000000E+00
  1.71287901E-01  0.00000000E+00  0.00000000E+00  6.44329897E-01  0.00000000E+00
  0.00000000E+00  0.00000000E+00  0.00000000E+00  0.00000000E+00  0.00000000E+00
  0.00000000E+00  0.00000000E+00  0.00000000E+00  0.00000000E+00  0.00000000E+00
  0.00000000E+00  0.00000000E+00  0.00000000E+00  0.00000000E+00  0.00000000E+00
  0.00000000E+00  0.00000000E+00 -5.26190219E-05  0.00000000E+00  0.00000000E+00
  0.00000000E+00  0.00000000E+00 -5.89333741E-03  0.00000000E+00  0.00000000E+00
  0.00000000E+00  0.00000000E+00  0.00000000E+00  0.00000000E+00  0.00000000E+00
  0.00000000E+00  0.00000000E+00  0.00000000E+00  0.00000000E+00  0.00000000E+00
  0.00000000E+00  0.00000000E+00  0.00000000E+00  0.00000000E+00  0.00000000E+00
 -3.28716751E-03  0.00000000E+00  0.00000000E+00  0.00000000E+00  0.00000000E+00
 -4.69329892E-02  0.00000000E+00  0.00000000E+00  0.00000000E+00  0.00000000E+00
  0.00000000E+00  0.00000000E+00  0.00000000E+00  0.00000000E+00  0.00000000E+00
  0.00000000E+00  0.00000000E+00  0.00000000E+00  0.00000000E+00  0.00000000E+00
  0.00000000E+00  1.63363703E-03  0.00000000E+00  0.00000000E+00  2.87476109E-02
  0.00000000E+00  0.00000000E+00  3.57502712E-01  0.00000000E+00  0.00000000E+00
  0.00000000E+00  3.46066807E-03  0.00000000E+00  0.00000000E+00  0.00000000E+00
  0.00000000E+00  1.32266955E-01  0.00000000E+00  0.00000000E+00  0.00000000E+00
  0.00000000E+00  0.00000000E+00  0.00000000E+00  0.00000000E+00  7.13419910E-03
  0.00000000E+00  0.00000000E+00  1.00525642E-01  0.00000000E+00  0.00000000E+00
  7.88096389E-01  0.00000000E+00  0.00000000E+00  0.00000000E+00  1.12339760E-02
  0.00000000E+00  0.00000000E+00  0.00000000E+00  0.00000000E+00  3.10872459E-01
  0.00000000E+00  0.00000000E+00  0.00000000E+00  0.00000000E+00  0.00000000E+00
  0.00000000E+00  0.00000000E+00  5.91902931E-02  0.00000000E+00  0.00000000E+00
  6.06245580E-01  0.00000000E+00  0.00000000E+00  0.00000000E+00  0.00000000E+00
  0.00000000E+00  0.00000000E+00  1.63363703E-03  0.00000000E+00  0.00000000E+00
  2.87476109E-02  0.00000000E+00  0.00000000E+00  3.57502712E-01  0.00000000E+00
  0.00000000E+00  0.00000000E+00  3.46066807E-03  0.00000000E+00  0.00000000E+00
  0.00000000E+00  0.00000000E+00  1.32266955E-01  0.00000000E+00  0.00000000E+00
  0.00000000E+00  0.00000000E+00  0.00000000E+00  0.00000000E+00  0.00000000E+00
  7.13419910E-03  0.00000000E+00  0.00000000E+00  1.00525642E-01  0.00000000E+00
  0.00000000E+00  7.88096389E-01  0.00000000E+00  0.00000000E+00  0.00000000E+00
  1.12339760E-02  0.00000000E+00  0.00000000E+00  0.00000000E+00  0.00000000E+00
  3.10872459E-01  0.00000000E+00  0.00000000E+00  0.00000000E+00  0.00000000E+00
  0.00000000E+00  0.00000000E+00  0.00000000E+00  5.91902931E-02  0.00000000E+00
  0.00000000E+00  6.06245580E-01  0.00000000E+00  0.00000000E+00  2.45098039E+00
  0.00000000E+00  0.00000000E+00  0.00000000E+00  0.00000000E+00  0.00000000E+00
  0.00000000E+00  0.00000000E+00  0.00000000E+00  0.00000000E+00  0.00000000E+00
  0.00000000E+00  0.00000000E+00  0.00000000E+00  0.00000000E+00  0.00000000E+00
  0.00000000E+00  0.00000000E+00  0.00000000E+00 -3.58620210E-02  0.00000000E+00
  0.00000000E+00  0.00000000E+00  0.00000000E+00 -3.20293509E-01  0.00000000E+00
  0.00000000E+00  0.00000000E+00  0.00000000E+00  0.00000000E+00  0.00000000E+00
  0.00000000E+00  0.00000000E+00  0.00000000E+00  0.00000000E+00  0.00000000E+00
  0.00000000E+00  0.00000000E+00  0.00000000E+00  0.00000000E+00  0.00000000E+00
  0.00000000E+00 -1.16414830E-01  0.00000000E+00  0.00000000E+00  0.00000000E+00
  0.00000000E+00 -7.52798994E-01  0.00000000E+00  0.00000000E+00  0.00000000E+00
  0.00000000E+00  0.00000000E+00  0.00000000E+00  0.00000000E+00  0.00000000E+00
  0.00000000E+00  0.00000000E+00  0.00000000E+00  0.00000000E+00  0.00000000E+00
  0.00000000E+00  0.00000000E+00  0.00000000E+00  0.00000000E+00  0.00000000E+00
  0.00000000E+00  0.00000000E+00  0.00000000E+00  0.00000000E+00  0.00000000E+00
  0.00000000E+00  0.00000000E+00  0.00000000E+00  0.00000000E+00  0.00000000E+00
  0.00000000E+00  0.00000000E+00  1.12213814E-08  0.00000000E+00  0.00000000E+00
  0.00000000E+00  0.00000000E+00  7.54604061E-05  0.00000000E+00  0.00000000E+00
  0.00000000E+00  0.00000000E+00  0.00000000E+00  0.00000000E+00  0.00000000E+00
  0.00000000E+00  0.00000000E+00  0.00000000E+00  0.00000000E+00  0.00000000E+00
  0.00000000E+00  0.00000000E+00  0.00000000E+00  0.00000000E+00  0.00000000E+00
  2.29988837E-05  0.00000000E+00  0.00000000E+00  0.00000000E+00  0.00000000E+00
  8.96644969E-05  0.00000000E+00  0.00000000E+00  0.00000000E+00  0.00000000E+00
  0.00000000E+00  0.00000000E+00  0.00000000E+00  0.00000000E+00  0.00000000E+00
  0.00000000E+00  0.00000000E+00  0.00000000E+00  0.00000000E+00  0.00000000E+00
  0.00000000E+00  0.00000000E+00  0.00000000E+00  0.00000000E+00  0.00000000E+00
  0.00000000E+00  0.00000000E+00  0.00000000E+00 -1.93152134E-05  0.00000000E+00
  0.00000000E+00 -3.46066807E-03  0.00000000E+00  0.00000000E+00  0.00000000E+00
 -1.99488442E-08  0.00000000E+00  0.00000000E+00  0.00000000E+00  0.00000000E+00
 -1.20415083E-03  0.00000000E+00  0.00000000E+00  0.00000000E+00  0.00000000E+00
  0.00000000E+00  0.00000000E+00  0.00000000E+00 -1.61413556E-06  0.00000000E+00
  0.00000000E+00 -1.20664238E-03  0.00000000E+00  0.00000000E+00 -1.12339760E-02
  0.00000000E+00  0.00000000E+00  0.00000000E+00 -4.16866918E-05  0.00000000E+00
  0.00000000E+00  0.00000000E+00  0.00000000E+00 -1.50248722E-02  0.00000000E+00
  0.00000000E+00  0.00000000E+00  0.00000000E+00  0.00000000E+00  0.00000000E+00
  0.00000000E+00  0.00000000E+00  0.00000000E+00  0.00000000E+00  0.00000000E+00
  0.00000000E+00  0.00000000E+00  0.00000000E+00  0.00000000E+00  0.00000000E+00
  0.00000000E+00  0.00000000E+00  0.00000000E+00  0.00000000E+00  0.00000000E+00
  0.00000000E+00  0.00000000E+00  0.00000000E+00 -1.93152134E-05  0.00000000E+00
  0.00000000E+00 -3.46066807E-03  0.00000000E+00  0.00000000E+00  0.00000000E+00
 -1.99488442E-08  0.00000000E+00  0.00000000E+00  0.00000000E+00  0.00000000E+00
 -1.20415083E-03  0.00000000E+00  0.00000000E+00  0.00000000E+00  0.00000000E+00
  0.00000000E+00  0.00000000E+00  0.00000000E+00 -1.61413556E-06  0.00000000E+00
  0.00000000E+00 -1.20664238E-03  0.00000000E+00  0.00000000E+00 -1.12339760E-02
  0.00000000E+00  0.00000000E+00  0.00000000E+00 -4.16866918E-05  0.00000000E+00
  0.00000000E+00  0.00000000E+00  0.00000000E+00 -1.50248722E-02  0.00000000E+00
  0.00000000E+00  0.00000000E+00  0.00000000E+00  0.00000000E+00  0.00000000E+00
  0.00000000E+00  0.00000000E+00  0.00000000E+00  0.00000000E+00  0.00000000E+00
  0.00000000E+00  0.00000000E+00  0.00000000E+00  0.00000000E+00  0.00000000E+00
  0.00000000E+00  2.36518448E-01  0.00000000E+00  0.00000000E+00  0.00000000E+00
  0.00000000E+00  0.00000000E+00  0.00000000E+00  0.00000000E+00  0.00000000E+00
  0.00000000E+00  0.00000000E+00  0.00000000E+00  0.00000000E+00  0.00000000E+00
  0.00000000E+00  0.00000000E+00  0.00000000E+00  0.00000000E+00  0.00000000E+00
  1.11718480E-26  0.00000000E+00  0.00000000E+00  0.00000000E+00  0.00000000E+00
  1.04662108E-20  0.00000000E+00  0.00000000E+00  0.00000000E+00  0.00000000E+00
  0.00000000E+00  0.00000000E+00  0.00000000E+00  0.00000000E+00  0.00000000E+00
  0.00000000E+00  0.00000000E+00  0.00000000E+00  0.00000000E+00  0.00000000E+00
  0.00000000E+00  0.00000000E+00  0.00000000E+00  2.07794958E-22  0.00000000E+00
  0.00000000E+00  0.00000000E+00  0.00000000E+00  1.73999921E-19  0.00000000E+00
  0.00000000E+00  0.00000000E+00  0.00000000E+00  0.00000000E+00  0.00000000E+00
  0.00000000E+00  0.00000000E+00  0.00000000E+00  0.00000000E+00  0.00000000E+00
  0.00000000E+00  0.00000000E+00  0.00000000E+00  0.00000000E+00  0.00000000E+00
  0.00000000E+00  1.58524441E-10  3.57401393E-05  9.83202128E-03  5.90078480E-02
  0.00000000E+00  0.00000000E+00  0.00000000E+00  0.00000000E+00  0.00000000E+00
  5.26190219E-05  0.00000000E+00  0.00000000E+00  3.58620210E-02  1.12213814E-08
  0.00000000E+00  0.00000000E+00  1.11718480E-26  0.00000000E+00  3.08734441E-03
  0.00000000E+00  0.00000000E+00  1.04662108E-20  0.00000000E+00  8.34414898E-07
  1.69639873E-03  4.19501952E-02  8.64919388E-02  0.00000000E+00  0.00000000E+00
  1.21260930E-06  0.00000000E+00  0.00000000E+00  3.28716751E-03  0.00000000E+00
  0.00000000E+00  1.16414830E-01  2.29988837E-05  0.00000000E+00  0.00000000E+00
  2.07794958E-22  0.00000000E+00  3.96218794E-02  0.00000000E+00  0.00000000E+00
  1.73999921E-19  0.00000000E+00  1.86621370E-01  4.32246747E-01  3.36623363E-01
  1.49740957E-01  0.00000000E+00  0.00000000E+00  0.00000000E+00  0.00000000E+00
  0.00000000E+00  0.00000000E+00  0.00000000E+00  0.00000000E+00  0.00000000E+00
 -2.73107980E-01  0.00000000E+00  0.00000000E+00 -1.36344984E-17  0.00000000E+00
  0.00000000E+00  0.00000000E+00  0.00000000E+00  0.00000000E+00  0.00000000E+00
  0.00000000E+00  0.00000000E+00  0.00000000E+00  0.00000000E+00  0.00000000E+00
  0.00000000E+00  0.00000000E+00  0.00000000E+00  0.00000000E+00  0.00000000E+00
  0.00000000E+00  0.00000000E+00  3.08734441E-03  0.00000000E+00  0.00000000E+00
  0.00000000E+00  0.00000000E+00  4.04412681E-02  0.00000000E+00  0.00000000E+00
  0.00000000E+00  0.00000000E+00  0.00000000E+00  0.00000000E+00  0.00000000E+00
  0.00000000E+00  0.00000000E+00  0.00000000E+00  0.00000000E+00  0.00000000E+00
  0.00000000E+00  0.00000000E+00  0.00000000E+00  0.00000000E+00  0.00000000E+00
  3.96218794E-02  0.00000000E+00  0.00000000E+00  0.00000000E+00  0.00000000E+00
  1.30885940E-01  0.00000000E+00  0.00000000E+00  0.00000000E+00  0.00000000E+00
  0.00000000E+00  0.00000000E+00  0.00000000E+00  0.00000000E+00  0.00000000E+00
  0.00000000E+00  0.00000000E+00  0.00000000E+00  0.00000000E+00  0.00000000E+00
  0.00000000E+00  0.00000000E+00  0.00000000E+00 -1.88645345E-01  0.00000000E+00
  0.00000000E+00  0.00000000E+00  0.00000000E+00  0.00000000E+00  0.00000000E+00
 -2.42110110E-04  0.00000000E+00  0.00000000E+00 -9.25755026E-03  0.00000000E+00
  0.00000000E+00 -1.32266955E-01  0.00000000E+00  0.00000000E+00  0.00000000E+00
 -1.20415083E-03  0.00000000E+00  0.00000000E+00  0.00000000E+00  0.00000000E+00
 -7.96108953E-02  0.00000000E+00  0.00000000E+00  0.00000000E+00  0.00000000E+00
  0.00000000E+00  0.00000000E+00  0.00000000E+00 -4.82580115E-03  0.00000000E+00
  0.00000000E+00 -7.37246955E-02  0.00000000E+00  0.00000000E+00 -3.10872459E-01
  0.00000000E+00  0.00000000E+00  0.00000000E+00 -1.50248722E-02  0.00000000E+00
  0.00000000E+00  0.00000000E+00  0.00000000E+00 -2.91563001E-01  0.00000000E+00
  0.00000000E+00  0.00000000E+00  0.00000000E+00  0.00000000E+00  0.00000000E+00
  0.00000000E+00  0.00000000E+00  0.00000000E+00  0.00000000E+00  0.00000000E+00
  0.00000000E+00  0.00000000E+00  0.00000000E+00  0.00000000E+00  0.00000000E+00
  0.00000000E+00  1.63371661E-01  0.00000000E+00  0.00000000E+00  0.00000000E+00
  0.00000000E+00  0.00000000E+00  0.00000000E+00  0.00000000E+00  0.00000000E+00
 -2.42110110E-04  0.00000000E+00  0.00000000E+00 -9.25755026E-03  0.00000000E+00
  0.00000000E+00 -1.32266955E-01  0.00000000E+00  0.00000000E+00  0.00000000E+00
 -1.20415083E-03  0.00000000E+00  0.00000000E+00  0.00000000E+00  0.00000000E+00
 -7.96108953E-02  0.00000000E+00  0.00000000E+00  0.00000000E+00  0.00000000E+00
  0.00000000E+00  0.00000000E+00  0.00000000E+00 -4.82580115E-03  0.00000000E+00
  0.00000000E+00 -7.37246955E-02  0.00000000E+00  0.00000000E+00 -3.10872459E-01
  0.00000000E+00  0.00000000E+00  0.00000000E+00 -1.50248722E-02  0.00000000E+00
  0.00000000E+00  0.00000000E+00  0.00000000E+00 -2.91563001E-01  0.00000000E+00
  0.00000000E+00  0.00000000E+00  0.00000000E+00  0.00000000E+00  0.00000000E+00
  0.00000000E+00  0.00000000E+00  0.00000000E+00  0.00000000E+00  0.00000000E+00
  0.00000000E+00  0.00000000E+00  0.00000000E+00  0.00000000E+00  0.00000000E+00
  0.00000000E+00  1.63371661E-01  0.00000000E+00  0.00000000E+00  0.00000000E+00
  0.00000000E+00  1.01214575E+00  0.00000000E+00  0.00000000E+00  0.00000000E+00
  0.00000000E+00  0.00000000E+00  0.00000000E+00  0.00000000E+00  0.00000000E+00
  0.00000000E+00  0.00000000E+00  0.00000000E+00  0.00000000E+00  0.00000000E+00
  0.00000000E+00  0.00000000E+00  0.00000000E+00  0.00000000E+00  0.00000000E+00
  1.04662108E-20  0.00000000E+00  0.00000000E+00  0.00000000E+00  0.00000000E+00
 -6.23486159E-19  0.00000000E+00  0.00000000E+00  0.00000000E+00  0.00000000E+00
  0.00000000E+00  0.00000000E+00  0.00000000E+00  0.00000000E+00  0.00000000E+00
  0.00000000E+00  0.00000000E+00  0.00000000E+00  0.00000000E+00  0.00000000E+00
  0.00000000E+00  0.00000000E+00  0.00000000E+00  1.73999921E-19  0.00000000E+00
  0.00000000E+00  0.00000000E+00  0.00000000E+00 -4.89195710E-18  0.00000000E+00
  0.00000000E+00  0.00000000E+00  0.00000000E+00  0.00000000E+00  0.00000000E+00
  0.00000000E+00  0.00000000E+00  0.00000000E+00  0.00000000E+00  0.00000000E+00
  0.00000000E+00  0.00000000E+00  0.00000000E+00  0.00000000E+00  0.00000000E+00
  0.00000000E+00 -7.53121970E-18  0.00000000E+00  0.00000000E+00  0.00000000E+00
  0.00000000E+00  3.25392155E-05  3.69291007E-03  1.13592725E-01  6.20111474E-01
  0.00000000E+00  0.00000000E+00  4.25026276E-05  0.00000000E+00  0.00000000E+00
  5.89333741E-03  0.00000000E+00  0.00000000E+00  3.20293509E-01  7.54604061E-05
  0.00000000E+00  0.00000000E+00  1.04662108E-20  0.00000000E+00  4.04412681E-02
  0.00000000E+00  0.00000000E+00 -6.23486159E-19  0.00000000E+00  7.64710073E-04
  3.25880525E-02  3.49653415E-01  8.84562685E-01  0.00000000E+00  0.00000000E+00
  8.47173337E-04  0.00000000E+00  0.00000000E+00  4.69329892E-02  0.00000000E+00
  0.00000000E+00  7.52798994E-01  8.96644969E-05  0.00000000E+00  0.00000000E+00
  1.73999921E-19  0.00000000E+00  1.30885940E-01  0.00000000E+00  0.00000000E+00
 -4.89195710E-18  0.00000000E+00  7.11458243E-02  7.42108557E-01  1.75593236E+00
  1.47280833E+00  0.00000000E+00  0.00000000E+00  0.00000000E+00  0.00000000E+00
  0.00000000E+00  0.00000000E+00  0.00000000E+00  0.00000000E+00  0.00000000E+00
 -1.88645345E-01  0.00000000E+00  0.00000000E+00 -7.53121970E-18  0.00000000E+00
 -1.16872524E+00  0.00000000E+00  0.00000000E+00 -1.53212036E-17  0.00000000E+00
Multipole Matrix (0,2,0)                   R   N=        2415
  1.76393444E-01  2.21880681E-01  7.67341928E-01  1.39282807E-01  9.20511195E-01
  2.43427459E+00  5.68664226E-02  5.29175765E-01  2.77544267E+00  9.89707047E+00
  0.00000000E+00  0.00000000E+00  0.00000000E+00  0.00000000E+00  1.77683014E-01
  0.00000000E+00  0.00000000E+00  0.00000000E+00  0.00000000E+00  0.00000000E+00
  5.33049041E-01  0.00000000E+00  0.00000000E+00  0.00000000E+00  0.00000000E+00
  0.00000000E+00  0.00000000E+00  1.77683014E-01  0.00000000E+00  0.00000000E+00
  0.00000000E+00  0.00000000E+00  1.71287901E-01  0.00000000E+00  0.00000000E+00
  6.44329897E-01  0.00000000E+00  0.00000000E+00  0.00000000E+00  0.00000000E+00
  0.00000000E+00  5.13863703E-01  0.00000000E+00  0.00000000E+00  1.93298969E+00
  0.00000000E+00  0.00000000E+00  0.00000000E+00  0.00000000E+00  0.00000000E+00
  0.00000000E+00  1.71287901E-01  0.00000000E+00  0.00000000E+00  6.44329897E-01
  0.00000000E+00  0.00000000E+00  0.00000000E+00  0.00000000E+00  5.91902931E-02
  0.00000000E+00  0.00000000E+00  6.06245580E-01  0.00000000E+00  0.00000000E+00
  2.45098039E+00  0.00000000E+00  0.00000000E+00  0.00000000E+00  0.00000000E+00
  0.00000000E+00  1.77570879E-01  0.00000000E+00  0.00000000E+00  1.81873674E+00
  0.00000000E+00  0.00000000E+00  7.35294118E+00  0.00000000E+00  0.00000000E+00
  0.00000000E+00  0.00000000E+00  0.00000000E+00  0.00000000E+00  5.91902931E-02
  0.00000000E+00  0.00000000E+00  6.06245580E-01  0.00000000E+00  0.00000000E+00
  2.45098039E+00 -1.07745898E-01 -2.49557776E-01 -1.94349589E-01 -8.64529820E-02
  0.00000000E+00  0.00000000E+00  0.00000000E+00  0.00000000E+00  0.00000000E+00
  0.00000000E+00  0.00000000E+00  0.00000000E+00  0.00000000E+00  3.94197414E-01
  0.00000000E+00  0.00000000E+00  0.00000000E+00  0.00000000E+00  0.00000000E+00
  0.00000000E+00  0.00000000E+00  0.00000000E+00  0.00000000E+00  0.00000000E+00
  0.00000000E+00  0.00000000E+00  0.00000000E+00  0.00000000E+00  2.36518448E-01
  0.00000000E+00  0.00000000E+00  0.00000000E+00  0.00000000E+00  0.00000000E+00
  0.00000000E+00  0.00000000E+00  0.00000000E+00  0.00000000E+00  0.00000000E+00
  0.00000000E+00  0.00000000E+00  0.00000000E+00  0.00000000E+00  0.00000000E+00
  7.09555345E-01 -1.86621370E-01 -4.32246747E-01 -3.36623363E-01 -1.49740957E-01
  0.00000000E+00  0.00000000E+00  0.00000000E+00  0.00000000E+00  0.00000000E+00
  0.00000000E+00  0.00000000E+00  0.00000000E+00  0.00000000E+00  2.73107980E-01
  0.00000000E+00  0.00000000E+00  7.09555345E-01  0.00000000E+00  0.00000000E+00
  0.00000000E+00  0.00000000E+00  0.00000000E+00  0.00000000E+00  0.00000000E+00
  0.00000000E+00  0.00000000E+00  0.00000000E+00  0.00000000E+00  0.00000000E+00
  0.00000000E+00  0.00000000E+00  0.00000000E+00  0.00000000E+00  0.00000000E+00
  7.09555345E-01 -4.10760608E-02 -4.28456575E-01 -1.01378802E+00 -8.50326284E-01
  0.00000000E+00  0.00000000E+00  0.00000000E+00  0.00000000E+00  0.00000000E+00
  0.00000000E+00  0.00000000E+00  0.00000000E+00  0.00000000E+00  2.72286101E-01
  0.00000000E+00  0.00000000E+00  1.88645345E-01  0.00000000E+00  1.68690958E+00
  0.00000000E+00  0.00000000E+00  0.00000000E+00  0.00000000E+00  0.00000000E+00
  0.00000000E+00  0.00000000E+00  0.00000000E+00  0.00000000E+00  0.00000000E+00
  0.00000000E+00  0.00000000E+00  0.00000000E+00  0.00000000E+00  1.63371661E-01
  0.00000000E+00  0.00000000E+00  0.00000000E+00  0.00000000E+00  1.01214575E+00
  0.00000000E+00  0.00000000E+00  0.00000000E+00  0.00000000E+00  0.00000000E+00
  0.00000000E+00  0.00000000E+00  0.00000000E+00  0.00000000E+00  0.00000000E+00
  0.00000000E+00  0.00000000E+00  0.00000000E+00  0.00000000E+00  0.00000000E+00
  4.90114982E-01  0.00000000E+00  0.00000000E+00  0.00000000E+00  0.00000000E+00
  3.03643725E+00 -7.11458243E-02 -7.42108557E-01 -1.75593236E+00 -1.47280833E+00
  0.00000000E+00  0.00000000E+00  0.00000000E+00  0.00000000E+00  0.00000000E+00
  0.00000000E+00  0.00000000E+00  0.00000000E+00  0.00000000E+00  1.88645345E-01
  0.00000000E+00  0.00000000E+00  4.90114982E-01  0.00000000E+00  1.16872524E+00
  0.00000000E+00  0.00000000E+00  3.03643725E+00  0.00000000E+00  0.00000000E+00
  0.00000000E+00  0.00000000E+00  0.00000000E+00  0.00000000E+00  0.00000000E+00
  0.00000000E+00  0.00000000E+00  0.00000000E+00  0.00000000E+00  0.00000000E+00
  0.00000000E+00  0.00000000E+00  0.00000000E+00  0.00000000E+00  0.00000000E+00
  4.90114982E-01  0.00000000E+00  0.00000000E+00  0.00000000E+00  0.00000000E+00
  3.03643725E+00  5.07390008E-02  1.31835277E-01  1.14905760E-01  5.40732862E-02
  0.00000000E+00  0.00000000E+00  7.21977834E-02  0.00000000E+00  0.00000000E+00
  1.68908199E-01  0.00000000E+00  0.00000000E+00  9.61503559E-02  5.59015051E-02
  0.00000000E+00  0.00000000E+00 -5.99842961E-02  0.00000000E+00  8.09948657E-02
  0.00000000E+00  0.00000000E+00 -4.69761791E-02  0.00000000E+00  1.76393444E-01
  1.31835277E-01  5.50678144E-01  7.85162425E-01  5.04503550E-01  0.00000000E+00
  0.00000000E+00  7.40329391E-02  0.00000000E+00  0.00000000E+00  3.94048721E-01
  0.00000000E+00  0.00000000E+00  5.44968867E-01 -1.03286651E-01  0.00000000E+00
  0.00000000E+00 -2.60284223E-01  0.00000000E+00 -7.88986464E-02  0.00000000E+00
  0.00000000E+00 -5.57441038E-01  0.00000000E+00  2.21880681E-01  7.67341928E-01
  1.14905760E-01  7.85162425E-01  2.19254536E+00  2.66317414E+00  0.00000000E+00
  0.00000000E+00  2.24309253E-02  0.00000000E+00  0.00000000E+00  2.35837684E-01
  0.00000000E+00  0.00000000E+00  1.00654047E+00 -1.54664747E-01  0.00000000E+00
  0.00000000E+00 -2.78193529E-01  0.00000000E+00 -7.67101976E-01  0.00000000E+00
  0.00000000E+00 -1.51476171E+00  0.00000000E+00  1.39282807E-01  9.20511195E-01
  2.43427459E+00  5.40732862E-02  5.04503550E-01  2.66317414E+00  9.64572685E+00
  0.00000000E+00  0.00000000E+00  2.67676944E-03  0.00000000E+00  0.00000000E+00
  4.15479285E-02  0.00000000E+00  0.00000000E+00  4.86059321E-01 -8.20188774E-02
  0.00000000E+00  0.00000000E+00 -1.42402855E-01  0.00000000E+00 -8.03802370E-01
  0.00000000E+00  0.00000000E+00 -1.40564555E+00  0.00000000E+00  5.68664226E-02
  5.29175765E-01  2.77544267E+00  9.89707047E+00  0.00000000E+00  0.00000000E+00
  0.00000000E+00  0.00000000E+00  4.24008033E-02  0.00000000E+00  0.00000000E+00
  9.21957970E-02  0.00000000E+00  0.00000000E+00  4.87670256E-02  0.00000000E+00
  0.00000000E+00  0.00000000E+00  9.69548840E-02  0.00000000E+00  0.00000000E+00
  0.00000000E+00  0.00000000E+00  1.02013725E-01  0.00000000E+00  0.00000000E+00
  0.00000000E+00  0.00000000E+00  0.00000000E+00  0.00000000E+00  0.00000000E+00
  1.77683014E-01  0.00000000E+00  0.00000000E+00  0.00000000E+00  0.00000000E+00
  0.00000000E+00  1.27202410E-01  0.00000000E+00  0.00000000E+00  2.76587391E-01
  0.00000000E+00  0.00000000E+00  1.46301077E-01  0.00000000E+00  0.00000000E+00
  0.00000000E+00  2.90864652E-01  0.00000000E+00  0.00000000E+00  0.00000000E+00
  0.00000000E+00  3.06041176E-01  0.00000000E+00  0.00000000E+00  0.00000000E+00
  0.00000000E+00  0.00000000E+00  0.00000000E+00  0.00000000E+00  5.33049041E-01
 -7.21977834E-02 -7.40329391E-02 -2.24309253E-02 -2.67676944E-03  0.00000000E+00
  0.00000000E+00 -7.91058076E-02  0.00000000E+00  0.00000000E+00 -2.20221145E-02
  0.00000000E+00  0.00000000E+00  2.98743695E-02  1.63805947E-02  0.00000000E+00
  0.00000000E+00  7.28367536E-02  0.00000000E+00  7.77250028E-02  0.00000000E+00
  0.00000000E+00  1.79085929E-02  0.00000000E+00  0.00000000E+00  0.00000000E+00
  0.00000000E+00  0.00000000E+00  0.00000000E+00  0.00000000E+00  1.77683014E-01
  0.00000000E+00  0.00000000E+00  0.00000000E+00  0.00000000E+00  9.21957970E-02
  0.00000000E+00  0.00000000E+00  4.34018350E-01  0.00000000E+00  0.00000000E+00
  5.14288571E-01  0.00000000E+00  0.00000000E+00  0.00000000E+00  1.13133501E-01
  0.00000000E+00  0.00000000E+00  0.00000000E+00  0.00000000E+00  4.71143602E-01
  0.00000000E+00  0.00000000E+00  0.00000000E+00  0.00000000E+00  0.00000000E+00
  0.00000000E+00  0.00000000E+00  1.71287901E-01  0.00000000E+00  0.00000000E+00
  6.44329897E-01  0.00000000E+00  0.00000000E+00  0.00000000E+00  0.00000000E+00
  0.00000000E+00  2.76587391E-01  0.00000000E+00  0.00000000E+00  1.30205505E+00
  0.00000000E+00  0.00000000E+00  1.54286571E+00  0.00000000E+00  0.00000000E+00
  0.00000000E+00  3.39400503E-01  0.00000000E+00  0.00000000E+00  0.00000000E+00
  0.00000000E+00  1.41343080E+00  0.00000000E+00  0.00000000E+00  0.00000000E+00
  0.00000000E+00  0.00000000E+00  0.00000000E+00  0.00000000E+00  5.13863703E-01
  0.00000000E+00  0.00000000E+00  1.93298969E+00 -1.68908199E-01 -3.94048721E-01
 -2.35837684E-01 -4.15479285E-02  0.00000000E+00  0.00000000E+00 -2.20221145E-02
  0.00000000E+00  0.00000000E+00  9.10361805E-02  0.00000000E+00  0.00000000E+00
  3.45086992E-01  2.33060782E-01  0.00000000E+00  0.00000000E+00  3.08201316E-01
  0.00000000E+00  5.49965751E-01  0.00000000E+00  0.00000000E+00  2.99929045E-01
  0.00000000E+00  0.00000000E+00  0.00000000E+00  0.00000000E+00  0.00000000E+00
  0.00000000E+00  0.00000000E+00  1.71287901E-01  0.00000000E+00  0.00000000E+00
  6.44329897E-01  0.00000000E+00  0.00000000E+00  0.00000000E+00  0.00000000E+00
  4.87670256E-02  0.00000000E+00  0.00000000E+00  5.14288571E-01  0.00000000E+00
  0.00000000E+00  2.20916649E+00  0.00000000E+00  0.00000000E+00  0.00000000E+00
  2.22773973E-02  0.00000000E+00  0.00000000E+00  0.00000000E+00  0.00000000E+00
  4.04615523E-01  0.00000000E+00  0.00000000E+00  0.00000000E+00  0.00000000E+00
  0.00000000E+00  0.00000000E+00  0.00000000E+00  5.91902931E-02  0.00000000E+00
  0.00000000E+00  6.06245580E-01  0.00000000E+00  0.00000000E+00  2.45098039E+00
  0.00000000E+00  0.00000000E+00  0.00000000E+00  0.00000000E+00  0.00000000E+00
  1.46301077E-01  0.00000000E+00  0.00000000E+00  1.54286571E+00  0.00000000E+00
  0.00000000E+00  6.62749946E+00  0.00000000E+00  0.00000000E+00  0.00000000E+00
  6.68321920E-02  0.00000000E+00  0.00000000E+00  0.00000000E+00  0.00000000E+00
  1.21384657E+00  0.00000000E+00  0.00000000E+00  0.00000000E+00  0.00000000E+00
  0.00000000E+00  0.00000000E+00  0.00000000E+00  1.77570879E-01  0.00000000E+00
  0.00000000E+00  1.81873674E+00  0.00000000E+00  0.00000000E+00  7.35294118E+00
 -9.61503559E-02 -5.44968867E-01 -1.00654047E+00 -4.86059321E-01  0.00000000E+00
  0.00000000E+00  2.98743695E-02  0.00000000E+00  0.00000000E+00  3.45086992E-01
  0.00000000E+00  0.00000000E+00  1.75022180E+00  1.54134231E-01  0.00000000E+00
  0.00000000E+00  2.30854990E-01  0.00000000E+00  9.64206563E-01  0.00000000E+00
  0.00000000E+00  9.79804256E-01  0.00000000E+00  0.00000000E+00  0.00000000E+00
  0.00000000E+00  0.00000000E+00  0.00000000E+00  0.00000000E+00  5.91902931E-02
  0.00000000E+00  0.00000000E+00  6.06245580E-01  0.00000000E+00  0.00000000E+00
  2.45098039E+00  5.59015051E-02 -1.03286651E-01 -1.54664747E-01 -8.20188774E-02
  0.00000000E+00  0.00000000E+00 -1.63805947E-02  0.00000000E+00  0.00000000E+00
 -2.33060782E-01  0.00000000E+00  0.00000000E+00 -1.54134231E-01 -8.81944457E-02
  0.00000000E+00  0.00000000E+00 -7.11201355E-03  0.00000000E+00 -4.62813036E-02
  0.00000000E+00  0.00000000E+00  1.13516434E-01  0.00000000E+00 -1.07745898E-01
 -2.49557776E-01 -1.94349589E-01 -8.64529820E-02  0.00000000E+00  0.00000000E+00
  0.00000000E+00  0.00000000E+00  0.00000000E+00  0.00000000E+00  0.00000000E+00
  0.00000000E+00  0.00000000E+00  3.94197414E-01  0.00000000E+00  0.00000000E+00
  0.00000000E+00  0.00000000E+00 -9.69548840E-02  0.00000000E+00  0.00000000E+00
 -1.13133501E-01  0.00000000E+00  0.00000000E+00 -2.22773973E-02  0.00000000E+00
  0.00000000E+00  0.00000000E+00 -9.29280458E-02  0.00000000E+00  0.00000000E+00
  0.00000000E+00  0.00000000E+00  2.00416970E-02  0.00000000E+00  0.00000000E+00
  0.00000000E+00  0.00000000E+00  0.00000000E+00  0.00000000E+00  0.00000000E+00
  0.00000000E+00  0.00000000E+00  0.00000000E+00  0.00000000E+00  0.00000000E+00
  0.00000000E+00  0.00000000E+00  0.00000000E+00  0.00000000E+00  0.00000000E+00
  2.36518448E-01  0.00000000E+00  0.00000000E+00  0.00000000E+00  0.00000000E+00
  0.00000000E+00 -2.90864652E-01  0.00000000E+00  0.00000000E+00 -3.39400503E-01
  0.00000000E+00  0.00000000E+00 -6.68321920E-02  0.00000000E+00  0.00000000E+00
  0.00000000E+00 -2.78784138E-01  0.00000000E+00  0.00000000E+00  0.00000000E+00
  0.00000000E+00  6.01250910E-02  0.00000000E+00  0.00000000E+00  0.00000000E+00
  0.00000000E+00  0.00000000E+00  0.00000000E+00  0.00000000E+00  0.00000000E+00
  0.00000000E+00  0.00000000E+00  0.00000000E+00  0.00000000E+00  0.00000000E+00
  0.00000000E+00  0.00000000E+00  0.00000000E+00  0.00000000E+00  7.09555345E-01
 -5.99842961E-02 -2.60284223E-01 -2.78193529E-01 -1.42402855E-01  0.00000000E+00
  0.00000000E+00 -7.28367536E-02  0.00000000E+00  0.00000000E+00 -3.08201316E-01
  0.00000000E+00  0.00000000E+00 -2.30854990E-01 -7.11201355E-03  0.00000000E+00
  0.00000000E+00  2.41829031E-01  0.00000000E+00 -9.34815757E-02  0.00000000E+00
  0.00000000E+00  3.25987774E-01  0.00000000E+00 -1.86621370E-01 -4.32246747E-01
 -3.36623363E-01 -1.49740957E-01  0.00000000E+00  0.00000000E+00  0.00000000E+00
  0.00000000E+00  0.00000000E+00  0.00000000E+00  0.00000000E+00  0.00000000E+00
  0.00000000E+00  2.73107980E-01  0.00000000E+00  0.00000000E+00  7.09555345E-01
  0.00000000E+00  0.00000000E+00  0.00000000E+00  0.00000000E+00  0.00000000E+00
  0.00000000E+00  0.00000000E+00  0.00000000E+00  0.00000000E+00  0.00000000E+00
  0.00000000E+00  0.00000000E+00  0.00000000E+00  0.00000000E+00  0.00000000E+00
  0.00000000E+00  0.00000000E+00  2.41829031E-01  0.00000000E+00  0.00000000E+00
  0.00000000E+00  0.00000000E+00  3.25987774E-01  0.00000000E+00  0.00000000E+00
  0.00000000E+00  0.00000000E+00  0.00000000E+00  0.00000000E+00  0.00000000E+00
  0.00000000E+00  0.00000000E+00  0.00000000E+00  0.00000000E+00  0.00000000E+00
  0.00000000E+00  0.00000000E+00  0.00000000E+00  0.00000000E+00  0.00000000E+00
  7.09555345E-01  8.09948657E-02 -7.88986464E-02 -7.67101976E-01 -8.03802370E-01
  0.00000000E+00  0.00000000E+00 -7.77250028E-02  0.00000000E+00  0.00000000E+00
 -5.49965751E-01  0.00000000E+00  0.00000000E+00 -9.64206563E-01 -4.62813036E-02
  0.00000000E+00  0.00000000E+00 -9.34815757E-02  0.00000000E+00  5.86263052E-01
  0.00000000E+00  0.00000000E+00  6.80210772E-01  0.00000000E+00 -4.10760608E-02
 -4.28456575E-01 -1.01378802E+00 -8.50326284E-01  0.00000000E+00  0.00000000E+00
  0.00000000E+00  0.00000000E+00  0.00000000E+00  0.00000000E+00  0.00000000E+00
  0.00000000E+00  0.00000000E+00  2.72286101E-01  0.00000000E+00  0.00000000E+00
  1.88645345E-01  0.00000000E+00  1.68690958E+00  0.00000000E+00  0.00000000E+00
  0.00000000E+00  0.00000000E+00 -1.02013725E-01  0.00000000E+00  0.00000000E+00
 -4.71143602E-01  0.00000000E+00  0.00000000E+00 -4.04615523E-01  0.00000000E+00
  0.00000000E+00  0.00000000E+00  2.00416970E-02  0.00000000E+00  0.00000000E+00
  0.00000000E+00  0.00000000E+00  3.91108884E-01  0.00000000E+00  0.00000000E+00
  0.00000000E+00  0.00000000E+00  0.00000000E+00  0.00000000E+00  0.00000000E+00
  0.00000000E+00  0.00000000E+00  0.00000000E+00  0.00000000E+00  0.00000000E+00
  0.00000000E+00  0.00000000E+00  0.00000000E+00  0.00000000E+00  0.00000000E+00
  1.63371661E-01  0.00000000E+00  0.00000000E+00  0.00000000E+00  0.00000000E+00
  1.01214575E+00  0.00000000E+00  0.00000000E+00  0.00000000E+00  0.00000000E+00
  0.00000000E+00 -3.06041176E-01  0.00000000E+00  0.00000000E+00 -1.41343080E+00
  0.00000000E+00  0.00000000E+00 -1.21384657E+00  0.00000000E+00  0.00000000E+00
  0.00000000E+00  6.01250910E-02  0.00000000E+00  0.00000000E+00  0.00000000E+00
  0.00000000E+00  1.17332665E+00  0.00000000E+00  0.00000000E+00  0.00000000E+00
  0.00000000E+00  0.00000000E+00  0.00000000E+00  0.00000000E+00  0.00000000E+00
  0.00000000E+00  0.00000000E+00  0.00000000E+00  0.00000000E+00  0.00000000E+00
  0.00000000E+00  0.00000000E+00  0.00000000E+00  0.00000000E+00  4.90114982E-01
  0.00000000E+00  0.00000000E+00  0.00000000E+00  0.00000000E+00  3.03643725E+00
 -4.69761791E-02 -5.57441038E-01 -1.51476171E+00 -1.40564555E+00  0.00000000E+00
  0.00000000E+00 -1.79085929E-02  0.00000000E+00  0.00000000E+00 -2.99929045E-01
  0.00000000E+00  0.00000000E+00 -9.79804256E-01  1.13516434E-01  0.00000000E+00
  0.00000000E+00  3.25987774E-01  0.00000000E+00  6.80210772E-01  0.00000000E+00
  0.00000000E+00  2.36115220E+00  0.00000000E+00 -7.11458243E-02 -7.42108557E-01
 -1.75593236E+00 -1.47280833E+00  0.00000000E+00  0.00000000E+00  0.00000000E+00
  0.00000000E+00  0.00000000E+00  0.00000000E+00  0.00000000E+00  0.00000000E+00
  0.00000000E+00  1.88645345E-01  0.00000000E+00  0.00000000E+00  4.90114982E-01
  0.00000000E+00  1.16872524E+00  0.00000000E+00  0.00000000E+00  3.03643725E+00
  0.00000000E+00  0.00000000E+00  0.00000000E+00  0.00000000E+00  0.00000000E+00
  0.00000000E+00  0.00000000E+00  0.00000000E+00  0.00000000E+00  0.00000000E+00
  0.00000000E+00  0.00000000E+00  0.00000000E+00  0.00000000E+00  0.00000000E+00
  0.00000000E+00  0.00000000E+00  3.25987774E-01  0.00000000E+00  0.00000000E+00
  0.00000000E+00  0.00000000E+00  2.36115220E+00  0.00000000E+00  0.00000000E+00
  0.00000000E+00  0.00000000E+00  0.00000000E+00  0.00000000E+00  0.00000000E+00
  0.00000000E+00  0.00000000E+00  0.00000000E+00  0.00000000E+00  0.00000000E+00
  0.00000000E+00  0.00000000E+00  0.00000000E+00  0.00000000E+00  0.00000000E+00
  4.90114982E-01  0.00000000E+00  0.00000000E+00  0.00000000E+00  0.00000000E+00
  3.03643725E+00  0.00000000E+00  1.46978583E-05  3.94044900E-03  2.23602362E-02
  0.00000000E+00  0.00000000E+00  0.00000000E+00  0.00000000E+00  0.00000000E+00
  2.19412893E-05  0.00000000E+00  0.00000000E+00  1.44946593E-02  4.09685445E-09
  0.00000000E+00  0.00000000E+00 -1.58524441E-10  0.00000000E+00  1.34675838E-03
  0.00000000E+00  0.00000000E+00 -3.25392155E-05  0.00000000E+00  3.94265678E-07
  7.60558943E-04  1.70323012E-02  3.28043605E-02  0.00000000E+00  0.00000000E+00
  6.03344850E-07  0.00000000E+00  0.00000000E+00  1.53227862E-03  0.00000000E+00
  0.00000000E+00  4.76642816E-02  1.25129899E-05  0.00000000E+00  0.00000000E+00
 -8.34414898E-07  0.00000000E+00  1.85664768E-02  0.00000000E+00  0.00000000E+00
 -7.64710073E-04  0.00000000E+00  1.76393444E-01  1.46978583E-05  1.63875240E-03
  4.82998514E-02  2.18423696E-01  0.00000000E+00  0.00000000E+00  2.51565040E-05
  0.00000000E+00  0.00000000E+00  3.04084236E-03  0.00000000E+00  0.00000000E+00
  1.46426576E-01  9.89435117E-05  0.00000000E+00  0.00000000E+00 -3.57401393E-05
  0.00000000E+00  2.76956455E-02  0.00000000E+00  0.00000000E+00 -3.69291007E-03
  0.00000000E+00  7.60558943E-04  2.04669874E-02  1.62020044E-01  3.14122932E-01
  0.00000000E+00  0.00000000E+00  1.16570526E-03  0.00000000E+00  0.00000000E+00
  3.63316655E-02  0.00000000E+00  0.00000000E+00  3.74725739E-01  2.36577918E-03
  0.00000000E+00  0.00000000E+00 -1.69639873E-03  0.00000000E+00  1.36319756E-01
  0.00000000E+00  0.00000000E+00 -3.25880525E-02  0.00000000E+00  2.21880681E-01
  7.67341928E-01  3.94044900E-03  4.82998514E-02  3.50405890E-01  1.29116334E+00
  0.00000000E+00  0.00000000E+00  3.16532624E-03  0.00000000E+00  0.00000000E+00
  5.58710288E-02  0.00000000E+00  0.00000000E+00  6.96872171E-01 -1.77897974E-03
  0.00000000E+00  0.00000000E+00 -9.83202128E-03  0.00000000E+00  8.37476544E-02
  0.00000000E+00  0.00000000E+00 -1.13592725E-01  0.00000000E+00  1.70323012E-02
  1.62020044E-01  7.76653629E-01  1.76786838E+00  0.00000000E+00  0.00000000E+00
  1.07127708E-02  0.00000000E+00  0.00000000E+00  1.51011864E-01  0.00000000E+00
  0.00000000E+00  1.18256814E+00 -1.44187399E-02  0.00000000E+00  0.00000000E+00
 -4.19501952E-02  0.00000000E+00  6.90429716E-02  0.00000000E+00  0.00000000E+00
 -3.49653415E-01  0.00000000E+00  1.39282807E-01  9.20511195E-01  2.43427459E+00
  2.23602362E-02  2.18423696E-01  1.29116334E+00  6.14410656E+00  0.00000000E+00
  0.00000000E+00  4.75054458E-03  0.00000000E+00  0.00000000E+00  7.66863485E-02
  0.00000000E+00  0.00000000E+00  1.01548152E+00 -3.25518539E-02  0.00000000E+00
  0.00000000E+00 -5.90078480E-02  0.00000000E+00 -2.94677567E-01  0.00000000E+00
  0.00000000E+00 -6.20111474E-01  0.00000000E+00  3.28043605E-02  3.14122932E-01
  1.76786838E+00  7.47267293E+00  0.00000000E+00  0.00000000E+00  5.35769704E-03
  0.00000000E+00  0.00000000E+00  8.50273170E-02  0.00000000E+00  0.00000000E+00
  1.06697741E+00 -4.86261738E-02  0.00000000E+00  0.00000000E+00 -8.64919388E-02
  0.00000000E+00 -4.57447278E-01  0.00000000E+00  0.00000000E+00 -8.84562685E-01
  0.00000000E+00  5.68664226E-02  5.29175765E-01  2.77544267E+00  9.89707047E+00
  0.00000000E+00  0.00000000E+00  0.00000000E+00  0.00000000E+00  0.00000000E+00
  0.00000000E+00  0.00000000E+00  1.77008881E-06  0.00000000E+00  0.00000000E+00
  1.63363703E-03  0.00000000E+00  0.00000000E+00  0.00000000E+00  0.00000000E+00
  0.00000000E+00  0.00000000E+00  0.00000000E+00  0.00000000E+00  2.42110110E-04
  0.00000000E+00  0.00000000E+00  0.00000000E+00  0.00000000E+00  0.00000000E+00
  0.00000000E+00  0.00000000E+00  2.83432474E-08  0.00000000E+00  0.00000000E+00
  1.97340994E-04  0.00000000E+00  0.00000000E+00  7.13419910E-03  0.00000000E+00
  0.00000000E+00  0.00000000E+00  1.61413556E-06  0.00000000E+00  0.00000000E+00
  0.00000000E+00  0.00000000E+00  4.82580115E-03  0.00000000E+00  0.00000000E+00
  0.00000000E+00  0.00000000E+00  0.00000000E+00  0.00000000E+00  0.00000000E+00
  1.77683014E-01  0.00000000E+00  0.00000000E+00  0.00000000E+00  0.00000000E+00
  0.00000000E+00  0.00000000E+00  0.00000000E+00  0.00000000E+00  5.31026643E-06
  0.00000000E+00  0.00000000E+00  4.90091108E-03  0.00000000E+00  0.00000000E+00
  0.00000000E+00  0.00000000E+00  0.00000000E+00  0.00000000E+00  0.00000000E+00
  0.00000000E+00  7.26330329E-04  0.00000000E+00  0.00000000E+00  0.00000000E+00
  0.00000000E+00  0.00000000E+00  0.00000000E+00  0.00000000E+00  8.50297423E-08
  0.00000000E+00  0.00000000E+00  5.92022981E-04  0.00000000E+00  0.00000000E+00
  2.14025973E-02  0.00000000E+00  0.00000000E+00  0.00000000E+00  4.84240668E-06
  0.00000000E+00  0.00000000E+00  0.00000000E+00  0.00000000E+00  1.44774035E-02
  0.00000000E+00  0.00000000E+00  0.00000000E+00  0.00000000E+00  0.00000000E+00
  0.00000000E+00  0.00000000E+00  5.33049041E-01  0.00000000E+00 -2.51565040E-05
 -3.16532624E-03 -4.75054458E-03  0.00000000E+00  0.00000000E+00  0.00000000E+00
  0.00000000E+00  0.00000000E+00 -3.88714028E-05  0.00000000E+00  0.00000000E+00
 -1.00957093E-02  0.00000000E+00  0.00000000E+00  0.00000000E+00  0.00000000E+00
  0.00000000E+00 -1.91317905E-03  0.00000000E+00  0.00000000E+00  4.25026276E-05
  0.00000000E+00 -6.03344850E-07 -1.16570526E-03 -1.07127708E-02 -5.35769704E-03
  0.00000000E+00  0.00000000E+00 -8.58864050E-07  0.00000000E+00  0.00000000E+00
 -2.47314359E-03  0.00000000E+00  0.00000000E+00 -2.30556992E-02 -2.24636536E-05
  0.00000000E+00  0.00000000E+00  1.21260930E-06  0.00000000E+00 -1.99866102E-02
  0.00000000E+00  0.00000000E+00  8.47173337E-04  0.00000000E+00  0.00000000E+00
  0.00000000E+00  0.00000000E+00  0.00000000E+00  0.00000000E+00  0.00000000E+00
  1.77683014E-01  0.00000000E+00  0.00000000E+00  0.00000000E+00  0.00000000E+00
  1.77008881E-06  0.00000000E+00  0.00000000E+00  4.25402195E-04  0.00000000E+00
  0.00000000E+00  2.87476109E-02  0.00000000E+00  0.00000000E+00  0.00000000E+00
  1.93152134E-05  0.00000000E+00  0.00000000E+00  0.00000000E+00  0.00000000E+00
  9.25755026E-03  0.00000000E+00  0.00000000E+00  0.00000000E+00  0.00000000E+00
  0.00000000E+00  0.00000000E+00  0.00000000E+00  1.97340994E-04  0.00000000E+00
  0.00000000E+00  8.60371450E-03  0.00000000E+00  0.00000000E+00  1.00525642E-01
  0.00000000E+00  0.00000000E+00  0.00000000E+00  1.20664238E-03  0.00000000E+00
  0.00000000E+00  0.00000000E+00  0.00000000E+00  7.37246955E-02  0.00000000E+00
  0.00000000E+00  0.00000000E+00  0.00000000E+00  0.00000000E+00  0.00000000E+00
  0.00000000E+00  1.71287901E-01  0.00000000E+00  0.00000000E+00  6.44329897E-01
  0.00000000E+00  0.00000000E+00  0.00000000E+00  0.00000000E+00  0.00000000E+00
  5.31026643E-06  0.00000000E+00  0.00000000E+00  1.27620659E-03  0.00000000E+00
  0.00000000E+00  8.62428326E-02  0.00000000E+00  0.00000000E+00  0.00000000E+00
  5.79456401E-05  0.00000000E+00  0.00000000E+00  0.00000000E+00  0.00000000E+00
  2.77726508E-02  0.00000000E+00  0.00000000E+00  0.00000000E+00  0.00000000E+00
  0.00000000E+00  0.00000000E+00  0.00000000E+00  5.92022981E-04  0.00000000E+00
  0.00000000E+00  2.58111435E-02  0.00000000E+00  0.00000000E+00  3.01576926E-01
  0.00000000E+00  0.00000000E+00  0.00000000E+00  3.61992714E-03  0.00000000E+00
  0.00000000E+00  0.00000000E+00  0.00000000E+00  2.21174087E-01  0.00000000E+00
  0.00000000E+00  0.00000000E+00  0.00000000E+00  0.00000000E+00  0.00000000E+00
  0.00000000E+00  5.13863703E-01  0.00000000E+00  0.00000000E+00  1.93298969E+00
 -2.19412893E-05 -3.04084236E-03 -5.58710288E-02 -7.66863485E-02  0.00000000E+00
  0.00000000E+00 -3.88714028E-05  0.00000000E+00  0.00000000E+00 -5.80497971E-03
  0.00000000E+00  0.00000000E+00 -1.46539825E-01 -1.86258262E-04  0.00000000E+00
  0.00000000E+00  5.26190219E-05  0.00000000E+00 -4.68058641E-02  0.00000000E+00
  0.00000000E+00  5.89333741E-03  0.00000000E+00 -1.53227862E-03 -3.63316655E-02
 -1.51011864E-01 -8.50273170E-02  0.00000000E+00  0.00000000E+00 -2.47314359E-03
  0.00000000E+00  0.00000000E+00 -6.56638386E-02  0.00000000E+00  0.00000000E+00
 -2.60737843E-01 -5.50652330E-03  0.00000000E+00  0.00000000E+00  3.28716751E-03
  0.00000000E+00 -1.73610454E-01  0.00000000E+00  0.00000000E+00  4.69329892E-02
  0.00000000E+00  0.00000000E+00  0.00000000E+00  0.00000000E+00  0.00000000E+00
  0.00000000E+00  0.00000000E+00  1.71287901E-01  0.00000000E+00  0.00000000E+00
  6.44329897E-01  0.00000000E+00  0.00000000E+00  0.00000000E+00  0.00000000E+00
  1.63363703E-03  0.00000000E+00  0.00000000E+00  2.87476109E-02  0.00000000E+00
  0.00000000E+00  3.57502712E-01  0.00000000E+00  0.00000000E+00  0.00000000E+00
  3.46066807E-03  0.00000000E+00  0.00000000E+00  0.00000000E+00  0.00000000E+00
  1.32266955E-01  0.00000000E+00  0.00000000E+00  0.00000000E+00  0.00000000E+00
  0.00000000E+00  0.00000000E+00  0.00000000E+00  7.13419910E-03  0.00000000E+00
  0.00000000E+00  1.00525642E-01  0.00000000E+00  0.00000000E+00  7.88096389E-01
  0.00000000E+00  0.00000000E+00  0.00000000E+00  1.12339760E-02  0.00000000E+00
  0.00000000E+00  0.00000000E+00  0.00000000E+00  3.10872459E-01  0.00000000E+00
  0.00000000E+00  0.00000000E+00  0.00000000E+00  0.00000000E+00  0.00000000E+00
  0.00000000E+00  5.91902931E-02  0.00000000E+00  0.00000000E+00  6.06245580E-01
  0.00000000E+00  0.00000000E+00  2.45098039E+00  0.00000000E+00  0.00000000E+00
  0.00000000E+00  0.00000000E+00  0.00000000E+00  4.90091108E-03  0.00000000E+00
  0.00000000E+00  8.62428326E-02  0.00000000E+00  0.00000000E+00  1.07250813E+00
  0.00000000E+00  0.00000000E+00  0.00000000E+00  1.03820042E-02  0.00000000E+00
  0.00000000E+00  0.00000000E+00  0.00000000E+00  3.96800865E-01  0.00000000E+00
  0.00000000E+00  0.00000000E+00  0.00000000E+00  0.00000000E+00  0.00000000E+00
  0.00000000E+00  2.14025973E-02  0.00000000E+00  0.00000000E+00  3.01576926E-01
  0.00000000E+00  0.00000000E+00  2.36428917E+00  0.00000000E+00  0.00000000E+00
  0.00000000E+00  3.37019281E-02  0.00000000E+00  0.00000000E+00  0.00000000E+00
  0.00000000E+00  9.32617377E-01  0.00000000E+00  0.00000000E+00  0.00000000E+00
  0.00000000E+00  0.00000000E+00  0.00000000E+00  0.00000000E+00  1.77570879E-01
  0.00000000E+00  0.00000000E+00  1.81873674E+00  0.00000000E+00  0.00000000E+00
  7.35294118E+00 -1.44946593E-02 -1.46426576E-01 -6.96872171E-01 -1.01548152E+00
  0.00000000E+00  0.00000000E+00 -1.00957093E-02  0.00000000E+00  0.00000000E+00
 -1.46539825E-01  0.00000000E+00  0.00000000E+00 -1.01895454E+00  1.06694778E-02
  0.00000000E+00  0.00000000E+00  3.58620210E-02  0.00000000E+00 -7.85243971E-02
  0.00000000E+00  0.00000000E+00  3.20293509E-01  0.00000000E+00 -4.76642816E-02
 -3.74725739E-01 -1.18256814E+00 -1.06697741E+00  0.00000000E+00  0.00000000E+00
 -2.30556992E-02  0.00000000E+00  0.00000000E+00 -2.60737843E-01  0.00000000E+00
  0.00000000E+00 -1.00028816E+00  5.33382343E-02  0.00000000E+00  0.00000000E+00
  1.16414830E-01  0.00000000E+00  2.17086126E-01  0.00000000E+00  0.00000000E+00
  7.52798994E-01  0.00000000E+00  0.00000000E+00  0.00000000E+00  0.00000000E+00
  0.00000000E+00  0.00000000E+00  0.00000000E+00  5.91902931E-02  0.00000000E+00
  0.00000000E+00  6.06245580E-01  0.00000000E+00  0.00000000E+00  2.45098039E+00
  4.09685445E-09  9.89435117E-05 -1.77897974E-03 -3.25518539E-02  0.00000000E+00
  0.00000000E+00  0.00000000E+00  0.00000000E+00  0.00000000E+00  1.86258262E-04
  0.00000000E+00  0.00000000E+00 -1.06694778E-02  2.32062579E-07  0.00000000E+00
  0.00000000E+00 -1.12213814E-08  0.00000000E+00  2.97983454E-03  0.00000000E+00
  0.00000000E+00 -7.54604061E-05  0.00000000E+00  1.25129899E-05  2.36577918E-03
 -1.44187399E-02 -4.86261738E-02  0.00000000E+00  0.00000000E+00  2.24636536E-05
  0.00000000E+00  0.00000000E+00  5.50652330E-03  0.00000000E+00  0.00000000E+00
 -5.33382343E-02  2.57284946E-04  0.00000000E+00  0.00000000E+00 -2.29988837E-05
  0.00000000E+00  5.39757926E-03  0.00000000E+00  0.00000000E+00 -8.96644969E-05
  0.00000000E+00 -1.07745898E-01 -2.49557776E-01 -1.94349589E-01 -8.64529820E-02
  0.00000000E+00  0.00000000E+00  0.00000000E+00  0.00000000E+00  0.00000000E+00
  0.00000000E+00  0.00000000E+00  0.00000000E+00  0.00000000E+00  3.94197414E-01
  0.00000000E+00  0.00000000E+00  0.00000000E+00  0.00000000E+00  0.00000000E+00
  0.00000000E+00  0.00000000E+00 -1.93152134E-05  0.00000000E+00  0.00000000E+00
 -3.46066807E-03  0.00000000E+00  0.00000000E+00  0.00000000E+00 -1.99488442E-08
  0.00000000E+00  0.00000000E+00  0.00000000E+00  0.00000000E+00 -1.20415083E-03
  0.00000000E+00  0.00000000E+00  0.00000000E+00  0.00000000E+00  0.00000000E+00
  0.00000000E+00  0.00000000E+00 -1.61413556E-06  0.00000000E+00  0.00000000E+00
 -1.20664238E-03  0.00000000E+00  0.00000000E+00 -1.12339760E-02  0.00000000E+00
  0.00000000E+00  0.00000000E+00 -4.16866918E-05  0.00000000E+00  0.00000000E+00
  0.00000000E+00  0.00000000E+00 -1.50248722E-02  0.00000000E+00  0.00000000E+00
  0.00000000E+00  0.00000000E+00  0.00000000E+00  0.00000000E+00  0.00000000E+00
  0.00000000E+00  0.00000000E+00  0.00000000E+00  0.00000000E+00  0.00000000E+00
  0.00000000E+00  0.00000000E+00  0.00000000E+00  0.00000000E+00  0.00000000E+00
  2.36518448E-01  0.00000000E+00  0.00000000E+00  0.00000000E+00  0.00000000E+00
  0.00000000E+00  0.00000000E+00  0.00000000E+00  0.00000000E+00 -5.79456401E-05
  0.00000000E+00  0.00000000E+00 -1.03820042E-02  0.00000000E+00  0.00000000E+00
  0.00000000E+00 -5.98465326E-08  0.00000000E+00  0.00000000E+00  0.00000000E+00
  0.00000000E+00 -3.61245248E-03  0.00000000E+00  0.00000000E+00  0.00000000E+00
  0.00000000E+00  0.00000000E+00  0.00000000E+00  0.00000000E+00 -4.84240668E-06
  0.00000000E+00  0.00000000E+00 -3.61992714E-03  0.00000000E+00  0.00000000E+00
 -3.37019281E-02  0.00000000E+00  0.00000000E+00  0.00000000E+00 -1.25060075E-04
  0.00000000E+00  0.00000000E+00  0.00000000E+00  0.00000000E+00 -4.50746166E-02
  0.00000000E+00  0.00000000E+00  0.00000000E+00  0.00000000E+00  0.00000000E+00
  0.00000000E+00  0.00000000E+00  0.00000000E+00  0.00000000E+00  0.00000000E+00
  0.00000000E+00  0.00000000E+00  0.00000000E+00  0.00000000E+00  0.00000000E+00
  0.00000000E+00  0.00000000E+00  7.09555345E-01 -1.58524441E-10 -3.57401393E-05
 -9.83202128E-03 -5.90078480E-02  0.00000000E+00  0.00000000E+00  0.00000000E+00
  0.00000000E+00  0.00000000E+00 -5.26190219E-05  0.00000000E+00  0.00000000E+00
 -3.58620210E-02 -1.12213814E-08  0.00000000E+00  0.00000000E+00  1.53852466E-09
  0.00000000E+00 -3.08734441E-03  0.00000000E+00  0.00000000E+00  2.55930410E-04
  0.00000000E+00 -8.34414898E-07 -1.69639873E-03 -4.19501952E-02 -8.64919388E-02
  0.00000000E+00  0.00000000E+00 -1.21260930E-06  0.00000000E+00  0.00000000E+00
 -3.28716751E-03  0.00000000E+00  0.00000000E+00 -1.16414830E-01 -2.29988837E-05
  0.00000000E+00  0.00000000E+00  5.55437023E-06  0.00000000E+00 -3.96218794E-02
  0.00000000E+00  0.00000000E+00  5.69949813E-03  0.00000000E+00 -1.86621370E-01
 -4.32246747E-01 -3.36623363E-01 -1.49740957E-01  0.00000000E+00  0.00000000E+00
  0.00000000E+00  0.00000000E+00  0.00000000E+00  0.00000000E+00  0.00000000E+00
  0.00000000E+00  0.00000000E+00  2.73107980E-01  0.00000000E+00  0.00000000E+00
  7.09555345E-01  0.00000000E+00  0.00000000E+00  0.00000000E+00  0.00000000E+00
  0.00000000E+00  0.00000000E+00  0.00000000E+00  0.00000000E+00  0.00000000E+00
  0.00000000E+00  0.00000000E+00  0.00000000E+00  0.00000000E+00  0.00000000E+00
  0.00000000E+00  0.00000000E+00  0.00000000E+00  1.53852466E-09  0.00000000E+00
  0.00000000E+00  0.00000000E+00  0.00000000E+00  2.55930410E-04  0.00000000E+00
  0.00000000E+00  0.00000000E+00  0.00000000E+00  0.00000000E+00  0.00000000E+00
  0.00000000E+00  0.00000000E+00  0.00000000E+00  0.00000000E+00  0.00000000E+00
  0.00000000E+00  0.00000000E+00  0.00000000E+00  0.00000000E+00  0.00000000E+00
  0.00000000E+00  5.55437023E-06  0.00000000E+00  0.00000000E+00  0.00000000E+00
  0.00000000E+00  5.69949813E-03  0.00000000E+00  0.00000000E+00  0.00000000E+00
  0.00000000E+00  0.00000000E+00  0.00000000E+00  0.00000000E+00  0.00000000E+00
  0.00000000E+00  0.00000000E+00  0.00000000E+00  0.00000000E+00  0.00000000E+00
  0.00000000E+00  0.00000000E+00  0.00000000E+00  0.00000000E+00  7.09555345E-01
  1.34675838E-03  2.76956455E-02  8.37476544E-02 -2.94677567E-01  0.00000000E+00
  0.00000000E+00  1.91317905E-03  0.00000000E+00  0.00000000E+00  4.68058641E-02
  0.00000000E+00  0.00000000E+00  7.85243971E-02  2.97983454E-03  0.00000000E+00
  0.00000000E+00 -3.08734441E-03  0.00000000E+00  1.14733249E-01  0.00000000E+00
  0.00000000E+00 -4.04412681E-02  0.00000000E+00  1.85664768E-02  1.36319756E-01
  6.90429716E-02 -4.57447278E-01  0.00000000E+00  0.00000000E+00  1.99866102E-02
  0.00000000E+00  0.00000000E+00  1.73610454E-01  0.00000000E+00  0.00000000E+00
 -2.17086126E-01  5.39757926E-03  0.00000000E+00  0.00000000E+00 -3.96218794E-02
  0.00000000E+00  4.81209988E-02  0.00000000E+00  0.00000000E+00 -1.30885940E-01
  0.00000000E+00 -4.10760608E-02 -4.28456575E-01 -1.01378802E+00 -8.50326284E-01
  0.00000000E+00  0.00000000E+00  0.00000000E+00  0.00000000E+00  0.00000000E+00
  0.00000000E+00  0.00000000E+00  0.00000000E+00  0.00000000E+00  2.72286101E-01
  0.00000000E+00  0.00000000E+00  1.88645345E-01  0.00000000E+00  1.68690958E+00
  0.00000000E+00  0.00000000E+00  0.00000000E+00  0.00000000E+00 -2.42110110E-04
  0.00000000E+00  0.00000000E+00 -9.25755026E-03  0.00000000E+00  0.00000000E+00
 -1.32266955E-01  0.00000000E+00  0.00000000E+00  0.00000000E+00 -1.20415083E-03
  0.00000000E+00  0.00000000E+00  0.00000000E+00  0.00000000E+00 -7.96108953E-02
  0.00000000E+00  0.00000000E+00  0.00000000E+00  0.00000000E+00  0.00000000E+00
  0.00000000E+00  0.00000000E+00 -4.82580115E-03  0.00000000E+00  0.00000000E+00
 -7.37246955E-02  0.00000000E+00  0.00000000E+00 -3.10872459E-01  0.00000000E+00
  0.00000000E+00  0.00000000E+00 -1.50248722E-02  0.00000000E+00  0.00000000E+00
  0.00000000E+00  0.00000000E+00 -2.91563001E-01  0.00000000E+00  0.00000000E+00
  0.00000000E+00  0.00000000E+00  0.00000000E+00  0.00000000E+00  0.00000000E+00
  0.00000000E+00  0.00000000E+00  0.00000000E+00  0.00000000E+00  0.00000000E+00
  0.00000000E+00  0.00000000E+00  0.00000000E+00  0.00000000E+00  0.00000000E+00
  1.63371661E-01  0.00000000E+00  0.00000000E+00  0.00000000E+00  0.00000000E+00
  1.01214575E+00  0.00000000E+00  0.00000000E+00  0.00000000E+00  0.00000000E+00
  0.00000000E+00 -7.26330329E-04  0.00000000E+00  0.00000000E+00 -2.77726508E-02
  0.00000000E+00  0.00000000E+00 -3.96800865E-01  0.00000000E+00  0.00000000E+00
  0.00000000E+00 -3.61245248E-03  0.00000000E+00  0.00000000E+00  0.00000000E+00
  0.00000000E+00 -2.38832686E-01  0.00000000E+00  0.00000000E+00  0.00000000E+00
  0.00000000E+00  0.00000000E+00  0.00000000E+00  0.00000000E+00 -1.44774035E-02
  0.00000000E+00  0.00000000E+00 -2.21174087E-01  0.00000000E+00  0.00000000E+00
 -9.32617377E-01  0.00000000E+00  0.00000000E+00  0.00000000E+00 -4.50746166E-02
  0.00000000E+00  0.00000000E+00  0.00000000E+00  0.00000000E+00 -8.74689002E-01
  0.00000000E+00  0.00000000E+00  0.00000000E+00  0.00000000E+00  0.00000000E+00
  0.00000000E+00  0.00000000E+00  0.00000000E+00  0.00000000E+00  0.00000000E+00
  0.00000000E+00  0.00000000E+00  0.00000000E+00  0.00000000E+00  0.00000000E+00
  0.00000000E+00  0.00000000E+00  4.90114982E-01  0.00000000E+00  0.00000000E+00
  0.00000000E+00  0.00000000E+00  3.03643725E+00 -3.25392155E-05 -3.69291007E-03
 -1.13592725E-01 -6.20111474E-01  0.00000000E+00  0.00000000E+00 -4.25026276E-05
  0.00000000E+00  0.00000000E+00 -5.89333741E-03  0.00000000E+00  0.00000000E+00
 -3.20293509E-01 -7.54604061E-05  0.00000000E+00  0.00000000E+00  2.55930410E-04
  0.00000000E+00 -4.04412681E-02  0.00000000E+00  0.00000000E+00  2.86936925E-02
  0.00000000E+00 -7.64710073E-04 -3.25880525E-02 -3.49653415E-01 -8.84562685E-01
  0.00000000E+00  0.00000000E+00 -8.47173337E-04  0.00000000E+00  0.00000000E+00
 -4.69329892E-02  0.00000000E+00  0.00000000E+00 -7.52798994E-01 -8.96644969E-05
  0.00000000E+00  0.00000000E+00  5.69949813E-03  0.00000000E+00 -1.30885940E-01
  0.00000000E+00  0.00000000E+00  1.94585710E-01  0.00000000E+00 -7.11458243E-02
 -7.42108557E-01 -1.75593236E+00 -1.47280833E+00  0.00000000E+00  0.00000000E+00
  0.00000000E+00  0.00000000E+00  0.00000000E+00  0.00000000E+00  0.00000000E+00
  0.00000000E+00  0.00000000E+00  1.88645345E-01  0.00000000E+00  0.00000000E+00
  4.90114982E-01  0.00000000E+00  1.16872524E+00  0.00000000E+00  0.00000000E+00
  3.03643725E+00  0.00000000E+00  0.00000000E+00  0.00000000E+00  0.00000000E+00
  0.00000000E+00  0.00000000E+00  0.00000000E+00  0.00000000E+00  0.00000000E+00
  0.00000000E+00  0.00000000E+00  0.00000000E+00  0.00000000E+00  0.00000000E+00
  0.00000000E+00  0.00000000E+00  0.00000000E+00  2.55930410E-04  0.00000000E+00
  0.00000000E+00  0.00000000E+00  0.00000000E+00  2.86936925E-02  0.00000000E+00
  0.00000000E+00  0.00000000E+00  0.00000000E+00  0.00000000E+00  0.00000000E+00
  0.00000000E+00  0.00000000E+00  0.00000000E+00  0.00000000E+00  0.00000000E+00
  0.00000000E+00  0.00000000E+00  0.00000000E+00  0.00000000E+00  0.00000000E+00
  0.00000000E+00  5.69949813E-03  0.00000000E+00  0.00000000E+00  0.00000000E+00
  0.00000000E+00  1.94585710E-01  0.00000000E+00  0.00000000E+00  0.00000000E+00
  0.00000000E+00  0.00000000E+00  0.00000000E+00  0.00000000E+00  0.00000000E+00
  0.00000000E+00  0.00000000E+00  0.00000000E+00  0.00000000E+00  0.00000000E+00
  0.00000000E+00  0.00000000E+00  0.00000000E+00  0.00000000E+00  4.90114982E-01
  0.00000000E+00  0.00000000E+00  0.00000000E+00  0.00000000E+00  3.03643725E+00
Multipole Matrix (1,0,1)                   R   N=        2415
  0.00000000E+00  0.00000000E+00  0.00000000E+00  0.00000000E+00  0.00000000E+00
  0.00000000E+00  0.00000000E+00  0.00000000E+00  0.00000000E+00  0.00000000E+00
 -5.95582958E-01 -6.74870881E-01 -4.00709532E-01 -1.59642614E-01  0.00000000E+00
  0.00000000E+00  0.00000000E+00  0.00000000E+00  0.00000000E+00  0.00000000E+00
  0.00000000E+00  0.00000000E+00  0.00000000E+00  0.00000000E+00  0.00000000E+00
  1.77683014E-01  0.00000000E+00  0.00000000E+00 -4.06684249E-01 -1.23829028E+00
 -1.32949957E+00 -7.13373701E-01  0.00000000E+00  0.00000000E+00  1.71287901E-01
  0.00000000E+00  0.00000000E+00  0.00000000E+00  0.00000000E+00  0.00000000E+00
  0.00000000E+00  0.00000000E+00  0.00000000E+00  0.00000000E+00  0.00000000E+00
  0.00000000E+00  0.00000000E+00  0.00000000E+00  0.00000000E+00  1.71287901E-01
  0.00000000E+00  0.00000000E+00  6.44329897E-01  0.00000000E+00  0.00000000E+00
 -1.26490943E-01 -8.38247816E-01 -2.22661073E+00 -2.55185670E+00  0.00000000E+00
  0.00000000E+00  5.91902931E-02  0.00000000E+00  0.00000000E+00  6.06245580E-01
  0.00000000E+00  0.00000000E+00  0.00000000E+00  0.00000000E+00  0.00000000E+00
  0.00000000E+00  0.00000000E+00  0.00000000E+00  0.00000000E+00  0.00000000E+00
  0.00000000E+00  0.00000000E+00  0.00000000E+00  0.00000000E+00  0.00000000E+00
  0.00000000E+00  0.00000000E+00  5.91902931E-02  0.00000000E+00  0.00000000E+00
  6.06245580E-01  0.00000000E+00  0.00000000E+00  2.45098039E+00  0.00000000E+00
  0.00000000E+00  0.00000000E+00  0.00000000E+00  0.00000000E+00  0.00000000E+00
  3.35147985E-01  0.00000000E+00  0.00000000E+00  4.33624333E-01  0.00000000E+00
  0.00000000E+00  1.76632104E-01  0.00000000E+00  0.00000000E+00  0.00000000E+00
  1.86621370E-01  4.32246747E-01  3.36623363E-01  1.49740957E-01  0.00000000E+00
  0.00000000E+00 -5.80493337E-01  0.00000000E+00  0.00000000E+00 -7.51059376E-01
  0.00000000E+00  0.00000000E+00 -3.05935778E-01  1.36553990E-01  0.00000000E+00
  0.00000000E+00  0.00000000E+00  0.00000000E+00  0.00000000E+00  0.00000000E+00
  0.00000000E+00  0.00000000E+00  0.00000000E+00  0.00000000E+00  0.00000000E+00
  0.00000000E+00  0.00000000E+00  0.00000000E+00  0.00000000E+00  0.00000000E+00
  0.00000000E+00  0.00000000E+00  0.00000000E+00  0.00000000E+00  0.00000000E+00
 -5.80493337E-01  0.00000000E+00  0.00000000E+00 -7.51059376E-01  0.00000000E+00
  0.00000000E+00 -3.05935778E-01  0.00000000E+00  0.00000000E+00  0.00000000E+00
  2.36518448E-01  0.00000000E+00  0.00000000E+00  0.00000000E+00  0.00000000E+00
  0.00000000E+00  0.00000000E+00  0.00000000E+00 -5.80493337E-01  0.00000000E+00
  0.00000000E+00 -7.51059376E-01  0.00000000E+00  0.00000000E+00 -3.05935778E-01
  0.00000000E+00  0.00000000E+00  0.00000000E+00  2.36518448E-01  0.00000000E+00
  0.00000000E+00  0.00000000E+00  0.00000000E+00  0.00000000E+00  0.00000000E+00
  1.06216808E-01  0.00000000E+00  0.00000000E+00  6.05384799E-01  0.00000000E+00
  0.00000000E+00  9.25893666E-01  0.00000000E+00  0.00000000E+00  0.00000000E+00
  9.43226723E-02  0.00000000E+00  0.00000000E+00  0.00000000E+00  0.00000000E+00
  7.11458243E-02  7.42108557E-01  1.75593236E+00  1.47280833E+00  0.00000000E+00
  0.00000000E+00 -1.83972908E-01  0.00000000E+00  0.00000000E+00 -1.04855723E+00
  0.00000000E+00  0.00000000E+00 -1.60369487E+00  9.43226723E-02  0.00000000E+00
  0.00000000E+00  1.63371661E-01  0.00000000E+00  5.84362621E-01  0.00000000E+00
  0.00000000E+00  0.00000000E+00  0.00000000E+00  0.00000000E+00  0.00000000E+00
  0.00000000E+00  0.00000000E+00  0.00000000E+00  0.00000000E+00  0.00000000E+00
  0.00000000E+00  0.00000000E+00  0.00000000E+00  0.00000000E+00  0.00000000E+00
  0.00000000E+00  0.00000000E+00  1.63371661E-01  0.00000000E+00  0.00000000E+00
  0.00000000E+00  0.00000000E+00  0.00000000E+00  0.00000000E+00  0.00000000E+00
 -1.83972908E-01  0.00000000E+00  0.00000000E+00 -1.04855723E+00  0.00000000E+00
  0.00000000E+00 -1.60369487E+00  0.00000000E+00  0.00000000E+00  0.00000000E+00
  1.63371661E-01  0.00000000E+00  0.00000000E+00  0.00000000E+00  0.00000000E+00
  1.01214575E+00  0.00000000E+00  0.00000000E+00  0.00000000E+00  0.00000000E+00
  0.00000000E+00  0.00000000E+00  0.00000000E+00 -1.83972908E-01  0.00000000E+00
  0.00000000E+00 -1.04855723E+00  0.00000000E+00  0.00000000E+00 -1.60369487E+00
  0.00000000E+00  0.00000000E+00  0.00000000E+00  1.63371661E-01  0.00000000E+00
  0.00000000E+00  0.00000000E+00  0.00000000E+00  1.01214575E+00  0.00000000E+00
  0.00000000E+00  0.00000000E+00  0.00000000E+00  0.00000000E+00  0.00000000E+00
 -8.47429940E-02  0.00000000E+00  0.00000000E+00 -5.52290788E-02  0.00000000E+00
  0.00000000E+00 -8.32839841E-03  0.00000000E+00  0.00000000E+00  0.00000000E+00
 -7.58654995E-02  0.00000000E+00  0.00000000E+00  0.00000000E+00  0.00000000E+00
  7.97859892E-03  0.00000000E+00  0.00000000E+00  0.00000000E+00  0.00000000E+00
  0.00000000E+00  0.00000000E+00  0.00000000E+00  0.00000000E+00 -3.19718678E-01
  0.00000000E+00  0.00000000E+00 -4.69278403E-01  0.00000000E+00  0.00000000E+00
 -1.70616404E-01  0.00000000E+00  0.00000000E+00  0.00000000E+00 -3.75975218E-03
  0.00000000E+00  0.00000000E+00  0.00000000E+00  0.00000000E+00  2.38430020E-01
  0.00000000E+00  0.00000000E+00  0.00000000E+00  0.00000000E+00  0.00000000E+00
  0.00000000E+00  0.00000000E+00  0.00000000E+00  0.00000000E+00 -3.07305861E-01
  0.00000000E+00  0.00000000E+00 -8.90993393E-01  0.00000000E+00  0.00000000E+00
 -9.99679926E-01  0.00000000E+00  0.00000000E+00  0.00000000E+00  1.72119633E-01
  0.00000000E+00  0.00000000E+00  0.00000000E+00  0.00000000E+00  1.06717436E+00
  0.00000000E+00  0.00000000E+00  0.00000000E+00  0.00000000E+00  0.00000000E+00
  0.00000000E+00  0.00000000E+00  0.00000000E+00  0.00000000E+00  0.00000000E+00
 -1.49097965E-01  0.00000000E+00  0.00000000E+00 -6.38186709E-01  0.00000000E+00
  0.00000000E+00 -1.96270985E+00  0.00000000E+00  0.00000000E+00  0.00000000E+00
  1.28092278E-01  0.00000000E+00  0.00000000E+00  0.00000000E+00  0.00000000E+00
  1.27443039E+00  0.00000000E+00  0.00000000E+00  0.00000000E+00  0.00000000E+00
  0.00000000E+00  0.00000000E+00  0.00000000E+00 -7.21977834E-02 -7.40329391E-02
 -2.24309253E-02 -2.67676944E-03  0.00000000E+00  0.00000000E+00 -7.91058076E-02
  0.00000000E+00  0.00000000E+00 -2.20221145E-02  0.00000000E+00  0.00000000E+00
  2.98743695E-02  1.63805947E-02  0.00000000E+00  0.00000000E+00 -7.28367536E-02
  0.00000000E+00  7.77250028E-02  0.00000000E+00  0.00000000E+00 -1.79085929E-02
  0.00000000E+00  0.00000000E+00  0.00000000E+00  0.00000000E+00  0.00000000E+00
  0.00000000E+00  0.00000000E+00  0.00000000E+00  0.00000000E+00  0.00000000E+00
  0.00000000E+00  0.00000000E+00  0.00000000E+00  0.00000000E+00  0.00000000E+00
  0.00000000E+00  0.00000000E+00  0.00000000E+00  0.00000000E+00  0.00000000E+00
  0.00000000E+00  0.00000000E+00  0.00000000E+00 -7.28367536E-02  0.00000000E+00
  0.00000000E+00  0.00000000E+00  0.00000000E+00 -1.79085929E-02  0.00000000E+00
  0.00000000E+00  0.00000000E+00  0.00000000E+00  0.00000000E+00  0.00000000E+00
  0.00000000E+00  0.00000000E+00  0.00000000E+00  0.00000000E+00  1.63907414E-01
  0.00000000E+00  0.00000000E+00  1.23692989E-01  0.00000000E+00  0.00000000E+00
  5.01366424E-02  0.00000000E+00  0.00000000E+00  0.00000000E+00  1.30358737E-01
  0.00000000E+00  0.00000000E+00  0.00000000E+00  0.00000000E+00  8.15243009E-02
  0.00000000E+00  0.00000000E+00  0.00000000E+00  0.00000000E+00  0.00000000E+00
  0.00000000E+00  0.00000000E+00  1.77683014E-01  0.00000000E+00  0.00000000E+00
 -1.68908199E-01 -3.94048721E-01 -2.35837684E-01 -4.15479285E-02  0.00000000E+00
  0.00000000E+00 -2.20221145E-02  0.00000000E+00  0.00000000E+00  9.10361805E-02
  0.00000000E+00  0.00000000E+00  3.45086992E-01  2.33060782E-01  0.00000000E+00
  0.00000000E+00 -3.08201316E-01  0.00000000E+00  5.49965751E-01  0.00000000E+00
  0.00000000E+00 -2.99929045E-01  0.00000000E+00  0.00000000E+00  0.00000000E+00
  0.00000000E+00  0.00000000E+00  0.00000000E+00  0.00000000E+00  1.71287901E-01
  0.00000000E+00  0.00000000E+00  0.00000000E+00  0.00000000E+00  0.00000000E+00
  0.00000000E+00  0.00000000E+00  0.00000000E+00  0.00000000E+00  0.00000000E+00
  0.00000000E+00  0.00000000E+00  0.00000000E+00  0.00000000E+00  0.00000000E+00
  0.00000000E+00  0.00000000E+00  0.00000000E+00 -3.08201316E-01  0.00000000E+00
  0.00000000E+00  0.00000000E+00  0.00000000E+00 -2.99929045E-01  0.00000000E+00
  0.00000000E+00  0.00000000E+00  0.00000000E+00  0.00000000E+00  0.00000000E+00
  0.00000000E+00  0.00000000E+00  0.00000000E+00  0.00000000E+00  0.00000000E+00
  0.00000000E+00  0.00000000E+00  5.06382914E-01  0.00000000E+00  0.00000000E+00
  7.77000520E-01  0.00000000E+00  0.00000000E+00  5.58769398E-01  0.00000000E+00
  0.00000000E+00  0.00000000E+00 -1.46953335E-01  0.00000000E+00  0.00000000E+00
  0.00000000E+00  0.00000000E+00  5.56745922E-02  0.00000000E+00  0.00000000E+00
  0.00000000E+00  0.00000000E+00  0.00000000E+00  0.00000000E+00  0.00000000E+00
  1.71287901E-01  0.00000000E+00  0.00000000E+00  6.44329897E-01  0.00000000E+00
  0.00000000E+00 -9.61503559E-02 -5.44968867E-01 -1.00654047E+00 -4.86059321E-01
  0.00000000E+00  0.00000000E+00  2.98743695E-02  0.00000000E+00  0.00000000E+00
  3.45086992E-01  0.00000000E+00  0.00000000E+00  1.75022180E+00  1.54134231E-01
  0.00000000E+00  0.00000000E+00 -2.30854990E-01  0.00000000E+00  9.64206563E-01
  0.00000000E+00  0.00000000E+00 -9.79804256E-01  0.00000000E+00  0.00000000E+00
  0.00000000E+00  0.00000000E+00  0.00000000E+00  0.00000000E+00  0.00000000E+00
  5.91902931E-02  0.00000000E+00  0.00000000E+00  6.06245580E-01  0.00000000E+00
  0.00000000E+00  0.00000000E+00  0.00000000E+00  0.00000000E+00  0.00000000E+00
  0.00000000E+00  0.00000000E+00  0.00000000E+00  0.00000000E+00  0.00000000E+00
  0.00000000E+00  0.00000000E+00  0.00000000E+00  0.00000000E+00  0.00000000E+00
  0.00000000E+00  0.00000000E+00 -2.30854990E-01  0.00000000E+00  0.00000000E+00
  0.00000000E+00  0.00000000E+00 -9.79804256E-01  0.00000000E+00  0.00000000E+00
  0.00000000E+00  0.00000000E+00  0.00000000E+00  0.00000000E+00  0.00000000E+00
  0.00000000E+00  0.00000000E+00  0.00000000E+00  0.00000000E+00  0.00000000E+00
  0.00000000E+00  0.00000000E+00  0.00000000E+00  0.00000000E+00  3.09374546E-01
  0.00000000E+00  0.00000000E+00  1.15791811E+00  0.00000000E+00  0.00000000E+00
  2.66811117E+00  0.00000000E+00  0.00000000E+00  0.00000000E+00 -3.51955818E-01
  0.00000000E+00  0.00000000E+00  0.00000000E+00  0.00000000E+00 -1.26687343E+00
  0.00000000E+00  0.00000000E+00  0.00000000E+00  0.00000000E+00  0.00000000E+00
  0.00000000E+00  0.00000000E+00  5.91902931E-02  0.00000000E+00  0.00000000E+00
  6.06245580E-01  0.00000000E+00  0.00000000E+00  2.45098039E+00  0.00000000E+00
  0.00000000E+00  0.00000000E+00  0.00000000E+00  0.00000000E+00  0.00000000E+00
 -2.39173894E-01  0.00000000E+00  0.00000000E+00 -9.30373190E-02  0.00000000E+00
  0.00000000E+00 -1.33321694E-02  0.00000000E+00  0.00000000E+00  0.00000000E+00
  3.12291692E-02  0.00000000E+00  0.00000000E+00  0.00000000E+00  0.00000000E+00
  3.76889356E-02  0.00000000E+00  0.00000000E+00  0.00000000E+00  0.00000000E+00
  0.00000000E+00  0.00000000E+00  0.00000000E+00  0.00000000E+00  0.00000000E+00
  0.00000000E+00  0.00000000E+00  0.00000000E+00  0.00000000E+00  0.00000000E+00
  0.00000000E+00  0.00000000E+00  0.00000000E+00  2.16792839E-01  3.41670720E-01
  2.88499857E-01  1.42744846E-01  0.00000000E+00  0.00000000E+00  1.17301485E-01
  0.00000000E+00  0.00000000E+00  2.12729517E-01  0.00000000E+00  0.00000000E+00
  1.94741662E-01 -1.38533234E-01  0.00000000E+00  0.00000000E+00  2.54147400E-01
  0.00000000E+00  1.06801582E-01  0.00000000E+00  0.00000000E+00  1.29371542E-01
  0.00000000E+00  1.86621370E-01  4.32246747E-01  3.36623363E-01  1.49740957E-01
  0.00000000E+00  0.00000000E+00  0.00000000E+00  0.00000000E+00  0.00000000E+00
  0.00000000E+00  0.00000000E+00  0.00000000E+00  0.00000000E+00  1.36553990E-01
  0.00000000E+00  0.00000000E+00  0.00000000E+00  0.00000000E+00  0.00000000E+00
  0.00000000E+00  0.00000000E+00  0.00000000E+00  0.00000000E+00  0.00000000E+00
  0.00000000E+00  0.00000000E+00  0.00000000E+00  0.00000000E+00  0.00000000E+00
  0.00000000E+00  0.00000000E+00  0.00000000E+00  2.54147400E-01  0.00000000E+00
  0.00000000E+00  0.00000000E+00  0.00000000E+00  1.29371542E-01  0.00000000E+00
  0.00000000E+00  0.00000000E+00  0.00000000E+00  0.00000000E+00  0.00000000E+00
  0.00000000E+00  0.00000000E+00  0.00000000E+00  0.00000000E+00  0.00000000E+00
  0.00000000E+00  0.00000000E+00  0.00000000E+00  0.00000000E+00  0.00000000E+00
  0.00000000E+00  0.00000000E+00  0.00000000E+00  0.00000000E+00 -9.69548840E-02
  0.00000000E+00  0.00000000E+00 -1.13133501E-01  0.00000000E+00  0.00000000E+00
 -2.22773973E-02  0.00000000E+00  0.00000000E+00  0.00000000E+00 -9.29280458E-02
  0.00000000E+00  0.00000000E+00  0.00000000E+00  0.00000000E+00  2.00416970E-02
  0.00000000E+00  0.00000000E+00  0.00000000E+00  0.00000000E+00  0.00000000E+00
  0.00000000E+00  0.00000000E+00  0.00000000E+00  0.00000000E+00  0.00000000E+00
  0.00000000E+00  0.00000000E+00  0.00000000E+00  0.00000000E+00  0.00000000E+00
  0.00000000E+00  0.00000000E+00  2.36518448E-01  0.00000000E+00  0.00000000E+00
  0.00000000E+00  0.00000000E+00  0.00000000E+00  0.00000000E+00  0.00000000E+00
 -9.69548840E-02  0.00000000E+00  0.00000000E+00 -1.13133501E-01  0.00000000E+00
  0.00000000E+00 -2.22773973E-02  0.00000000E+00  0.00000000E+00  0.00000000E+00
 -9.29280458E-02  0.00000000E+00  0.00000000E+00  0.00000000E+00  0.00000000E+00
  2.00416970E-02  0.00000000E+00  0.00000000E+00  0.00000000E+00  0.00000000E+00
  0.00000000E+00  0.00000000E+00  0.00000000E+00  0.00000000E+00  0.00000000E+00
  0.00000000E+00  0.00000000E+00  0.00000000E+00  0.00000000E+00  0.00000000E+00
  0.00000000E+00  0.00000000E+00  0.00000000E+00  2.36518448E-01  0.00000000E+00
  0.00000000E+00  0.00000000E+00  0.00000000E+00  0.00000000E+00  0.00000000E+00
 -3.46050013E-01  0.00000000E+00  0.00000000E+00 -5.34705234E-01  0.00000000E+00
  0.00000000E+00 -2.61972217E-01  0.00000000E+00  0.00000000E+00  0.00000000E+00
  4.89863609E-01  0.00000000E+00  0.00000000E+00  0.00000000E+00  0.00000000E+00
  7.96597790E-01  0.00000000E+00  0.00000000E+00  0.00000000E+00  0.00000000E+00
  0.00000000E+00  0.00000000E+00  0.00000000E+00  0.00000000E+00  0.00000000E+00
  0.00000000E+00  0.00000000E+00  0.00000000E+00  0.00000000E+00  0.00000000E+00
  0.00000000E+00  0.00000000E+00  0.00000000E+00  9.43226723E-02  0.00000000E+00
  0.00000000E+00  0.00000000E+00  0.00000000E+00  2.34239581E-01  9.78225612E-01
  1.70086381E+00  1.41906456E+00  0.00000000E+00  0.00000000E+00 -9.88064681E-02
  0.00000000E+00  0.00000000E+00 -3.52710532E-01  0.00000000E+00  0.00000000E+00
  2.89553757E-01 -3.07194438E-01  0.00000000E+00  0.00000000E+00  4.87902613E-01
  0.00000000E+00 -3.44984151E-01  0.00000000E+00  0.00000000E+00  1.18299258E+00
  0.00000000E+00  7.11458243E-02  7.42108557E-01  1.75593236E+00  1.47280833E+00
  0.00000000E+00  0.00000000E+00  0.00000000E+00  0.00000000E+00  0.00000000E+00
  0.00000000E+00  0.00000000E+00  0.00000000E+00  0.00000000E+00  9.43226723E-02
  0.00000000E+00  0.00000000E+00  1.63371661E-01  0.00000000E+00  5.84362621E-01
  0.00000000E+00  0.00000000E+00  0.00000000E+00  0.00000000E+00  0.00000000E+00
  0.00000000E+00  0.00000000E+00  0.00000000E+00  0.00000000E+00  0.00000000E+00
  0.00000000E+00  0.00000000E+00  0.00000000E+00  0.00000000E+00  0.00000000E+00
  0.00000000E+00  0.00000000E+00  0.00000000E+00  4.87902613E-01  0.00000000E+00
  0.00000000E+00  0.00000000E+00  0.00000000E+00  1.18299258E+00  0.00000000E+00
  0.00000000E+00  0.00000000E+00  0.00000000E+00  0.00000000E+00  0.00000000E+00
  0.00000000E+00  0.00000000E+00  0.00000000E+00  0.00000000E+00  0.00000000E+00
  0.00000000E+00  0.00000000E+00  0.00000000E+00  0.00000000E+00  0.00000000E+00
  0.00000000E+00  1.63371661E-01  0.00000000E+00  0.00000000E+00  0.00000000E+00
  0.00000000E+00  0.00000000E+00  0.00000000E+00  0.00000000E+00 -1.02013725E-01
  0.00000000E+00  0.00000000E+00 -4.71143602E-01  0.00000000E+00  0.00000000E+00
 -4.04615523E-01  0.00000000E+00  0.00000000E+00  0.00000000E+00  2.00416970E-02
  0.00000000E+00  0.00000000E+00  0.00000000E+00  0.00000000E+00  3.91108884E-01
  0.00000000E+00  0.00000000E+00  0.00000000E+00  0.00000000E+00  0.00000000E+00
  0.00000000E+00  0.00000000E+00  0.00000000E+00  0.00000000E+00  0.00000000E+00
  0.00000000E+00  0.00000000E+00  0.00000000E+00  0.00000000E+00  0.00000000E+00
  0.00000000E+00  0.00000000E+00  1.63371661E-01  0.00000000E+00  0.00000000E+00
  0.00000000E+00  0.00000000E+00  1.01214575E+00  0.00000000E+00  0.00000000E+00
  0.00000000E+00  0.00000000E+00  0.00000000E+00  0.00000000E+00  0.00000000E+00
 -1.02013725E-01  0.00000000E+00  0.00000000E+00 -4.71143602E-01  0.00000000E+00
  0.00000000E+00 -4.04615523E-01  0.00000000E+00  0.00000000E+00  0.00000000E+00
  2.00416970E-02  0.00000000E+00  0.00000000E+00  0.00000000E+00  0.00000000E+00
  3.91108884E-01  0.00000000E+00  0.00000000E+00  0.00000000E+00  0.00000000E+00
  0.00000000E+00  0.00000000E+00  0.00000000E+00  0.00000000E+00  0.00000000E+00
  0.00000000E+00  0.00000000E+00  0.00000000E+00  0.00000000E+00  0.00000000E+00
  0.00000000E+00  0.00000000E+00  0.00000000E+00  1.63371661E-01  0.00000000E+00
  0.00000000E+00  0.00000000E+00  0.00000000E+00  1.01214575E+00  0.00000000E+00
  0.00000000E+00  0.00000000E+00  0.00000000E+00  0.00000000E+00  0.00000000E+00
  0.00000000E+00  0.00000000E+00  0.00000000E+00  1.51417601E-05  0.00000000E+00
  0.00000000E+00  1.08351853E-02  0.00000000E+00  0.00000000E+00  0.00000000E+00
  4.19107129E-09  0.00000000E+00  0.00000000E+00  0.00000000E+00  0.00000000E+00
  1.73211279E-03  0.00000000E+00  0.00000000E+00  0.00000000E+00  0.00000000E+00
  0.00000000E+00  0.00000000E+00  0.00000000E+00  6.03344850E-07  0.00000000E+00
  0.00000000E+00  1.53227862E-03  0.00000000E+00  0.00000000E+00  4.76642816E-02
  0.00000000E+00  0.00000000E+00  0.00000000E+00  2.33419641E-05  0.00000000E+00
  0.00000000E+00  0.00000000E+00  0.00000000E+00  3.36875012E-02  0.00000000E+00
  0.00000000E+00  0.00000000E+00  0.00000000E+00  0.00000000E+00  0.00000000E+00
  0.00000000E+00  0.00000000E+00 -5.92284413E-06  0.00000000E+00  0.00000000E+00
  1.49329616E-03  0.00000000E+00  0.00000000E+00  1.01765019E-01  0.00000000E+00
  0.00000000E+00  0.00000000E+00  3.86606164E-05  0.00000000E+00  0.00000000E+00
  0.00000000E+00  0.00000000E+00  3.42573084E-02  0.00000000E+00  0.00000000E+00
  0.00000000E+00  0.00000000E+00  0.00000000E+00  0.00000000E+00  0.00000000E+00
  1.16570526E-03  0.00000000E+00  0.00000000E+00  3.63316655E-02  0.00000000E+00
  0.00000000E+00  3.74725739E-01  0.00000000E+00  0.00000000E+00  0.00000000E+00
  7.49044720E-03  0.00000000E+00  0.00000000E+00  0.00000000E+00  0.00000000E+00
  3.01288848E-01  0.00000000E+00  0.00000000E+00  0.00000000E+00  0.00000000E+00
  0.00000000E+00  0.00000000E+00  0.00000000E+00  0.00000000E+00  0.00000000E+00
 -7.64311197E-03  0.00000000E+00  0.00000000E+00 -6.13822962E-03  0.00000000E+00
  0.00000000E+00  3.74227293E-01  0.00000000E+00  0.00000000E+00  0.00000000E+00
 -1.12447449E-03  0.00000000E+00  0.00000000E+00  0.00000000E+00  0.00000000E+00
  1.67662878E-01  0.00000000E+00  0.00000000E+00  0.00000000E+00  0.00000000E+00
  0.00000000E+00  0.00000000E+00  0.00000000E+00  1.07127708E-02  0.00000000E+00
  0.00000000E+00  1.51011864E-01  0.00000000E+00  0.00000000E+00  1.18256814E+00
  0.00000000E+00  0.00000000E+00  0.00000000E+00  5.89264002E-02  0.00000000E+00
  0.00000000E+00  0.00000000E+00  0.00000000E+00  8.18892765E-01  0.00000000E+00
  0.00000000E+00  0.00000000E+00  0.00000000E+00  0.00000000E+00  0.00000000E+00
  0.00000000E+00  0.00000000E+00  0.00000000E+00  0.00000000E+00 -5.78180169E-02
  0.00000000E+00  0.00000000E+00 -2.14742365E-01  0.00000000E+00  0.00000000E+00
 -1.72897160E-01  0.00000000E+00  0.00000000E+00  0.00000000E+00  3.54957354E-02
  0.00000000E+00  0.00000000E+00  0.00000000E+00  0.00000000E+00  4.55137865E-01
  0.00000000E+00  0.00000000E+00  0.00000000E+00  0.00000000E+00  0.00000000E+00
  0.00000000E+00  0.00000000E+00  5.35769704E-03  0.00000000E+00  0.00000000E+00
  8.50273170E-02  0.00000000E+00  0.00000000E+00  1.06697741E+00  0.00000000E+00
  0.00000000E+00  0.00000000E+00  8.87608741E-02  0.00000000E+00  0.00000000E+00
  0.00000000E+00  0.00000000E+00  9.76803443E-01  0.00000000E+00  0.00000000E+00
  0.00000000E+00  0.00000000E+00  0.00000000E+00  0.00000000E+00  0.00000000E+00
  0.00000000E+00  7.75615394E-05  3.25568395E-02  2.02040157E-01  0.00000000E+00
  0.00000000E+00  0.00000000E+00  0.00000000E+00  0.00000000E+00  1.05473502E-04
  0.00000000E+00  0.00000000E+00  1.23122002E-01  0.00000000E+00  0.00000000E+00
  0.00000000E+00  0.00000000E+00  0.00000000E+00  9.35945790E-03  0.00000000E+00
  0.00000000E+00  1.75998370E-04  0.00000000E+00  7.32447113E-07  5.03421514E-03
  1.46766003E-01  2.98427543E-01  0.00000000E+00  0.00000000E+00  9.15550544E-07
  0.00000000E+00  0.00000000E+00  9.88128897E-03  0.00000000E+00  0.00000000E+00
  4.23577208E-01  3.42468025E-05  0.00000000E+00  0.00000000E+00  1.61413556E-06
  0.00000000E+00  1.51165328E-01  0.00000000E+00  0.00000000E+00  4.82580115E-03
  0.00000000E+00  1.96841696E+00  2.23046559E+00  1.32435529E+00  5.27622937E-01
  0.00000000E+00  0.00000000E+00  0.00000000E+00  0.00000000E+00  0.00000000E+00
  0.00000000E+00  0.00000000E+00  0.00000000E+00  0.00000000E+00  0.00000000E+00
  0.00000000E+00  0.00000000E+00  0.00000000E+00  0.00000000E+00  0.00000000E+00
  0.00000000E+00  0.00000000E+00  0.00000000E+00  0.00000000E+00  0.00000000E+00
  0.00000000E+00  0.00000000E+00  0.00000000E+00  1.75998370E-04  0.00000000E+00
  0.00000000E+00  0.00000000E+00  0.00000000E+00  0.00000000E+00  0.00000000E+00
  0.00000000E+00  0.00000000E+00  0.00000000E+00  0.00000000E+00  0.00000000E+00
  0.00000000E+00  0.00000000E+00  0.00000000E+00  0.00000000E+00  0.00000000E+00
  0.00000000E+00  1.61413556E-06  0.00000000E+00  0.00000000E+00  0.00000000E+00
  0.00000000E+00  4.82580115E-03  0.00000000E+00  0.00000000E+00  0.00000000E+00
  0.00000000E+00  0.00000000E+00  0.00000000E+00  0.00000000E+00  0.00000000E+00
  0.00000000E+00  0.00000000E+00  0.00000000E+00  0.00000000E+00  0.00000000E+00
 -2.68275830E-05  0.00000000E+00  0.00000000E+00 -7.17362187E-03  0.00000000E+00
  0.00000000E+00  0.00000000E+00  0.00000000E+00  0.00000000E+00  0.00000000E+00
  0.00000000E+00  0.00000000E+00 -2.41614979E-03  0.00000000E+00  0.00000000E+00
  0.00000000E+00  0.00000000E+00  0.00000000E+00  0.00000000E+00  0.00000000E+00
 -8.58864050E-07  0.00000000E+00  0.00000000E+00 -2.47314359E-03  0.00000000E+00
  0.00000000E+00 -2.30556992E-02  0.00000000E+00  0.00000000E+00  0.00000000E+00
 -4.13334079E-05  0.00000000E+00  0.00000000E+00  0.00000000E+00  0.00000000E+00
 -3.63121710E-02  0.00000000E+00  0.00000000E+00  0.00000000E+00  0.00000000E+00
  0.00000000E+00  0.00000000E+00  0.00000000E+00  1.77683014E-01  0.00000000E+00
  0.00000000E+00  5.31329348E-07  2.07383758E-03  1.49071162E-01  8.86493029E-01
  0.00000000E+00  0.00000000E+00  9.33730798E-07  0.00000000E+00  0.00000000E+00
  3.76131499E-03  0.00000000E+00  0.00000000E+00  4.99926321E-01  3.26318763E-05
  0.00000000E+00  0.00000000E+00  2.60585066E-06  0.00000000E+00  6.66717483E-02
  0.00000000E+00  0.00000000E+00  5.73820128E-03  0.00000000E+00  5.09992657E-04
  4.32679134E-02  5.70521939E-01  1.30604113E+00  0.00000000E+00  0.00000000E+00
  9.33764604E-04  0.00000000E+00  0.00000000E+00  8.28712676E-02  0.00000000E+00
  0.00000000E+00  1.47474361E+00  3.92607840E-03  0.00000000E+00  0.00000000E+00
  1.20664238E-03  0.00000000E+00  4.91572355E-01  0.00000000E+00  0.00000000E+00
  7.37246955E-02  0.00000000E+00  1.34410188E+00  4.09258116E+00  4.39403020E+00
  2.35771839E+00  0.00000000E+00  0.00000000E+00  1.71287901E-01  0.00000000E+00
  0.00000000E+00  0.00000000E+00  0.00000000E+00  0.00000000E+00  0.00000000E+00
  0.00000000E+00  0.00000000E+00  0.00000000E+00  0.00000000E+00  0.00000000E+00
  0.00000000E+00  0.00000000E+00  0.00000000E+00  0.00000000E+00  0.00000000E+00
  0.00000000E+00  0.00000000E+00  2.60585066E-06  0.00000000E+00  0.00000000E+00
  0.00000000E+00  0.00000000E+00  5.73820128E-03  0.00000000E+00  0.00000000E+00
  0.00000000E+00  0.00000000E+00  0.00000000E+00  0.00000000E+00  0.00000000E+00
  0.00000000E+00  0.00000000E+00  0.00000000E+00  0.00000000E+00  0.00000000E+00
  0.00000000E+00  0.00000000E+00  0.00000000E+00  0.00000000E+00  0.00000000E+00
  1.20664238E-03  0.00000000E+00  0.00000000E+00  0.00000000E+00  0.00000000E+00
  7.37246955E-02  0.00000000E+00  0.00000000E+00  0.00000000E+00  0.00000000E+00
  0.00000000E+00  0.00000000E+00  0.00000000E+00  0.00000000E+00  0.00000000E+00
  0.00000000E+00  0.00000000E+00  0.00000000E+00  0.00000000E+00  4.80296438E-06
  0.00000000E+00  0.00000000E+00 -2.91051060E-03  0.00000000E+00  0.00000000E+00
 -9.51189574E-02  0.00000000E+00  0.00000000E+00  0.00000000E+00 -8.65323254E-05
  0.00000000E+00  0.00000000E+00  0.00000000E+00  0.00000000E+00 -5.62774395E-02
  0.00000000E+00  0.00000000E+00  0.00000000E+00  0.00000000E+00  0.00000000E+00
  0.00000000E+00  0.00000000E+00 -2.47314359E-03  0.00000000E+00  0.00000000E+00
 -6.56638386E-02  0.00000000E+00  0.00000000E+00 -2.60737843E-01  0.00000000E+00
  0.00000000E+00  0.00000000E+00 -1.61119132E-02  0.00000000E+00  0.00000000E+00
  0.00000000E+00  0.00000000E+00 -3.94568106E-01  0.00000000E+00  0.00000000E+00
  0.00000000E+00  0.00000000E+00  0.00000000E+00  0.00000000E+00  0.00000000E+00
  1.71287901E-01  0.00000000E+00  0.00000000E+00  6.44329897E-01  0.00000000E+00
  0.00000000E+00 -2.40000364E-03  1.18101716E-03  3.69477434E-01  2.91214052E+00
  0.00000000E+00  0.00000000E+00 -4.38135323E-04  0.00000000E+00  0.00000000E+00
  2.34074613E-02  0.00000000E+00  0.00000000E+00  1.09449467E+00  5.05179176E-03
  0.00000000E+00  0.00000000E+00 -5.67346774E-03  0.00000000E+00  1.72326217E-01
  0.00000000E+00  0.00000000E+00  2.71432000E-02  0.00000000E+00  4.13633033E-03
  1.17317450E-01  1.17450779E+00  4.30845986E+00  0.00000000E+00  0.00000000E+00
  9.32280579E-03  0.00000000E+00  0.00000000E+00  1.95496971E-01  0.00000000E+00
  0.00000000E+00  2.57648094E+00  9.07654389E-03  0.00000000E+00  0.00000000E+00
  1.12339760E-02  0.00000000E+00  4.17554085E-01  0.00000000E+00  0.00000000E+00
  3.10872459E-01  0.00000000E+00  4.18055815E-01  2.77043055E+00  7.35900561E+00
  8.43395191E+00  0.00000000E+00  0.00000000E+00  5.91902931E-02  0.00000000E+00
  0.00000000E+00  6.06245580E-01  0.00000000E+00  0.00000000E+00  0.00000000E+00
  0.00000000E+00  0.00000000E+00  0.00000000E+00  0.00000000E+00  0.00000000E+00
  0.00000000E+00  0.00000000E+00  0.00000000E+00  0.00000000E+00  0.00000000E+00
  0.00000000E+00  0.00000000E+00  0.00000000E+00  0.00000000E+00  0.00000000E+00
 -5.67346774E-03  0.00000000E+00  0.00000000E+00  0.00000000E+00  0.00000000E+00
  2.71432000E-02  0.00000000E+00  0.00000000E+00  0.00000000E+00  0.00000000E+00
  0.00000000E+00  0.00000000E+00  0.00000000E+00  0.00000000E+00  0.00000000E+00
  0.00000000E+00  0.00000000E+00  0.00000000E+00  0.00000000E+00  0.00000000E+00
  0.00000000E+00  0.00000000E+00  0.00000000E+00  1.12339760E-02  0.00000000E+00
  0.00000000E+00  0.00000000E+00  0.00000000E+00  3.10872459E-01  0.00000000E+00
  0.00000000E+00  0.00000000E+00  0.00000000E+00  0.00000000E+00  0.00000000E+00
  0.00000000E+00  0.00000000E+00  0.00000000E+00  0.00000000E+00  0.00000000E+00
  0.00000000E+00  0.00000000E+00  0.00000000E+00  0.00000000E+00  0.00000000E+00
  3.02119086E-02  0.00000000E+00  0.00000000E+00  4.90611211E-02  0.00000000E+00
  0.00000000E+00 -3.79489247E-01  0.00000000E+00  0.00000000E+00  0.00000000E+00
  1.76831631E-03  0.00000000E+00  0.00000000E+00  0.00000000E+00  0.00000000E+00
 -3.08809845E-01  0.00000000E+00  0.00000000E+00  0.00000000E+00  0.00000000E+00
  0.00000000E+00  0.00000000E+00  0.00000000E+00 -2.30556992E-02  0.00000000E+00
  0.00000000E+00 -2.60737843E-01  0.00000000E+00  0.00000000E+00 -1.00028816E+00
  0.00000000E+00  0.00000000E+00  0.00000000E+00 -1.40445128E-01  0.00000000E+00
  0.00000000E+00  0.00000000E+00  0.00000000E+00 -1.12959379E+00  0.00000000E+00
  0.00000000E+00  0.00000000E+00  0.00000000E+00  0.00000000E+00  0.00000000E+00
  0.00000000E+00  5.91902931E-02  0.00000000E+00  0.00000000E+00  6.06245580E-01
  0.00000000E+00  0.00000000E+00  2.45098039E+00  0.00000000E+00  0.00000000E+00
  0.00000000E+00  0.00000000E+00  0.00000000E+00  0.00000000E+00  0.00000000E+00
  0.00000000E+00  0.00000000E+00  1.20028780E-04  0.00000000E+00  0.00000000E+00
 -8.96973732E-03  0.00000000E+00  0.00000000E+00  0.00000000E+00  2.21877387E-07
  0.00000000E+00  0.00000000E+00  0.00000000E+00  0.00000000E+00  3.42714364E-03
  0.00000000E+00  0.00000000E+00  0.00000000E+00  0.00000000E+00  0.00000000E+00
  0.00000000E+00  0.00000000E+00  2.24636536E-05  0.00000000E+00  0.00000000E+00
  5.50652330E-03  0.00000000E+00  0.00000000E+00 -5.33382343E-02  0.00000000E+00
  0.00000000E+00  0.00000000E+00  4.91628366E-04  0.00000000E+00  0.00000000E+00
  0.00000000E+00  0.00000000E+00  9.52821051E-03  0.00000000E+00  0.00000000E+00
  0.00000000E+00  0.00000000E+00  0.00000000E+00  0.00000000E+00  0.00000000E+00
 -1.10767269E+00  0.00000000E+00  0.00000000E+00 -1.43313955E+00  0.00000000E+00
  0.00000000E+00 -5.83773637E-01  0.00000000E+00  0.00000000E+00  0.00000000E+00
 -3.23557770E-09 -4.32013758E-04 -4.19401028E-02 -2.47541680E-02  0.00000000E+00
  0.00000000E+00  0.00000000E+00  0.00000000E+00  0.00000000E+00 -7.00206339E-04
  0.00000000E+00  0.00000000E+00 -1.28573035E-01 -2.44912329E-07  0.00000000E+00
  0.00000000E+00 -1.04428912E-08  0.00000000E+00 -2.75316188E-02  0.00000000E+00
  0.00000000E+00 -8.34633287E-04  0.00000000E+00 -1.96907095E-05 -1.71013583E-02
 -1.32770824E-01 -8.45123681E-03  0.00000000E+00  0.00000000E+00 -3.17546360E-05
  0.00000000E+00  0.00000000E+00 -3.61441582E-02  0.00000000E+00  0.00000000E+00
 -2.60253831E-01 -5.39764012E-04  0.00000000E+00  0.00000000E+00 -4.16866918E-05
  0.00000000E+00 -2.55743184E-01  0.00000000E+00  0.00000000E+00 -1.50248722E-02
  0.00000000E+00  1.86621370E-01  4.32246747E-01  3.36623363E-01  1.49740957E-01
  0.00000000E+00  0.00000000E+00  1.91854538E+00  0.00000000E+00  0.00000000E+00
  2.48227052E+00  0.00000000E+00  0.00000000E+00  1.01112560E+00  1.36553990E-01
  0.00000000E+00  0.00000000E+00  0.00000000E+00  0.00000000E+00  0.00000000E+00
  0.00000000E+00  0.00000000E+00  0.00000000E+00  0.00000000E+00  0.00000000E+00
  0.00000000E+00  0.00000000E+00  0.00000000E+00  0.00000000E+00  0.00000000E+00
  0.00000000E+00  0.00000000E+00  0.00000000E+00 -1.04428912E-08  0.00000000E+00
  0.00000000E+00  0.00000000E+00  0.00000000E+00 -8.34633287E-04  0.00000000E+00
  0.00000000E+00  0.00000000E+00  0.00000000E+00  0.00000000E+00  0.00000000E+00
  0.00000000E+00  0.00000000E+00  0.00000000E+00  0.00000000E+00  0.00000000E+00
  0.00000000E+00  0.00000000E+00  0.00000000E+00  0.00000000E+00  0.00000000E+00
  0.00000000E+00 -4.16866918E-05  0.00000000E+00  0.00000000E+00  0.00000000E+00
  0.00000000E+00 -1.50248722E-02  0.00000000E+00  0.00000000E+00  0.00000000E+00
  0.00000000E+00  0.00000000E+00  0.00000000E+00  0.00000000E+00  0.00000000E+00
  0.00000000E+00  0.00000000E+00  0.00000000E+00  0.00000000E+00  0.00000000E+00
  0.00000000E+00  0.00000000E+00  0.00000000E+00  0.00000000E+00  0.00000000E+00
  0.00000000E+00  0.00000000E+00  0.00000000E+00  0.00000000E+00  0.00000000E+00
  3.59096593E-05  0.00000000E+00  0.00000000E+00  2.67278852E-02  0.00000000E+00
  0.00000000E+00  0.00000000E+00  1.14685743E-08  0.00000000E+00  0.00000000E+00
  0.00000000E+00  0.00000000E+00  4.02207207E-03  0.00000000E+00  0.00000000E+00
  0.00000000E+00  0.00000000E+00  0.00000000E+00  0.00000000E+00  0.00000000E+00
  1.21260930E-06  0.00000000E+00  0.00000000E+00  3.28716751E-03  0.00000000E+00
  0.00000000E+00  1.16414830E-01  0.00000000E+00  0.00000000E+00  0.00000000E+00
  4.53896053E-05  0.00000000E+00  0.00000000E+00  0.00000000E+00  0.00000000E+00
  7.43266064E-02  0.00000000E+00  0.00000000E+00  0.00000000E+00  0.00000000E+00
  0.00000000E+00  0.00000000E+00  0.00000000E+00  1.91854538E+00  0.00000000E+00
  0.00000000E+00  2.48227052E+00  0.00000000E+00  0.00000000E+00  1.01112560E+00
  0.00000000E+00  0.00000000E+00  0.00000000E+00  2.36518448E-01  0.00000000E+00
  0.00000000E+00  0.00000000E+00  0.00000000E+00  0.00000000E+00  0.00000000E+00
  0.00000000E+00  0.00000000E+00  0.00000000E+00  0.00000000E+00  3.59096593E-05
  0.00000000E+00  0.00000000E+00  2.67278852E-02  0.00000000E+00  0.00000000E+00
  0.00000000E+00  1.14685743E-08  0.00000000E+00  0.00000000E+00  0.00000000E+00
  0.00000000E+00  4.02207207E-03  0.00000000E+00  0.00000000E+00  0.00000000E+00
  0.00000000E+00  0.00000000E+00  0.00000000E+00  0.00000000E+00  1.21260930E-06
  0.00000000E+00  0.00000000E+00  3.28716751E-03  0.00000000E+00  0.00000000E+00
  1.16414830E-01  0.00000000E+00  0.00000000E+00  0.00000000E+00  4.53896053E-05
  0.00000000E+00  0.00000000E+00  0.00000000E+00  0.00000000E+00  7.43266064E-02
  0.00000000E+00  0.00000000E+00  0.00000000E+00  0.00000000E+00  0.00000000E+00
  0.00000000E+00  0.00000000E+00  1.91854538E+00  0.00000000E+00  0.00000000E+00
  2.48227052E+00  0.00000000E+00  0.00000000E+00  1.01112560E+00  0.00000000E+00
  0.00000000E+00  0.00000000E+00  2.36518448E-01  0.00000000E+00  0.00000000E+00
  0.00000000E+00  0.00000000E+00  0.00000000E+00  0.00000000E+00 -1.49757720E-03
  0.00000000E+00  0.00000000E+00  1.24709984E-02  0.00000000E+00  0.00000000E+00
  2.62464949E-03  0.00000000E+00  0.00000000E+00  0.00000000E+00 -4.24216658E-04
  0.00000000E+00  0.00000000E+00  0.00000000E+00  0.00000000E+00  1.28355350E-01
  0.00000000E+00  0.00000000E+00  0.00000000E+00  0.00000000E+00  0.00000000E+00
  0.00000000E+00  0.00000000E+00  1.99866102E-02  0.00000000E+00  0.00000000E+00
  1.73610454E-01  0.00000000E+00  0.00000000E+00 -2.17086126E-01  0.00000000E+00
  0.00000000E+00  0.00000000E+00  8.85926403E-02  0.00000000E+00  0.00000000E+00
  0.00000000E+00  0.00000000E+00  3.45119894E-01  0.00000000E+00  0.00000000E+00
  0.00000000E+00  0.00000000E+00  0.00000000E+00  0.00000000E+00  0.00000000E+00
 -3.51049277E-01  0.00000000E+00  0.00000000E+00 -2.00081230E+00  0.00000000E+00
  0.00000000E+00 -3.06010233E+00  0.00000000E+00  0.00000000E+00  0.00000000E+00
  9.43226723E-02  0.00000000E+00  0.00000000E+00  0.00000000E+00  0.00000000E+00
  1.97842556E-04 -1.43759137E-02 -3.03894122E-01 -1.78026328E-01  0.00000000E+00
  0.00000000E+00  1.51280468E-04  0.00000000E+00  0.00000000E+00 -2.80389473E-02
  0.00000000E+00  0.00000000E+00 -7.69447550E-01 -9.17834359E-04  0.00000000E+00
  0.00000000E+00  3.77144880E-04  0.00000000E+00 -2.20282094E-01  0.00000000E+00
  0.00000000E+00 -3.81823574E-02  0.00000000E+00 -6.16659740E-03 -1.71123109E-01
 -7.78896920E-01 -1.73956355E-02  0.00000000E+00  0.00000000E+00 -1.10517105E-02
  0.00000000E+00  0.00000000E+00 -2.95028494E-01  0.00000000E+00  0.00000000E+00
 -1.22330691E+00 -2.21661511E-02  0.00000000E+00  0.00000000E+00 -1.50248722E-02
  0.00000000E+00 -6.81787848E-01  0.00000000E+00  0.00000000E+00 -2.91563001E-01
  0.00000000E+00  7.11458243E-02  7.42108557E-01  1.75593236E+00  1.47280833E+00
  0.00000000E+00  0.00000000E+00  6.08035184E-01  0.00000000E+00  0.00000000E+00
  3.46550856E+00  0.00000000E+00  0.00000000E+00  5.30025272E+00  9.43226723E-02
  0.00000000E+00  0.00000000E+00  1.63371661E-01  0.00000000E+00  5.84362621E-01
  0.00000000E+00  0.00000000E+00  0.00000000E+00  0.00000000E+00  0.00000000E+00
  0.00000000E+00  0.00000000E+00  0.00000000E+00  0.00000000E+00  0.00000000E+00
  0.00000000E+00  0.00000000E+00  0.00000000E+00  0.00000000E+00  0.00000000E+00
  0.00000000E+00  0.00000000E+00  0.00000000E+00  3.77144880E-04  0.00000000E+00
  0.00000000E+00  0.00000000E+00  0.00000000E+00 -3.81823574E-02  0.00000000E+00
  0.00000000E+00  0.00000000E+00  0.00000000E+00  0.00000000E+00  0.00000000E+00
  0.00000000E+00  0.00000000E+00  0.00000000E+00  0.00000000E+00  0.00000000E+00
  0.00000000E+00  0.00000000E+00  0.00000000E+00  0.00000000E+00  0.00000000E+00
  0.00000000E+00 -1.50248722E-02  0.00000000E+00  0.00000000E+00  0.00000000E+00
  0.00000000E+00 -2.91563001E-01  0.00000000E+00  0.00000000E+00  0.00000000E+00
  0.00000000E+00  0.00000000E+00  0.00000000E+00  0.00000000E+00  0.00000000E+00
  0.00000000E+00  0.00000000E+00  0.00000000E+00  0.00000000E+00  0.00000000E+00
  0.00000000E+00  0.00000000E+00  0.00000000E+00  0.00000000E+00  1.63371661E-01
  0.00000000E+00  0.00000000E+00  0.00000000E+00  0.00000000E+00  0.00000000E+00
  0.00000000E+00  0.00000000E+00 -2.36091123E-05  0.00000000E+00  0.00000000E+00
  2.37398843E-03  0.00000000E+00  0.00000000E+00  2.15169754E-01  0.00000000E+00
  0.00000000E+00  0.00000000E+00  1.71141275E-05  0.00000000E+00  0.00000000E+00
  0.00000000E+00  0.00000000E+00  5.73114858E-02  0.00000000E+00  0.00000000E+00
  0.00000000E+00  0.00000000E+00  0.00000000E+00  0.00000000E+00  0.00000000E+00
  8.47173337E-04  0.00000000E+00  0.00000000E+00  4.69329892E-02  0.00000000E+00
  0.00000000E+00  7.52798994E-01  0.00000000E+00  0.00000000E+00  0.00000000E+00
  5.85480160E-03  0.00000000E+00  0.00000000E+00  0.00000000E+00  0.00000000E+00
  4.21286808E-01  0.00000000E+00  0.00000000E+00  0.00000000E+00  0.00000000E+00
  0.00000000E+00  0.00000000E+00  0.00000000E+00  6.08035184E-01  0.00000000E+00
  0.00000000E+00  3.46550856E+00  0.00000000E+00  0.00000000E+00  5.30025272E+00
  0.00000000E+00  0.00000000E+00  0.00000000E+00  1.63371661E-01  0.00000000E+00
  0.00000000E+00  0.00000000E+00  0.00000000E+00  1.01214575E+00  0.00000000E+00
  0.00000000E+00  0.00000000E+00  0.00000000E+00  0.00000000E+00  0.00000000E+00
  0.00000000E+00 -2.36091123E-05  0.00000000E+00  0.00000000E+00  2.37398843E-03
  0.00000000E+00  0.00000000E+00  2.15169754E-01  0.00000000E+00  0.00000000E+00
  0.00000000E+00  1.71141275E-05  0.00000000E+00  0.00000000E+00  0.00000000E+00
  0.00000000E+00  5.73114858E-02  0.00000000E+00  0.00000000E+00  0.00000000E+00
  0.00000000E+00  0.00000000E+00  0.00000000E+00  0.00000000E+00  8.47173337E-04
  0.00000000E+00  0.00000000E+00  4.69329892E-02  0.00000000E+00  0.00000000E+00
  7.52798994E-01  0.00000000E+00  0.00000000E+00  0.00000000E+00  5.85480160E-03
  0.00000000E+00  0.00000000E+00  0.00000000E+00  0.00000000E+00  4.21286808E-01
  0.00000000E+00  0.00000000E+00  0.00000000E+00  0.00000000E+00  0.00000000E+00
  0.00000000E+00  0.00000000E+00  6.08035184E-01  0.00000000E+00  0.00000000E+00
  3.46550856E+00  0.00000000E+00  0.00000000E+00  5.30025272E+00  0.00000000E+00
  0.00000000E+00  0.00000000E+00  1.63371661E-01  0.00000000E+00  0.00000000E+00
  0.00000000E+00  0.00000000E+00  1.01214575E+00  0.00000000E+00  0.00000000E+00
Multipole Matrix (0,1,1)                   R   N=        2415
  0.00000000E+00  0.00000000E+00  0.00000000E+00  0.00000000E+00  0.00000000E+00
  0.00000000E+00  0.00000000E+00  0.00000000E+00  0.00000000E+00  0.00000000E+00
  0.00000000E+00  0.00000000E+00  0.00000000E+00  0.00000000E+00  0.00000000E+00
 -5.95582958E-01 -6.74870881E-01 -4.00709532E-01 -1.59642614E-01  0.00000000E+00
  0.00000000E+00  0.00000000E+00  0.00000000E+00  0.00000000E+00  0.00000000E+00
  0.00000000E+00  1.77683014E-01  0.00000000E+00  0.00000000E+00  0.00000000E+00
  0.00000000E+00  0.00000000E+00  0.00000000E+00  0.00000000E+00  0.00000000E+00
  0.00000000E+00 -4.06684249E-01 -1.23829028E+00 -1.32949957E+00 -7.13373701E-01
  0.00000000E+00  0.00000000E+00  1.71287901E-01  0.00000000E+00  0.00000000E+00
  0.00000000E+00  0.00000000E+00  0.00000000E+00  0.00000000E+00  0.00000000E+00
  1.71287901E-01  0.00000000E+00  0.00000000E+00  6.44329897E-01  0.00000000E+00
  0.00000000E+00  0.00000000E+00  0.00000000E+00  0.00000000E+00  0.00000000E+00
  0.00000000E+00  0.00000000E+00  0.00000000E+00  0.00000000E+00  0.00000000E+00
  0.00000000E+00 -1.26490943E-01 -8.38247816E-01 -2.22661073E+00 -2.55185670E+00
  0.00000000E+00  0.00000000E+00  5.91902931E-02  0.00000000E+00  0.00000000E+00
  6.06245580E-01  0.00000000E+00  0.00000000E+00  0.00000000E+00  0.00000000E+00
  0.00000000E+00  0.00000000E+00  0.00000000E+00  5.91902931E-02  0.00000000E+00
  0.00000000E+00  6.06245580E-01  0.00000000E+00  0.00000000E+00  2.45098039E+00
  0.00000000E+00  0.00000000E+00  0.00000000E+00  0.00000000E+00  0.00000000E+00
  0.00000000E+00  3.35147985E-01  0.00000000E+00  0.00000000E+00  4.33624333E-01
  0.00000000E+00  0.00000000E+00  1.76632104E-01  0.00000000E+00  0.00000000E+00
  0.00000000E+00  0.00000000E+00  0.00000000E+00  0.00000000E+00  0.00000000E+00
  0.00000000E+00  0.00000000E+00  0.00000000E+00  0.00000000E+00  0.00000000E+00
  0.00000000E+00  0.00000000E+00  0.00000000E+00  0.00000000E+00  0.00000000E+00
  1.86621370E-01  4.32246747E-01  3.36623363E-01  1.49740957E-01  0.00000000E+00
  0.00000000E+00 -5.80493337E-01  0.00000000E+00  0.00000000E+00 -7.51059376E-01
  0.00000000E+00  0.00000000E+00 -3.05935778E-01  1.36553990E-01  0.00000000E+00
  0.00000000E+00  0.00000000E+00  0.00000000E+00  0.00000000E+00  0.00000000E+00
  0.00000000E+00  5.80493337E-01  0.00000000E+00  0.00000000E+00  7.51059376E-01
  0.00000000E+00  0.00000000E+00  3.05935778E-01  0.00000000E+00  0.00000000E+00
  0.00000000E+00 -2.36518448E-01  0.00000000E+00  0.00000000E+00  0.00000000E+00
  0.00000000E+00  0.00000000E+00 -5.80493337E-01  0.00000000E+00  0.00000000E+00
 -7.51059376E-01  0.00000000E+00  0.00000000E+00 -3.05935778E-01  0.00000000E+00
  0.00000000E+00  0.00000000E+00  2.36518448E-01  0.00000000E+00  0.00000000E+00
  0.00000000E+00  0.00000000E+00  0.00000000E+00  0.00000000E+00  0.00000000E+00
  0.00000000E+00  1.06216808E-01  0.00000000E+00  0.00000000E+00  6.05384799E-01
  0.00000000E+00  0.00000000E+00  9.25893666E-01  0.00000000E+00  0.00000000E+00
  0.00000000E+00  9.43226723E-02  0.00000000E+00  0.00000000E+00  0.00000000E+00
  0.00000000E+00  0.00000000E+00  0.00000000E+00  0.00000000E+00  0.00000000E+00
  0.00000000E+00  0.00000000E+00  0.00000000E+00  0.00000000E+00  0.00000000E+00
  0.00000000E+00  0.00000000E+00  0.00000000E+00  0.00000000E+00  0.00000000E+00
  0.00000000E+00  0.00000000E+00  1.63371661E-01  0.00000000E+00  0.00000000E+00
  7.11458243E-02  7.42108557E-01  1.75593236E+00  1.47280833E+00  0.00000000E+00
  0.00000000E+00 -1.83972908E-01  0.00000000E+00  0.00000000E+00 -1.04855723E+00
  0.00000000E+00  0.00000000E+00 -1.60369487E+00  9.43226723E-02  0.00000000E+00
  0.00000000E+00 -1.63371661E-01  0.00000000E+00  5.84362621E-01  0.00000000E+00
  0.00000000E+00  0.00000000E+00  0.00000000E+00  0.00000000E+00  0.00000000E+00
  0.00000000E+00  1.83972908E-01  0.00000000E+00  0.00000000E+00  1.04855723E+00
  0.00000000E+00  0.00000000E+00  1.60369487E+00  0.00000000E+00  0.00000000E+00
  0.00000000E+00 -1.63371661E-01  0.00000000E+00  0.00000000E+00  0.00000000E+00
  0.00000000E+00 -1.01214575E+00  0.00000000E+00  0.00000000E+00  0.00000000E+00
  0.00000000E+00  0.00000000E+00 -1.83972908E-01  0.00000000E+00  0.00000000E+00
 -1.04855723E+00  0.00000000E+00  0.00000000E+00 -1.60369487E+00  0.00000000E+00
  0.00000000E+00  0.00000000E+00  1.63371661E-01  0.00000000E+00  0.00000000E+00
  0.00000000E+00  0.00000000E+00  1.01214575E+00  0.00000000E+00  0.00000000E+00
  0.00000000E+00  0.00000000E+00  0.00000000E+00  0.00000000E+00  0.00000000E+00
  0.00000000E+00 -8.47429940E-02  0.00000000E+00  0.00000000E+00 -5.52290788E-02
  0.00000000E+00  0.00000000E+00 -8.32839841E-03  0.00000000E+00  0.00000000E+00
  0.00000000E+00 -7.58654995E-02  0.00000000E+00  0.00000000E+00  0.00000000E+00
  0.00000000E+00  7.97859892E-03  0.00000000E+00  0.00000000E+00  0.00000000E+00
  0.00000000E+00  0.00000000E+00  0.00000000E+00  0.00000000E+00  0.00000000E+00
 -3.19718678E-01  0.00000000E+00  0.00000000E+00 -4.69278403E-01  0.00000000E+00
  0.00000000E+00 -1.70616404E-01  0.00000000E+00  0.00000000E+00  0.00000000E+00
 -3.75975218E-03  0.00000000E+00  0.00000000E+00  0.00000000E+00  0.00000000E+00
  2.38430020E-01  0.00000000E+00  0.00000000E+00  0.00000000E+00  0.00000000E+00
  0.00000000E+00  0.00000000E+00  0.00000000E+00  0.00000000E+00  0.00000000E+00
 -3.07305861E-01  0.00000000E+00  0.00000000E+00 -8.90993393E-01  0.00000000E+00
  0.00000000E+00 -9.99679926E-01  0.00000000E+00  0.00000000E+00  0.00000000E+00
  1.72119633E-01  0.00000000E+00  0.00000000E+00  0.00000000E+00  0.00000000E+00
  1.06717436E+00  0.00000000E+00  0.00000000E+00  0.00000000E+00  0.00000000E+00
  0.00000000E+00  0.00000000E+00  0.00000000E+00  0.00000000E+00  0.00000000E+00
  0.00000000E+00 -1.49097965E-01  0.00000000E+00  0.00000000E+00 -6.38186709E-01
  0.00000000E+00  0.00000000E+00 -1.96270985E+00  0.00000000E+00  0.00000000E+00
  0.00000000E+00  1.28092278E-01  0.00000000E+00  0.00000000E+00  0.00000000E+00
  0.00000000E+00  1.27443039E+00  0.00000000E+00  0.00000000E+00  0.00000000E+00
  0.00000000E+00  0.00000000E+00  0.00000000E+00  0.00000000E+00  0.00000000E+00
  0.00000000E+00  0.00000000E+00  0.00000000E+00  0.00000000E+00  0.00000000E+00
  0.00000000E+00  0.00000000E+00  0.00000000E+00  0.00000000E+00  0.00000000E+00
  0.00000000E+00  0.00000000E+00  0.00000000E+00  0.00000000E+00  0.00000000E+00
 -7.28367536E-02  0.00000000E+00  0.00000000E+00  0.00000000E+00  0.00000000E+00
 -1.79085929E-02  0.00000000E+00  0.00000000E+00  0.00000000E+00  0.00000000E+00
  0.00000000E+00 -7.21977834E-02 -7.40329391E-02 -2.24309253E-02 -2.67676944E-03
  0.00000000E+00  0.00000000E+00 -7.91058076E-02  0.00000000E+00  0.00000000E+00
 -2.20221145E-02  0.00000000E+00  0.00000000E+00  2.98743695E-02  1.63805947E-02
  0.00000000E+00  0.00000000E+00  7.28367536E-02  0.00000000E+00  7.77250028E-02
  0.00000000E+00  0.00000000E+00  1.79085929E-02  0.00000000E+00  0.00000000E+00
  0.00000000E+00  0.00000000E+00  0.00000000E+00  0.00000000E+00  0.00000000E+00
  0.00000000E+00  0.00000000E+00  0.00000000E+00  0.00000000E+00  0.00000000E+00
  1.63907414E-01  0.00000000E+00  0.00000000E+00  1.23692989E-01  0.00000000E+00
  0.00000000E+00  5.01366424E-02  0.00000000E+00  0.00000000E+00  0.00000000E+00
  1.30358737E-01  0.00000000E+00  0.00000000E+00  0.00000000E+00  0.00000000E+00
  8.15243009E-02  0.00000000E+00  0.00000000E+00  0.00000000E+00  0.00000000E+00
  0.00000000E+00  0.00000000E+00  0.00000000E+00  1.77683014E-01  0.00000000E+00
  0.00000000E+00  0.00000000E+00  0.00000000E+00  0.00000000E+00  0.00000000E+00
  0.00000000E+00  0.00000000E+00  0.00000000E+00  0.00000000E+00  0.00000000E+00
  0.00000000E+00  0.00000000E+00  0.00000000E+00  0.00000000E+00  0.00000000E+00
  0.00000000E+00  0.00000000E+00 -3.08201316E-01  0.00000000E+00  0.00000000E+00
  0.00000000E+00  0.00000000E+00 -2.99929045E-01  0.00000000E+00  0.00000000E+00
  0.00000000E+00  0.00000000E+00  0.00000000E+00  0.00000000E+00  0.00000000E+00
  0.00000000E+00 -1.68908199E-01 -3.94048721E-01 -2.35837684E-01 -4.15479285E-02
  0.00000000E+00  0.00000000E+00 -2.20221145E-02  0.00000000E+00  0.00000000E+00
  9.10361805E-02  0.00000000E+00  0.00000000E+00  3.45086992E-01  2.33060782E-01
  0.00000000E+00  0.00000000E+00  3.08201316E-01  0.00000000E+00  5.49965751E-01
  0.00000000E+00  0.00000000E+00  2.99929045E-01  0.00000000E+00  0.00000000E+00
  0.00000000E+00  0.00000000E+00  0.00000000E+00  0.00000000E+00  0.00000000E+00
  1.71287901E-01  0.00000000E+00  0.00000000E+00  0.00000000E+00  0.00000000E+00
  0.00000000E+00  0.00000000E+00  0.00000000E+00  5.06382914E-01  0.00000000E+00
  0.00000000E+00  7.77000520E-01  0.00000000E+00  0.00000000E+00  5.58769398E-01
  0.00000000E+00  0.00000000E+00  0.00000000E+00 -1.46953335E-01  0.00000000E+00
  0.00000000E+00  0.00000000E+00  0.00000000E+00  5.56745922E-02  0.00000000E+00
  0.00000000E+00  0.00000000E+00  0.00000000E+00  0.00000000E+00  0.00000000E+00
  0.00000000E+00  1.71287901E-01  0.00000000E+00  0.00000000E+00  6.44329897E-01
  0.00000000E+00  0.00000000E+00  0.00000000E+00  0.00000000E+00  0.00000000E+00
  0.00000000E+00  0.00000000E+00  0.00000000E+00  0.00000000E+00  0.00000000E+00
  0.00000000E+00  0.00000000E+00  0.00000000E+00  0.00000000E+00  0.00000000E+00
  0.00000000E+00  0.00000000E+00  0.00000000E+00 -2.30854990E-01  0.00000000E+00
  0.00000000E+00  0.00000000E+00  0.00000000E+00 -9.79804256E-01  0.00000000E+00
  0.00000000E+00  0.00000000E+00  0.00000000E+00  0.00000000E+00  0.00000000E+00
  0.00000000E+00  0.00000000E+00  0.00000000E+00  0.00000000E+00  0.00000000E+00
 -9.61503559E-02 -5.44968867E-01 -1.00654047E+00 -4.86059321E-01  0.00000000E+00
  0.00000000E+00  2.98743695E-02  0.00000000E+00  0.00000000E+00  3.45086992E-01
  0.00000000E+00  0.00000000E+00  1.75022180E+00  1.54134231E-01  0.00000000E+00
  0.00000000E+00  2.30854990E-01  0.00000000E+00  9.64206563E-01  0.00000000E+00
  0.00000000E+00  9.79804256E-01  0.00000000E+00  0.00000000E+00  0.00000000E+00
  0.00000000E+00  0.00000000E+00  0.00000000E+00  0.00000000E+00  5.91902931E-02
  0.00000000E+00  0.00000000E+00  6.06245580E-01  0.00000000E+00  0.00000000E+00
  0.00000000E+00  0.00000000E+00  0.00000000E+00  0.00000000E+00  0.00000000E+00
  3.09374546E-01  0.00000000E+00  0.00000000E+00  1.15791811E+00  0.00000000E+00
  0.00000000E+00  2.66811117E+00  0.00000000E+00  0.00000000E+00  0.00000000E+00
 -3.51955818E-01  0.00000000E+00  0.00000000E+00  0.00000000E+00  0.00000000E+00
 -1.26687343E+00  0.00000000E+00  0.00000000E+00  0.00000000E+00  0.00000000E+00
  0.00000000E+00  0.00000000E+00  0.00000000E+00  5.91902931E-02  0.00000000E+00
  0.00000000E+00  6.06245580E-01  0.00000000E+00  0.00000000E+00  2.45098039E+00
  0.00000000E+00  0.00000000E+00  0.00000000E+00  0.00000000E+00  0.00000000E+00
  0.00000000E+00 -2.39173894E-01  0.00000000E+00  0.00000000E+00 -9.30373190E-02
  0.00000000E+00  0.00000000E+00 -1.33321694E-02  0.00000000E+00  0.00000000E+00
  0.00000000E+00  3.12291692E-02  0.00000000E+00  0.00000000E+00  0.00000000E+00
  0.00000000E+00  3.76889356E-02  0.00000000E+00  0.00000000E+00  0.00000000E+00
  0.00000000E+00  0.00000000E+00  0.00000000E+00  0.00000000E+00  0.00000000E+00
  0.00000000E+00  0.00000000E+00  0.00000000E+00  0.00000000E+00  0.00000000E+00
  0.00000000E+00  0.00000000E+00  0.00000000E+00  0.00000000E+00  0.00000000E+00
  0.00000000E+00  0.00000000E+00  0.00000000E+00  0.00000000E+00  0.00000000E+00
  0.00000000E+00  0.00000000E+00  0.00000000E+00  0.00000000E+00  0.00000000E+00
  0.00000000E+00  0.00000000E+00  0.00000000E+00  0.00000000E+00  0.00000000E+00
  2.54147400E-01  0.00000000E+00  0.00000000E+00  0.00000000E+00  0.00000000E+00
  1.29371542E-01  0.00000000E+00  0.00000000E+00  0.00000000E+00  0.00000000E+00
  0.00000000E+00  0.00000000E+00  0.00000000E+00  0.00000000E+00  0.00000000E+00
  0.00000000E+00  0.00000000E+00  0.00000000E+00  0.00000000E+00  0.00000000E+00
  0.00000000E+00  2.16792839E-01  3.41670720E-01  2.88499857E-01  1.42744846E-01
  0.00000000E+00  0.00000000E+00  1.17301485E-01  0.00000000E+00  0.00000000E+00
  2.12729517E-01  0.00000000E+00  0.00000000E+00  1.94741662E-01 -1.38533234E-01
  0.00000000E+00  0.00000000E+00 -2.54147400E-01  0.00000000E+00  1.06801582E-01
  0.00000000E+00  0.00000000E+00 -1.29371542E-01  0.00000000E+00  1.86621370E-01
  4.32246747E-01  3.36623363E-01  1.49740957E-01  0.00000000E+00  0.00000000E+00
  0.00000000E+00  0.00000000E+00  0.00000000E+00  0.00000000E+00  0.00000000E+00
  0.00000000E+00  0.00000000E+00  1.36553990E-01  0.00000000E+00  0.00000000E+00
  0.00000000E+00  0.00000000E+00  0.00000000E+00  0.00000000E+00  0.00000000E+00
  9.69548840E-02  0.00000000E+00  0.00000000E+00  1.13133501E-01  0.00000000E+00
  0.00000000E+00  2.22773973E-02  0.00000000E+00  0.00000000E+00  0.00000000E+00
  9.29280458E-02  0.00000000E+00  0.00000000E+00  0.00000000E+00  0.00000000E+00
 -2.00416970E-02  0.00000000E+00  0.00000000E+00  0.00000000E+00  0.00000000E+00
  0.00000000E+00  0.00000000E+00  0.00000000E+00  0.00000000E+00  0.00000000E+00
  0.00000000E+00  0.00000000E+00  0.00000000E+00  0.00000000E+00  0.00000000E+00
  0.00000000E+00  0.00000000E+00  0.00000000E+00 -2.36518448E-01  0.00000000E+00
  0.00000000E+00  0.00000000E+00  0.00000000E+00  0.00000000E+00 -9.69548840E-02
  0.00000000E+00  0.00000000E+00 -1.13133501E-01  0.00000000E+00  0.00000000E+00
 -2.22773973E-02  0.00000000E+00  0.00000000E+00  0.00000000E+00 -9.29280458E-02
  0.00000000E+00  0.00000000E+00  0.00000000E+00  0.00000000E+00  2.00416970E-02
  0.00000000E+00  0.00000000E+00  0.00000000E+00  0.00000000E+00  0.00000000E+00
  0.00000000E+00  0.00000000E+00  0.00000000E+00  0.00000000E+00  0.00000000E+00
  0.00000000E+00  0.00000000E+00  0.00000000E+00  0.00000000E+00  0.00000000E+00
  0.00000000E+00  0.00000000E+00  2.36518448E-01  0.00000000E+00  0.00000000E+00
  0.00000000E+00  0.00000000E+00  0.00000000E+00  0.00000000E+00  0.00000000E+00
  0.00000000E+00 -3.46050013E-01  0.00000000E+00  0.00000000E+00 -5.34705234E-01
  0.00000000E+00  0.00000000E+00 -2.61972217E-01  0.00000000E+00  0.00000000E+00
  0.00000000E+00  4.89863609E-01  0.00000000E+00  0.00000000E+00  0.00000000E+00
  0.00000000E+00  7.96597790E-01  0.00000000E+00  0.00000000E+00  0.00000000E+00
  0.00000000E+00  0.00000000E+00  0.00000000E+00  0.00000000E+00  0.00000000E+00
  0.00000000E+00  0.00000000E+00  0.00000000E+00  0.00000000E+00  0.00000000E+00
  0.00000000E+00  0.00000000E+00  0.00000000E+00  0.00000000E+00  9.43226723E-02
  0.00000000E+00  0.00000000E+00  0.00000000E+00  0.00000000E+00  0.00000000E+00
  0.00000000E+00  0.00000000E+00  0.00000000E+00  0.00000000E+00  0.00000000E+00
  0.00000000E+00  0.00000000E+00  0.00000000E+00  0.00000000E+00  0.00000000E+00
  0.00000000E+00  0.00000000E+00  0.00000000E+00  0.00000000E+00  0.00000000E+00
  4.87902613E-01  0.00000000E+00  0.00000000E+00  0.00000000E+00  0.00000000E+00
  1.18299258E+00  0.00000000E+00  0.00000000E+00  0.00000000E+00  0.00000000E+00
  0.00000000E+00  0.00000000E+00  0.00000000E+00  0.00000000E+00  0.00000000E+00
  0.00000000E+00  0.00000000E+00  0.00000000E+00  0.00000000E+00  0.00000000E+00
  0.00000000E+00  0.00000000E+00  0.00000000E+00  1.63371661E-01  0.00000000E+00
  0.00000000E+00  2.34239581E-01  9.78225612E-01  1.70086381E+00  1.41906456E+00
  0.00000000E+00  0.00000000E+00 -9.88064681E-02  0.00000000E+00  0.00000000E+00
 -3.52710532E-01  0.00000000E+00  0.00000000E+00  2.89553757E-01 -3.07194438E-01
  0.00000000E+00  0.00000000E+00 -4.87902613E-01  0.00000000E+00 -3.44984151E-01
  0.00000000E+00  0.00000000E+00 -1.18299258E+00  0.00000000E+00  7.11458243E-02
  7.42108557E-01  1.75593236E+00  1.47280833E+00  0.00000000E+00  0.00000000E+00
  0.00000000E+00  0.00000000E+00  0.00000000E+00  0.00000000E+00  0.00000000E+00
  0.00000000E+00  0.00000000E+00  9.43226723E-02  0.00000000E+00  0.00000000E+00
 -1.63371661E-01  0.00000000E+00  5.84362621E-01  0.00000000E+00  0.00000000E+00
  0.00000000E+00  0.00000000E+00  0.00000000E+00  0.00000000E+00  0.00000000E+00
  1.02013725E-01  0.00000000E+00  0.00000000E+00  4.71143602E-01  0.00000000E+00
  0.00000000E+00  4.04615523E-01  0.00000000E+00  0.00000000E+00  0.00000000E+00
 -2.00416970E-02  0.00000000E+00  0.00000000E+00  0.00000000E+00  0.00000000E+00
 -3.91108884E-01  0.00000000E+00  0.00000000E+00  0.00000000E+00  0.00000000E+00
  0.00000000E+00  0.00000000E+00  0.00000000E+00  0.00000000E+00  0.00000000E+00
  0.00000000E+00  0.00000000E+00  0.00000000E+00  0.00000000E+00  0.00000000E+00
  0.00000000E+00  0.00000000E+00  0.00000000E+00 -1.63371661E-01  0.00000000E+00
  0.00000000E+00  0.00000000E+00  0.00000000E+00 -1.01214575E+00  0.00000000E+00
  0.00000000E+00  0.00000000E+00  0.00000000E+00  0.00000000E+00 -1.02013725E-01
  0.00000000E+00  0.00000000E+00 -4.71143602E-01  0.00000000E+00  0.00000000E+00
 -4.04615523E-01  0.00000000E+00  0.00000000E+00  0.00000000E+00  2.00416970E-02
  0.00000000E+00  0.00000000E+00  0.00000000E+00  0.00000000E+00  3.91108884E-01
  0.00000000E+00  0.00000000E+00  0.00000000E+00  0.00000000E+00  0.00000000E+00
  0.00000000E+00  0.00000000E+00  0.00000000E+00  0.00000000E+00  0.00000000E+00
  0.00000000E+00  0.00000000E+00  0.00000000E+00  0.00000000E+00  0.00000000E+00
  0.00000000E+00  0.00000000E+00  1.63371661E-01  0.00000000E+00  0.00000000E+00
  0.00000000E+00  0.00000000E+00  1.01214575E+00  0.00000000E+00  0.00000000E+00
  0.00000000E+00  0.00000000E+00  0.00000000E+00  0.00000000E+00  0.00000000E+00
  0.00000000E+00  0.00000000E+00  0.00000000E+00  0.00000000E+00  1.51417601E-05
  0.00000000E+00  0.00000000E+00  1.08351853E-02  0.00000000E+00  0.00000000E+00
  0.00000000E+00  4.19107129E-09  0.00000000E+00  0.00000000E+00  0.00000000E+00
  0.00000000E+00  1.73211279E-03  0.00000000E+00  0.00000000E+00  0.00000000E+00
  0.00000000E+00  0.00000000E+00  0.00000000E+00  0.00000000E+00  6.03344850E-07
  0.00000000E+00  0.00000000E+00  1.53227862E-03  0.00000000E+00  0.00000000E+00
  4.76642816E-02  0.00000000E+00  0.00000000E+00  0.00000000E+00  2.33419641E-05
  0.00000000E+00  0.00000000E+00  0.00000000E+00  0.00000000E+00  3.36875012E-02
  0.00000000E+00  0.00000000E+00  0.00000000E+00  0.00000000E+00  0.00000000E+00
  0.00000000E+00  0.00000000E+00  0.00000000E+00 -5.92284413E-06  0.00000000E+00
  0.00000000E+00  1.49329616E-03  0.00000000E+00  0.00000000E+00  1.01765019E-01
  0.00000000E+00  0.00000000E+00  0.00000000E+00  3.86606164E-05  0.00000000E+00
  0.00000000E+00  0.00000000E+00  0.00000000E+00  3.42573084E-02  0.00000000E+00
  0.00000000E+00  0.00000000E+00  0.00000000E+00  0.00000000E+00  0.00000000E+00
  0.00000000E+00  1.16570526E-03  0.00000000E+00  0.00000000E+00  3.63316655E-02
  0.00000000E+00  0.00000000E+00  3.74725739E-01  0.00000000E+00  0.00000000E+00
  0.00000000E+00  7.49044720E-03  0.00000000E+00  0.00000000E+00  0.00000000E+00
  0.00000000E+00  3.01288848E-01  0.00000000E+00  0.00000000E+00  0.00000000E+00
  0.00000000E+00  0.00000000E+00  0.00000000E+00  0.00000000E+00  0.00000000E+00
  0.00000000E+00 -7.64311197E-03  0.00000000E+00  0.00000000E+00 -6.13822962E-03
  0.00000000E+00  0.00000000E+00  3.74227293E-01  0.00000000E+00  0.00000000E+00
  0.00000000E+00 -1.12447449E-03  0.00000000E+00  0.00000000E+00  0.00000000E+00
  0.00000000E+00  1.67662878E-01  0.00000000E+00  0.00000000E+00  0.00000000E+00
  0.00000000E+00  0.00000000E+00  0.00000000E+00  0.00000000E+00  1.07127708E-02
  0.00000000E+00  0.00000000E+00  1.51011864E-01  0.00000000E+00  0.00000000E+00
  1.18256814E+00  0.00000000E+00  0.00000000E+00  0.00000000E+00  5.89264002E-02
  0.00000000E+00  0.00000000E+00  0.00000000E+00  0.00000000E+00  8.18892765E-01
  0.00000000E+00  0.00000000E+00  0.00000000E+00  0.00000000E+00  0.00000000E+00
  0.00000000E+00  0.00000000E+00  0.00000000E+00  0.00000000E+00  0.00000000E+00
 -5.78180169E-02  0.00000000E+00  0.00000000E+00 -2.14742365E-01  0.00000000E+00
  0.00000000E+00 -1.72897160E-01  0.00000000E+00  0.00000000E+00  0.00000000E+00
  3.54957354E-02  0.00000000E+00  0.00000000E+00  0.00000000E+00  0.00000000E+00
  4.55137865E-01  0.00000000E+00  0.00000000E+00  0.00000000E+00  0.00000000E+00
  0.00000000E+00  0.00000000E+00  0.00000000E+00  5.35769704E-03  0.00000000E+00
  0.00000000E+00  8.50273170E-02  0.00000000E+00  0.00000000E+00  1.06697741E+00
  0.00000000E+00  0.00000000E+00  0.00000000E+00  8.87608741E-02  0.00000000E+00
  0.00000000E+00  0.00000000E+00  0.00000000E+00  9.76803443E-01  0.00000000E+00
  0.00000000E+00  0.00000000E+00  0.00000000E+00  0.00000000E+00  0.00000000E+00
  0.00000000E+00  0.00000000E+00  0.00000000E+00  0.00000000E+00  0.00000000E+00
  0.00000000E+00  0.00000000E+00  0.00000000E+00  0.00000000E+00  0.00000000E+00
  0.00000000E+00  0.00000000E+00  0.00000000E+00  0.00000000E+00  0.00000000E+00
  0.00000000E+00  0.00000000E+00  0.00000000E+00  0.00000000E+00  0.00000000E+00
  0.00000000E+00  0.00000000E+00  1.75998370E-04  0.00000000E+00  0.00000000E+00
  0.00000000E+00  0.00000000E+00  0.00000000E+00  0.00000000E+00  0.00000000E+00
  0.00000000E+00  0.00000000E+00  0.00000000E+00  0.00000000E+00  0.00000000E+00
  0.00000000E+00  0.00000000E+00  0.00000000E+00  0.00000000E+00  0.00000000E+00
  1.61413556E-06  0.00000000E+00  0.00000000E+00  0.00000000E+00  0.00000000E+00
  4.82580115E-03  0.00000000E+00  0.00000000E+00  0.00000000E+00  0.00000000E+00
  0.00000000E+00  0.00000000E+00  7.75615394E-05  3.25568395E-02  2.02040157E-01
  0.00000000E+00  0.00000000E+00  0.00000000E+00  0.00000000E+00  0.00000000E+00
  1.05473502E-04  0.00000000E+00  0.00000000E+00  1.23122002E-01  0.00000000E+00
  0.00000000E+00  0.00000000E+00  0.00000000E+00  0.00000000E+00  9.35945790E-03
  0.00000000E+00  0.00000000E+00 -1.75998370E-04  0.00000000E+00  7.32447113E-07
  5.03421514E-03  1.46766003E-01  2.98427543E-01  0.00000000E+00  0.00000000E+00
  9.15550544E-07  0.00000000E+00  0.00000000E+00  9.88128897E-03  0.00000000E+00
  0.00000000E+00  4.23577208E-01  3.42468025E-05  0.00000000E+00  0.00000000E+00
 -1.61413556E-06  0.00000000E+00  1.51165328E-01  0.00000000E+00  0.00000000E+00
 -4.82580115E-03  0.00000000E+00  1.96841696E+00  2.23046559E+00  1.32435529E+00
  5.27622937E-01  0.00000000E+00  0.00000000E+00  0.00000000E+00  0.00000000E+00
  0.00000000E+00  0.00000000E+00  0.00000000E+00  0.00000000E+00  0.00000000E+00
  0.00000000E+00 -2.68275830E-05  0.00000000E+00  0.00000000E+00 -7.17362187E-03
  0.00000000E+00  0.00000000E+00  0.00000000E+00  0.00000000E+00  0.00000000E+00
  0.00000000E+00  0.00000000E+00  0.00000000E+00 -2.41614979E-03  0.00000000E+00
  0.00000000E+00  0.00000000E+00  0.00000000E+00  0.00000000E+00  0.00000000E+00
  0.00000000E+00 -8.58864050E-07  0.00000000E+00  0.00000000E+00 -2.47314359E-03
  0.00000000E+00  0.00000000E+00 -2.30556992E-02  0.00000000E+00  0.00000000E+00
  0.00000000E+00 -4.13334079E-05  0.00000000E+00  0.00000000E+00  0.00000000E+00
  0.00000000E+00 -3.63121710E-02  0.00000000E+00  0.00000000E+00  0.00000000E+00
  0.00000000E+00  0.00000000E+00  0.00000000E+00  0.00000000E+00  1.77683014E-01
  0.00000000E+00  0.00000000E+00  0.00000000E+00  0.00000000E+00  0.00000000E+00
  0.00000000E+00  0.00000000E+00  0.00000000E+00  0.00000000E+00  0.00000000E+00
  0.00000000E+00  0.00000000E+00  0.00000000E+00  0.00000000E+00  0.00000000E+00
  0.00000000E+00  0.00000000E+00  0.00000000E+00  2.60585066E-06  0.00000000E+00
  0.00000000E+00  0.00000000E+00  0.00000000E+00  5.73820128E-03  0.00000000E+00
  0.00000000E+00  0.00000000E+00  0.00000000E+00  0.00000000E+00  0.00000000E+00
  0.00000000E+00  0.00000000E+00  0.00000000E+00  0.00000000E+00  0.00000000E+00
  0.00000000E+00  0.00000000E+00  0.00000000E+00  0.00000000E+00  0.00000000E+00
  0.00000000E+00  1.20664238E-03  0.00000000E+00  0.00000000E+00  0.00000000E+00
  0.00000000E+00  7.37246955E-02  0.00000000E+00  0.00000000E+00  0.00000000E+00
  0.00000000E+00  0.00000000E+00  0.00000000E+00  0.00000000E+00  0.00000000E+00
  5.31329348E-07  2.07383758E-03  1.49071162E-01  8.86493029E-01  0.00000000E+00
  0.00000000E+00  9.33730798E-07  0.00000000E+00  0.00000000E+00  3.76131499E-03
  0.00000000E+00  0.00000000E+00  4.99926321E-01  3.26318763E-05  0.00000000E+00
  0.00000000E+00 -2.60585066E-06  0.00000000E+00  6.66717483E-02  0.00000000E+00
  0.00000000E+00 -5.73820128E-03  0.00000000E+00  5.09992657E-04  4.32679134E-02
  5.70521939E-01  1.30604113E+00  0.00000000E+00  0.00000000E+00  9.33764604E-04
  0.00000000E+00  0.00000000E+00  8.28712676E-02  0.00000000E+00  0.00000000E+00
  1.47474361E+00  3.92607840E-03  0.00000000E+00  0.00000000E+00 -1.20664238E-03
  0.00000000E+00  4.91572355E-01  0.00000000E+00  0.00000000E+00 -7.37246955E-02
  0.00000000E+00  1.34410188E+00  4.09258116E+00  4.39403020E+00  2.35771839E+00
  0.00000000E+00  0.00000000E+00  1.71287901E-01  0.00000000E+00  0.00000000E+00
  0.00000000E+00  0.00000000E+00  0.00000000E+00  0.00000000E+00  0.00000000E+00
  4.80296438E-06  0.00000000E+00  0.00000000E+00 -2.91051060E-03  0.00000000E+00
  0.00000000E+00 -9.51189574E-02  0.00000000E+00  0.00000000E+00  0.00000000E+00
 -8.65323254E-05  0.00000000E+00  0.00000000E+00  0.00000000E+00  0.00000000E+00
 -5.62774395E-02  0.00000000E+00  0.00000000E+00  0.00000000E+00  0.00000000E+00
  0.00000000E+00  0.00000000E+00  0.00000000E+00 -2.47314359E-03  0.00000000E+00
  0.00000000E+00 -6.56638386E-02  0.00000000E+00  0.00000000E+00 -2.60737843E-01
  0.00000000E+00  0.00000000E+00  0.00000000E+00 -1.61119132E-02  0.00000000E+00
  0.00000000E+00  0.00000000E+00  0.00000000E+00 -3.94568106E-01  0.00000000E+00
  0.00000000E+00  0.00000000E+00  0.00000000E+00  0.00000000E+00  0.00000000E+00
  0.00000000E+00  1.71287901E-01  0.00000000E+00  0.00000000E+00  6.44329897E-01
  0.00000000E+00  0.00000000E+00  0.00000000E+00  0.00000000E+00  0.00000000E+00
  0.00000000E+00  0.00000000E+00  0.00000000E+00  0.00000000E+00  0.00000000E+00
  0.00000000E+00  0.00000000E+00  0.00000000E+00  0.00000000E+00  0.00000000E+00
  0.00000000E+00  0.00000000E+00  0.00000000E+00 -5.67346774E-03  0.00000000E+00
  0.00000000E+00  0.00000000E+00  0.00000000E+00  2.71432000E-02  0.00000000E+00
  0.00000000E+00  0.00000000E+00  0.00000000E+00  0.00000000E+00  0.00000000E+00
  0.00000000E+00  0.00000000E+00  0.00000000E+00  0.00000000E+00  0.00000000E+00
  0.00000000E+00  0.00000000E+00  0.00000000E+00  0.00000000E+00  0.00000000E+00
  0.00000000E+00  1.12339760E-02  0.00000000E+00  0.00000000E+00  0.00000000E+00
  0.00000000E+00  3.10872459E-01  0.00000000E+00  0.00000000E+00  0.00000000E+00
  0.00000000E+00  0.00000000E+00  0.00000000E+00  0.00000000E+00  0.00000000E+00
  0.00000000E+00  0.00000000E+00  0.00000000E+00 -2.40000364E-03  1.18101716E-03
  3.69477434E-01  2.91214052E+00  0.00000000E+00  0.00000000E+00 -4.38135323E-04
  0.00000000E+00  0.00000000E+00  2.34074613E-02  0.00000000E+00  0.00000000E+00
  1.09449467E+00  5.05179176E-03  0.00000000E+00  0.00000000E+00  5.67346774E-03
  0.00000000E+00  1.72326217E-01  0.00000000E+00  0.00000000E+00 -2.71432000E-02
  0.00000000E+00  4.13633033E-03  1.17317450E-01  1.17450779E+00  4.30845986E+00
  0.00000000E+00  0.00000000E+00  9.32280579E-03  0.00000000E+00  0.00000000E+00
  1.95496971E-01  0.00000000E+00  0.00000000E+00  2.57648094E+00  9.07654389E-03
  0.00000000E+00  0.00000000E+00 -1.12339760E-02  0.00000000E+00  4.17554085E-01
  0.00000000E+00  0.00000000E+00 -3.10872459E-01  0.00000000E+00  4.18055815E-01
  2.77043055E+00  7.35900561E+00  8.43395191E+00  0.00000000E+00  0.00000000E+00
  5.91902931E-02  0.00000000E+00  0.00000000E+00  6.06245580E-01  0.00000000E+00
  0.00000000E+00  0.00000000E+00  0.00000000E+00  0.00000000E+00  0.00000000E+00
  0.00000000E+00  3.02119086E-02  0.00000000E+00  0.00000000E+00  4.90611211E-02
  0.00000000E+00  0.00000000E+00 -3.79489247E-01  0.00000000E+00  0.00000000E+00
  0.00000000E+00  1.76831631E-03  0.00000000E+00  0.00000000E+00  0.00000000E+00
  0.00000000E+00 -3.08809845E-01  0.00000000E+00  0.00000000E+00  0.00000000E+00
  0.00000000E+00  0.00000000E+00  0.00000000E+00  0.00000000E+00 -2.30556992E-02
  0.00000000E+00  0.00000000E+00 -2.60737843E-01  0.00000000E+00  0.00000000E+00
 -1.00028816E+00  0.00000000E+00  0.00000000E+00  0.00000000E+00 -1.40445128E-01
  0.00000000E+00  0.00000000E+00  0.00000000E+00  0.00000000E+00 -1.12959379E+00
  0.00000000E+00  0.00000000E+00  0.00000000E+00  0.00000000E+00  0.00000000E+00
  0.00000000E+00  0.00000000E+00  5.91902931E-02  0.00000000E+00  0.00000000E+00
  6.06245580E-01  0.00000000E+00  0.00000000E+00  2.45098039E+00  0.00000000E+00
  0.00000000E+00  0.00000000E+00  0.00000000E+00  0.00000000E+00  0.00000000E+00
  0.00000000E+00  0.00000000E+00  0.00000000E+00  1.20028780E-04  0.00000000E+00
  0.00000000E+00 -8.96973732E-03  0.00000000E+00  0.00000000E+00  0.00000000E+00
  2.21877387E-07  0.00000000E+00  0.00000000E+00  0.00000000E+00  0.00000000E+00
  3.42714364E-03  0.00000000E+00  0.00000000E+00  0.00000000E+00  0.00000000E+00
  0.00000000E+00  0.00000000E+00  0.00000000E+00  2.24636536E-05  0.00000000E+00
  0.00000000E+00  5.50652330E-03  0.00000000E+00  0.00000000E+00 -5.33382343E-02
  0.00000000E+00  0.00000000E+00  0.00000000E+00  4.91628366E-04  0.00000000E+00
  0.00000000E+00  0.00000000E+00  0.00000000E+00  9.52821051E-03  0.00000000E+00
  0.00000000E+00  0.00000000E+00  0.00000000E+00  0.00000000E+00  0.00000000E+00
  0.00000000E+00 -1.10767269E+00  0.00000000E+00  0.00000000E+00 -1.43313955E+00
  0.00000000E+00  0.00000000E+00 -5.83773637E-01  0.00000000E+00  0.00000000E+00
  0.00000000E+00  0.00000000E+00  0.00000000E+00  0.00000000E+00  0.00000000E+00
  0.00000000E+00  0.00000000E+00  0.00000000E+00  0.00000000E+00  0.00000000E+00
  0.00000000E+00  0.00000000E+00  0.00000000E+00  0.00000000E+00  0.00000000E+00
  0.00000000E+00  0.00000000E+00 -1.04428912E-08  0.00000000E+00  0.00000000E+00
  0.00000000E+00  0.00000000E+00 -8.34633287E-04  0.00000000E+00  0.00000000E+00
  0.00000000E+00  0.00000000E+00  0.00000000E+00  0.00000000E+00  0.00000000E+00
  0.00000000E+00  0.00000000E+00  0.00000000E+00  0.00000000E+00  0.00000000E+00
  0.00000000E+00  0.00000000E+00  0.00000000E+00  0.00000000E+00  0.00000000E+00
 -4.16866918E-05  0.00000000E+00  0.00000000E+00  0.00000000E+00  0.00000000E+00
 -1.50248722E-02  0.00000000E+00  0.00000000E+00  0.00000000E+00  0.00000000E+00
  0.00000000E+00  0.00000000E+00  0.00000000E+00  0.00000000E+00  0.00000000E+00
  0.00000000E+00  0.00000000E+00  0.00000000E+00  0.00000000E+00  0.00000000E+00
  0.00000000E+00 -3.23557770E-09 -4.32013758E-04 -4.19401028E-02 -2.47541680E-02
  0.00000000E+00  0.00000000E+00  0.00000000E+00  0.00000000E+00  0.00000000E+00
 -7.00206339E-04  0.00000000E+00  0.00000000E+00 -1.28573035E-01 -2.44912329E-07
  0.00000000E+00  0.00000000E+00  1.04428912E-08  0.00000000E+00 -2.75316188E-02
  0.00000000E+00  0.00000000E+00  8.34633287E-04  0.00000000E+00 -1.96907095E-05
 -1.71013583E-02 -1.32770824E-01 -8.45123681E-03  0.00000000E+00  0.00000000E+00
 -3.17546360E-05  0.00000000E+00  0.00000000E+00 -3.61441582E-02  0.00000000E+00
  0.00000000E+00 -2.60253831E-01 -5.39764012E-04  0.00000000E+00  0.00000000E+00
  4.16866918E-05  0.00000000E+00 -2.55743184E-01  0.00000000E+00  0.00000000E+00
  1.50248722E-02  0.00000000E+00  1.86621370E-01  4.32246747E-01  3.36623363E-01
  1.49740957E-01  0.00000000E+00  0.00000000E+00  1.91854538E+00  0.00000000E+00
  0.00000000E+00  2.48227052E+00  0.00000000E+00  0.00000000E+00  1.01112560E+00
  1.36553990E-01  0.00000000E+00  0.00000000E+00  0.00000000E+00  0.00000000E+00
  0.00000000E+00  0.00000000E+00  0.00000000E+00  0.00000000E+00  0.00000000E+00
  0.00000000E+00 -3.59096593E-05  0.00000000E+00  0.00000000E+00 -2.67278852E-02
  0.00000000E+00  0.00000000E+00  0.00000000E+00 -1.14685743E-08  0.00000000E+00
  0.00000000E+00  0.00000000E+00  0.00000000E+00 -4.02207207E-03  0.00000000E+00
  0.00000000E+00  0.00000000E+00  0.00000000E+00  0.00000000E+00  0.00000000E+00
  0.00000000E+00 -1.21260930E-06  0.00000000E+00  0.00000000E+00 -3.28716751E-03
  0.00000000E+00  0.00000000E+00 -1.16414830E-01  0.00000000E+00  0.00000000E+00
  0.00000000E+00 -4.53896053E-05  0.00000000E+00  0.00000000E+00  0.00000000E+00
  0.00000000E+00 -7.43266064E-02  0.00000000E+00  0.00000000E+00  0.00000000E+00
  0.00000000E+00  0.00000000E+00  0.00000000E+00  0.00000000E+00 -1.91854538E+00
  0.00000000E+00  0.00000000E+00 -2.48227052E+00  0.00000000E+00  0.00000000E+00
 -1.01112560E+00  0.00000000E+00  0.00000000E+00  0.00000000E+00 -2.36518448E-01
  0.00000000E+00  0.00000000E+00  0.00000000E+00  0.00000000E+00  0.00000000E+00
  0.00000000E+00  0.00000000E+00  0.00000000E+00  3.59096593E-05  0.00000000E+00
  0.00000000E+00  2.67278852E-02  0.00000000E+00  0.00000000E+00  0.00000000E+00
  1.14685743E-08  0.00000000E+00  0.00000000E+00  0.00000000E+00  0.00000000E+00
  4.02207207E-03  0.00000000E+00  0.00000000E+00  0.00000000E+00  0.00000000E+00
  0.00000000E+00  0.00000000E+00  0.00000000E+00  1.21260930E-06  0.00000000E+00
  0.00000000E+00  3.28716751E-03  0.00000000E+00  0.00000000E+00  1.16414830E-01
  0.00000000E+00  0.00000000E+00  0.00000000E+00  4.53896053E-05  0.00000000E+00
  0.00000000E+00  0.00000000E+00  0.00000000E+00  7.43266064E-02  0.00000000E+00
  0.00000000E+00  0.00000000E+00  0.00000000E+00  0.00000000E+00  0.00000000E+00
  0.00000000E+00  1.91854538E+00  0.00000000E+00  0.00000000E+00  2.48227052E+00
  0.00000000E+00  0.00000000E+00  1.01112560E+00  0.00000000E+00  0.00000000E+00
  0.00000000E+00  2.36518448E-01  0.00000000E+00  0.00000000E+00  0.00000000E+00
  0.00000000E+00  0.00000000E+00  0.00000000E+00  0.00000000E+00  0.00000000E+00
 -1.49757720E-03  0.00000000E+00  0.00000000E+00  1.24709984E-02  0.00000000E+00
  0.00000000E+00  2.62464949E-03  0.00000000E+00  0.00000000E+00  0.00000000E+00
 -4.24216658E-04  0.00000000E+00  0.00000000E+00  0.00000000E+00  0.00000000E+00
  1.28355350E-01  0.00000000E+00  0.00000000E+00  0.00000000E+00  0.00000000E+00
  0.00000000E+00  0.00000000E+00  0.00000000E+00  1.99866102E-02  0.00000000E+00
  0.00000000E+00  1.73610454E-01  0.00000000E+00  0.00000000E+00 -2.17086126E-01
  0.00000000E+00  0.00000000E+00  0.00000000E+00  8.85926403E-02  0.00000000E+00
  0.00000000E+00  0.00000000E+00  0.00000000E+00  3.45119894E-01  0.00000000E+00
  0.00000000E+00  0.00000000E+00  0.00000000E+00  0.00000000E+00  0.00000000E+00
  0.00000000E+00 -3.51049277E-01  0.00000000E+00  0.00000000E+00 -2.00081230E+00
  0.00000000E+00  0.00000000E+00 -3.06010233E+00  0.00000000E+00  0.00000000E+00
  0.00000000E+00  9.43226723E-02  0.00000000E+00  0.00000000E+00  0.00000000E+00
  0.00000000E+00  0.00000000E+00  0.00000000E+00  0.00000000E+00  0.00000000E+00
  0.00000000E+00  0.00000000E+00  0.00000000E+00  0.00000000E+00  0.00000000E+00
  0.00000000E+00  0.00000000E+00  0.00000000E+00  0.00000000E+00  0.00000000E+00
  0.00000000E+00  0.00000000E+00  3.77144880E-04  0.00000000E+00  0.00000000E+00
  0.00000000E+00  0.00000000E+00 -3.81823574E-02  0.00000000E+00  0.00000000E+00
  0.00000000E+00  0.00000000E+00  0.00000000E+00  0.00000000E+00  0.00000000E+00
  0.00000000E+00  0.00000000E+00  0.00000000E+00  0.00000000E+00  0.00000000E+00
  0.00000000E+00  0.00000000E+00  0.00000000E+00  0.00000000E+00  0.00000000E+00
 -1.50248722E-02  0.00000000E+00  0.00000000E+00  0.00000000E+00  0.00000000E+00
 -2.91563001E-01  0.00000000E+00  0.00000000E+00  0.00000000E+00  0.00000000E+00
  0.00000000E+00  0.00000000E+00  0.00000000E+00  0.00000000E+00  0.00000000E+00
  0.00000000E+00  0.00000000E+00  0.00000000E+00  0.00000000E+00  0.00000000E+00
  0.00000000E+00  0.00000000E+00  0.00000000E+00  1.63371661E-01  0.00000000E+00
  0.00000000E+00  1.97842556E-04 -1.43759137E-02 -3.03894122E-01 -1.78026328E-01
  0.00000000E+00  0.00000000E+00  1.51280468E-04  0.00000000E+00  0.00000000E+00
 -2.80389473E-02  0.00000000E+00  0.00000000E+00 -7.69447550E-01 -9.17834359E-04
  0.00000000E+00  0.00000000E+00 -3.77144880E-04  0.00000000E+00 -2.20282094E-01
  0.00000000E+00  0.00000000E+00  3.81823574E-02  0.00000000E+00 -6.16659740E-03
 -1.71123109E-01 -7.78896920E-01 -1.73956355E-02  0.00000000E+00  0.00000000E+00
 -1.10517105E-02  0.00000000E+00  0.00000000E+00 -2.95028494E-01  0.00000000E+00
  0.00000000E+00 -1.22330691E+00 -2.21661511E-02  0.00000000E+00  0.00000000E+00
  1.50248722E-02  0.00000000E+00 -6.81787848E-01  0.00000000E+00  0.00000000E+00
  2.91563001E-01  0.00000000E+00  7.11458243E-02  7.42108557E-01  1.75593236E+00
  1.47280833E+00  0.00000000E+00  0.00000000E+00  6.08035184E-01  0.00000000E+00
  0.00000000E+00  3.46550856E+00  0.00000000E+00  0.00000000E+00  5.30025272E+00
  9.43226723E-02  0.00000000E+00  0.00000000E+00 -1.63371661E-01  0.00000000E+00
  5.84362621E-01  0.00000000E+00  0.00000000E+00  0.00000000E+00  0.00000000E+00
  0.00000000E+00  0.00000000E+00  0.00000000E+00  2.36091123E-05  0.00000000E+00
  0.00000000E+00 -2.37398843E-03  0.00000000E+00  0.00000000E+00 -2.15169754E-01
  0.00000000E+00  0.00000000E+00  0.00000000E+00 -1.71141275E-05  0.00000000E+00
  0.00000000E+00  0.00000000E+00  0.00000000E+00 -5.73114858E-02  0.00000000E+00
  0.00000000E+00  0.00000000E+00  0.00000000E+00  0.00000000E+00  0.00000000E+00
  0.00000000E+00 -8.47173337E-04  0.00000000E+00  0.00000000E+00 -4.69329892E-02
  0.00000000E+00  0.00000000E+00 -7.52798994E-01  0.00000000E+00  0.00000000E+00
  0.00000000E+00 -5.85480160E-03  0.00000000E+00  0.00000000E+00  0.00000000E+00
  0.00000000E+00 -4.21286808E-01  0.00000000E+00  0.00000000E+00  0.00000000E+00
  0.00000000E+00  0.00000000E+00  0.00000000E+00  0.00000000E+00 -6.08035184E-01
  0.00000000E+00  0.00000000E+00 -3.46550856E+00  0.00000000E+00  0.00000000E+00
 -5.30025272E+00  0.00000000E+00  0.00000000E+00  0.00000000E+00 -1.63371661E-01
  0.00000000E+00  0.00000000E+00  0.00000000E+00  0.00000000E+00 -1.01214575E+00
  0.00000000E+00  0.00000000E+00  0.00000000E+00  0.00000000E+00  0.00000000E+00
 -2.36091123E-05  0.00000000E+00  0.00000000E+00  2.37398843E-03  0.00000000E+00
  0.00000000E+00  2.15169754E-01  0.00000000E+00  0.00000000E+00  0.00000000E+00
  1.71141275E-05  0.00000000E+00  0.00000000E+00  0.00000000E+00  0.00000000E+00
  5.73114858E-02  0.00000000E+00  0.00000000E+00  0.00000000E+00  0.00000000E+00
  0.00000000E+00  0.00000000E+00  0.00000000E+00  8.47173337E-04  0.00000000E+00
  0.00000000E+00  4.69329892E-02  0.00000000E+00  0.00000000E+00  7.52798994E-01
  0.00000000E+00  0.00000000E+00  0.00000000E+00  5.85480160E-03  0.00000000E+00
  0.00000000E+00  0.00000000E+00  0.00000000E+00  4.21286808E-01  0.00000000E+00
  0.00000000E+00  0.00000000E+00  0.00000000E+00  0.00000000E+00  0.00000000E+00
  0.00000000E+00  6.08035184E-01  0.00000000E+00  0.00000000E+00  3.46550856E+00
  0.00000000E+00  0.00000000E+00  5.30025272E+00  0.00000000E+00  0.00000000E+00
  0.00000000E+00  1.63371661E-01  0.00000000E+00  0.00000000E+00  0.00000000E+00
  0.00000000E+00  1.01214575E+00  0.00000000E+00  0.00000000E+00  0.00000000E+00
Multipole Matrix (0,0,2)                   R   N=        2415
  2.21311531E+00  1.66038688E+00  2.80406379E+00  9.00055137E-01  2.52723646E+00
  4.47099645E+00  3.47463811E-01  1.28590936E+00  4.22210848E+00  1.19337923E+01
  0.00000000E+00  0.00000000E+00  0.00000000E+00  0.00000000E+00  2.21440488E+00
  0.00000000E+00  0.00000000E+00  0.00000000E+00  0.00000000E+00  0.00000000E+00
  2.21440488E+00 -1.19116592E+00 -1.34974176E+00 -8.01419064E-01 -3.19285228E-01
  0.00000000E+00  0.00000000E+00  2.56977091E+00  0.00000000E+00  0.00000000E+00
  0.00000000E+00  0.00000000E+00  1.42371617E+00  0.00000000E+00  0.00000000E+00
  2.68105176E+00  0.00000000E+00  0.00000000E+00  0.00000000E+00  0.00000000E+00
  0.00000000E+00  1.42371617E+00  0.00000000E+00  0.00000000E+00  2.68105176E+00
 -8.13368497E-01 -2.47658056E+00 -2.65899914E+00 -1.42674740E+00  0.00000000E+00
  0.00000000E+00  1.76629197E+00  0.00000000E+00  0.00000000E+00  3.96971156E+00
  0.00000000E+00  0.00000000E+00  0.00000000E+00  0.00000000E+00  4.23022761E-01
  0.00000000E+00  0.00000000E+00  1.81630414E+00  0.00000000E+00  0.00000000E+00
  4.48770226E+00  0.00000000E+00  0.00000000E+00  0.00000000E+00  0.00000000E+00
  0.00000000E+00  4.23022761E-01  0.00000000E+00  0.00000000E+00  1.81630414E+00
  0.00000000E+00  0.00000000E+00  4.48770226E+00 -2.52981887E-01 -1.67649563E+00
 -4.45322146E+00 -5.10371341E+00  0.00000000E+00  0.00000000E+00  5.41403347E-01
  0.00000000E+00  0.00000000E+00  3.02879530E+00  0.00000000E+00  0.00000000E+00
  9.38966304E+00  2.15491797E-01  4.99115551E-01  3.88699178E-01  1.72905964E-01
  0.00000000E+00  0.00000000E+00 -1.34059194E+00  0.00000000E+00  0.00000000E+00
 -1.73449733E+00  0.00000000E+00  0.00000000E+00 -7.06528415E-01  2.90395618E+00
  0.00000000E+00  0.00000000E+00  0.00000000E+00  0.00000000E+00 -1.16098667E+00
  0.00000000E+00  0.00000000E+00 -1.50211875E+00  0.00000000E+00  0.00000000E+00
 -6.11871556E-01  0.00000000E+00  0.00000000E+00  0.00000000E+00  2.74627721E+00
  0.00000000E+00  0.00000000E+00  0.00000000E+00  0.00000000E+00  0.00000000E+00
 -1.16098667E+00  0.00000000E+00  0.00000000E+00 -1.50211875E+00  0.00000000E+00
  0.00000000E+00 -6.11871556E-01  0.00000000E+00  0.00000000E+00  0.00000000E+00
  2.74627721E+00  7.45893788E-18 -7.29626578E-17 -2.90190587E-17 -2.33376256E-17
  0.00000000E+00  0.00000000E+00 -1.46278484E-17  0.00000000E+00  0.00000000E+00
  3.57724385E-17  0.00000000E+00  0.00000000E+00  1.61505358E-17  4.53379589E-17
  0.00000000E+00  0.00000000E+00  2.27324031E+00  0.00000000E+00  0.00000000E+00
  0.00000000E+00  0.00000000E+00  0.00000000E+00  0.00000000E+00  0.00000000E+00
  0.00000000E+00  0.00000000E+00  0.00000000E+00  0.00000000E+00  0.00000000E+00
  0.00000000E+00  0.00000000E+00  0.00000000E+00  0.00000000E+00  0.00000000E+00
  2.27324031E+00  8.21521216E-02  8.56913150E-01  2.02757604E+00  1.70065257E+00
  0.00000000E+00  0.00000000E+00 -4.24867233E-01  0.00000000E+00  0.00000000E+00
 -2.42153919E+00  0.00000000E+00  0.00000000E+00 -3.70357467E+00  1.46682221E+00
  0.00000000E+00  0.00000000E+00  6.33129183E-18  0.00000000E+00  5.74792295E+00
  0.00000000E+00  0.00000000E+00  0.00000000E+00  0.00000000E+00 -3.67945817E-01
  0.00000000E+00  0.00000000E+00 -2.09711446E+00  0.00000000E+00  0.00000000E+00
 -3.20738975E+00  0.00000000E+00  0.00000000E+00  0.00000000E+00  1.35790777E+00
  0.00000000E+00  0.00000000E+00  0.00000000E+00  0.00000000E+00  5.07315911E+00
  0.00000000E+00  0.00000000E+00  0.00000000E+00  0.00000000E+00  0.00000000E+00
 -3.67945817E-01  0.00000000E+00  0.00000000E+00 -2.09711446E+00  0.00000000E+00
  0.00000000E+00 -3.20738975E+00  0.00000000E+00  0.00000000E+00  0.00000000E+00
  1.35790777E+00  0.00000000E+00  0.00000000E+00  0.00000000E+00  0.00000000E+00
  5.07315911E+00 -1.13824454E-17 -3.68947333E-17 -6.00535190E-17 -1.03046159E-16
  0.00000000E+00  0.00000000E+00  4.69768871E-18  0.00000000E+00  0.00000000E+00
  8.53383793E-17  0.00000000E+00  0.00000000E+00 -9.52015871E-17  1.08221220E-17
  0.00000000E+00  0.00000000E+00  1.03116445E+00  0.00000000E+00  1.86920862E-17
  0.00000000E+00  0.00000000E+00  3.04886762E+00  0.00000000E+00  0.00000000E+00
  0.00000000E+00  0.00000000E+00  0.00000000E+00  0.00000000E+00  0.00000000E+00
  0.00000000E+00  0.00000000E+00  0.00000000E+00  0.00000000E+00  0.00000000E+00
  0.00000000E+00  0.00000000E+00  0.00000000E+00  0.00000000E+00  0.00000000E+00
  1.03116445E+00  0.00000000E+00  0.00000000E+00  0.00000000E+00  0.00000000E+00
  3.04886762E+00  1.88424978E-01  1.69569371E-01  1.18761716E-01  5.41903899E-02
  0.00000000E+00  0.00000000E+00  1.23703080E-01  0.00000000E+00  0.00000000E+00
  1.23956173E-01  0.00000000E+00  0.00000000E+00  8.26750274E-02  2.42764692E-02
  0.00000000E+00  0.00000000E+00  4.56608530E-18  0.00000000E+00  9.09928389E-02
  0.00000000E+00  0.00000000E+00  1.60057890E-18  0.00000000E+00  1.76393444E-01
  6.68671862E-01  9.16088328E-01  8.63887175E-01  5.08238728E-01  0.00000000E+00
  0.00000000E+00 -2.20874874E-01  0.00000000E+00  0.00000000E+00 -2.05977002E-01
  0.00000000E+00  0.00000000E+00  2.57723529E-01 -1.07596683E-01  0.00000000E+00
  0.00000000E+00 -5.39456971E-17  0.00000000E+00  2.55295881E-01  0.00000000E+00
  0.00000000E+00 -2.33741026E-17  0.00000000E+00  2.21880681E-01  7.67341928E-01
  6.49774024E-01  1.57743124E+00  2.65116300E+00  2.71726872E+00  0.00000000E+00
  0.00000000E+00 -4.72367104E-01  0.00000000E+00  0.00000000E+00 -1.25142048E+00
  0.00000000E+00  0.00000000E+00 -7.84430053E-01  1.05564620E-01  0.00000000E+00
  0.00000000E+00 -1.68929806E-17  0.00000000E+00  8.99240870E-01  0.00000000E+00
  0.00000000E+00 -3.49678107E-17  0.00000000E+00  1.39282807E-01  9.20511195E-01
  2.43427459E+00  3.19373646E-01  1.12586851E+00  3.55736030E+00  1.01419763E+01
  0.00000000E+00  0.00000000E+00 -2.80448267E-01  0.00000000E+00  0.00000000E+00
 -1.17317292E+00  0.00000000E+00  0.00000000E+00 -3.27749296E+00  1.32411540E-01
  0.00000000E+00  0.00000000E+00 -1.08171790E-17  0.00000000E+00  1.33489054E+00
  0.00000000E+00  0.00000000E+00 -1.54808135E-17  0.00000000E+00  5.68664226E-02
  5.29175765E-01  2.77544267E+00  9.89707047E+00  0.00000000E+00  0.00000000E+00
  0.00000000E+00  0.00000000E+00  1.63907414E-01  0.00000000E+00  0.00000000E+00
  1.23692989E-01  0.00000000E+00  0.00000000E+00  5.01366424E-02  0.00000000E+00
  0.00000000E+00  0.00000000E+00  1.30358737E-01  0.00000000E+00  0.00000000E+00
  0.00000000E+00  0.00000000E+00  8.15243009E-02  0.00000000E+00  0.00000000E+00
  0.00000000E+00  0.00000000E+00  0.00000000E+00  0.00000000E+00  0.00000000E+00
  1.77683014E-01  0.00000000E+00  0.00000000E+00  0.00000000E+00  0.00000000E+00
  0.00000000E+00  1.63907414E-01  0.00000000E+00  0.00000000E+00  1.23692989E-01
  0.00000000E+00  0.00000000E+00  5.01366424E-02  0.00000000E+00  0.00000000E+00
  0.00000000E+00  1.30358737E-01  0.00000000E+00  0.00000000E+00  0.00000000E+00
  0.00000000E+00  8.15243009E-02  0.00000000E+00  0.00000000E+00  0.00000000E+00
  0.00000000E+00  0.00000000E+00  0.00000000E+00  0.00000000E+00  1.77683014E-01
 -4.16366099E-01 -2.40571945E-01 -6.79311263E-02 -8.03516587E-03  0.00000000E+00
  0.00000000E+00 -2.20995156E-01  0.00000000E+00  0.00000000E+00 -1.05954555E-02
  0.00000000E+00  0.00000000E+00  9.32013608E-02  3.68162359E-02  0.00000000E+00
  0.00000000E+00  1.13187629E-17  0.00000000E+00  1.85641977E-01  0.00000000E+00
  0.00000000E+00  2.36360180E-19  0.00000000E+00  0.00000000E+00  0.00000000E+00
  0.00000000E+00  0.00000000E+00  0.00000000E+00  0.00000000E+00  5.33049041E-01
  0.00000000E+00  0.00000000E+00  0.00000000E+00  0.00000000E+00  5.06382914E-01
  0.00000000E+00  0.00000000E+00  7.77000520E-01  0.00000000E+00  0.00000000E+00
  5.58769398E-01  0.00000000E+00  0.00000000E+00  0.00000000E+00 -1.46953335E-01
  0.00000000E+00  0.00000000E+00  0.00000000E+00  0.00000000E+00  5.56745922E-02
  0.00000000E+00  0.00000000E+00  0.00000000E+00  0.00000000E+00  0.00000000E+00
  0.00000000E+00  0.00000000E+00  1.71287901E-01  0.00000000E+00  0.00000000E+00
  6.44329897E-01  0.00000000E+00  0.00000000E+00  0.00000000E+00  0.00000000E+00
  0.00000000E+00  5.06382914E-01  0.00000000E+00  0.00000000E+00  7.77000520E-01
  0.00000000E+00  0.00000000E+00  5.58769398E-01  0.00000000E+00  0.00000000E+00
  0.00000000E+00 -1.46953335E-01  0.00000000E+00  0.00000000E+00  0.00000000E+00
  0.00000000E+00  5.56745922E-02  0.00000000E+00  0.00000000E+00  0.00000000E+00
  0.00000000E+00  0.00000000E+00  0.00000000E+00  0.00000000E+00  1.71287901E-01
  0.00000000E+00  0.00000000E+00  6.44329897E-01 -1.18762794E+00 -1.42083783E+00
 -7.28162087E-01 -1.24905095E-01  0.00000000E+00  0.00000000E+00  6.63374139E-01
  0.00000000E+00  0.00000000E+00  1.03101405E+00  0.00000000E+00  0.00000000E+00
  1.15406921E+00  9.42008568E-02  0.00000000E+00  0.00000000E+00 -4.77130486E-17
  0.00000000E+00  6.64715504E-01  0.00000000E+00  0.00000000E+00  1.43028822E-17
  0.00000000E+00  0.00000000E+00  0.00000000E+00  0.00000000E+00  0.00000000E+00
  0.00000000E+00  0.00000000E+00  5.13863703E-01  0.00000000E+00  0.00000000E+00
  1.93298969E+00  0.00000000E+00  0.00000000E+00  0.00000000E+00  0.00000000E+00
  3.09374546E-01  0.00000000E+00  0.00000000E+00  1.15791811E+00  0.00000000E+00
  0.00000000E+00  2.66811117E+00  0.00000000E+00  0.00000000E+00  0.00000000E+00
 -3.51955818E-01  0.00000000E+00  0.00000000E+00  0.00000000E+00  0.00000000E+00
 -1.26687343E+00  0.00000000E+00  0.00000000E+00  0.00000000E+00  0.00000000E+00
  0.00000000E+00  0.00000000E+00  0.00000000E+00  5.91902931E-02  0.00000000E+00
  0.00000000E+00  6.06245580E-01  0.00000000E+00  0.00000000E+00  2.45098039E+00
  0.00000000E+00  0.00000000E+00  0.00000000E+00  0.00000000E+00  0.00000000E+00
  3.09374546E-01  0.00000000E+00  0.00000000E+00  1.15791811E+00  0.00000000E+00
  0.00000000E+00  2.66811117E+00  0.00000000E+00  0.00000000E+00  0.00000000E+00
 -3.51955818E-01  0.00000000E+00  0.00000000E+00  0.00000000E+00  0.00000000E+00
 -1.26687343E+00  0.00000000E+00  0.00000000E+00  0.00000000E+00  0.00000000E+00
  0.00000000E+00  0.00000000E+00  0.00000000E+00  5.91902931E-02  0.00000000E+00
  0.00000000E+00  6.06245580E-01  0.00000000E+00  0.00000000E+00  2.45098039E+00
 -7.38238160E-01 -2.18570769E+00 -3.23088081E+00 -1.46810514E+00  0.00000000E+00
  0.00000000E+00  7.70484658E-01  0.00000000E+00  0.00000000E+00  2.75439467E+00
  0.00000000E+00  0.00000000E+00  6.53215571E+00 -4.53264138E-01  0.00000000E+00
  0.00000000E+00  4.39397670E-17  0.00000000E+00 -1.24943253E+00  0.00000000E+00
  0.00000000E+00  8.11561270E-17  0.00000000E+00  0.00000000E+00  0.00000000E+00
  0.00000000E+00  0.00000000E+00  0.00000000E+00  0.00000000E+00  1.77570879E-01
  0.00000000E+00  0.00000000E+00  1.81873674E+00  0.00000000E+00  0.00000000E+00
  7.35294118E+00  8.36614418E-01  5.50185431E-01  3.51202470E-01  1.65420372E-01
  0.00000000E+00  0.00000000E+00 -6.99142333E-02  0.00000000E+00  0.00000000E+00
  1.44531632E-03  0.00000000E+00  0.00000000E+00  1.60615162E-01 -9.91619721E-02
  0.00000000E+00  0.00000000E+00 -2.11571988E-17  0.00000000E+00  2.30201523E-01
  0.00000000E+00  0.00000000E+00  2.30680778E-18  0.00000000E+00  2.15491797E-01
  4.99115551E-01  3.88699178E-01  1.72905964E-01  0.00000000E+00  0.00000000E+00
  0.00000000E+00  0.00000000E+00  0.00000000E+00  0.00000000E+00  0.00000000E+00
  0.00000000E+00  0.00000000E+00  8.67234311E-01  0.00000000E+00  0.00000000E+00
  0.00000000E+00  0.00000000E+00 -6.08171105E-01  0.00000000E+00  0.00000000E+00
 -3.87412366E-01  0.00000000E+00  0.00000000E+00 -6.76467896E-02  0.00000000E+00
  0.00000000E+00  0.00000000E+00 -1.31765584E-01  0.00000000E+00  0.00000000E+00
  0.00000000E+00  0.00000000E+00  1.05362545E-01  0.00000000E+00  0.00000000E+00
  0.00000000E+00  0.00000000E+00  0.00000000E+00  0.00000000E+00  0.00000000E+00
  0.00000000E+00  0.00000000E+00  0.00000000E+00  0.00000000E+00  0.00000000E+00
  0.00000000E+00  0.00000000E+00  0.00000000E+00  0.00000000E+00  0.00000000E+00
  7.09555345E-01  0.00000000E+00  0.00000000E+00  0.00000000E+00  0.00000000E+00
  0.00000000E+00 -6.08171105E-01  0.00000000E+00  0.00000000E+00 -3.87412366E-01
  0.00000000E+00  0.00000000E+00 -6.76467896E-02  0.00000000E+00  0.00000000E+00
  0.00000000E+00 -1.31765584E-01  0.00000000E+00  0.00000000E+00  0.00000000E+00
  0.00000000E+00  1.05362545E-01  0.00000000E+00  0.00000000E+00  0.00000000E+00
  0.00000000E+00  0.00000000E+00  0.00000000E+00  0.00000000E+00  0.00000000E+00
  0.00000000E+00  0.00000000E+00  0.00000000E+00  0.00000000E+00  0.00000000E+00
  0.00000000E+00  0.00000000E+00  0.00000000E+00  0.00000000E+00  7.09555345E-01
  2.39724994E-18  6.21254962E-18  3.63564589E-18 -5.62153728E-18  0.00000000E+00
  0.00000000E+00 -2.40546416E-18  0.00000000E+00  0.00000000E+00 -2.72408092E-18
  0.00000000E+00  0.00000000E+00 -1.97862799E-18  7.32110145E-19  0.00000000E+00
  0.00000000E+00  2.54147400E-01  0.00000000E+00 -1.78875818E-18  0.00000000E+00
  0.00000000E+00  1.29371542E-01  0.00000000E+00  3.43853382E-18 -3.07026618E-18
  1.14634663E-17  3.05936674E-18  0.00000000E+00  0.00000000E+00  0.00000000E+00
  0.00000000E+00  0.00000000E+00  0.00000000E+00  0.00000000E+00  0.00000000E+00
  0.00000000E+00 -2.96956932E-18  0.00000000E+00  0.00000000E+00  2.36518448E-01
  0.00000000E+00  0.00000000E+00  0.00000000E+00  0.00000000E+00  0.00000000E+00
  0.00000000E+00  0.00000000E+00  0.00000000E+00  0.00000000E+00  0.00000000E+00
  0.00000000E+00  0.00000000E+00  0.00000000E+00  0.00000000E+00  0.00000000E+00
  0.00000000E+00  0.00000000E+00  2.54147400E-01  0.00000000E+00  0.00000000E+00
  0.00000000E+00  0.00000000E+00  1.29371542E-01  0.00000000E+00  0.00000000E+00
  0.00000000E+00  0.00000000E+00  0.00000000E+00  0.00000000E+00  0.00000000E+00
  0.00000000E+00  0.00000000E+00  0.00000000E+00  0.00000000E+00  0.00000000E+00
  0.00000000E+00  0.00000000E+00  0.00000000E+00  0.00000000E+00  0.00000000E+00
  2.36518448E-01  1.06844530E+00  2.04176132E+00  2.29952739E+00  1.66191097E+00
  0.00000000E+00  0.00000000E+00 -1.21908729E+00  0.00000000E+00  0.00000000E+00
 -2.42694571E+00  0.00000000E+00  0.00000000E+00 -9.66328748E-01  8.44563189E-01
  0.00000000E+00  0.00000000E+00 -4.85393274E-17  0.00000000E+00  2.06016464E+00
  0.00000000E+00  0.00000000E+00 -4.22538959E-17  0.00000000E+00  8.21521216E-02
  8.56913150E-01  2.02757604E+00  1.70065257E+00  0.00000000E+00  0.00000000E+00
  0.00000000E+00  0.00000000E+00  0.00000000E+00  0.00000000E+00  0.00000000E+00
  0.00000000E+00  0.00000000E+00  5.99029423E-01  0.00000000E+00  0.00000000E+00
 -3.73488910E-18  0.00000000E+00  3.71120108E+00  0.00000000E+00  0.00000000E+00
  0.00000000E+00  0.00000000E+00 -8.03403654E-01  0.00000000E+00  0.00000000E+00
 -1.86842384E+00  0.00000000E+00  0.00000000E+00 -1.26298024E+00  0.00000000E+00
  0.00000000E+00  0.00000000E+00  8.88552054E-01  0.00000000E+00  0.00000000E+00
  0.00000000E+00  0.00000000E+00  2.16196561E+00  0.00000000E+00  0.00000000E+00
  0.00000000E+00  0.00000000E+00  0.00000000E+00  0.00000000E+00  0.00000000E+00
  0.00000000E+00  0.00000000E+00  0.00000000E+00  0.00000000E+00  0.00000000E+00
  0.00000000E+00  0.00000000E+00  0.00000000E+00  0.00000000E+00  0.00000000E+00
  4.90114982E-01  0.00000000E+00  0.00000000E+00  0.00000000E+00  0.00000000E+00
  3.03643725E+00  0.00000000E+00  0.00000000E+00  0.00000000E+00  0.00000000E+00
  0.00000000E+00 -8.03403654E-01  0.00000000E+00  0.00000000E+00 -1.86842384E+00
  0.00000000E+00  0.00000000E+00 -1.26298024E+00  0.00000000E+00  0.00000000E+00
  0.00000000E+00  8.88552054E-01  0.00000000E+00  0.00000000E+00  0.00000000E+00
  0.00000000E+00  2.16196561E+00  0.00000000E+00  0.00000000E+00  0.00000000E+00
  0.00000000E+00  0.00000000E+00  0.00000000E+00  0.00000000E+00  0.00000000E+00
  0.00000000E+00  0.00000000E+00  0.00000000E+00  0.00000000E+00  0.00000000E+00
  0.00000000E+00  0.00000000E+00  0.00000000E+00  0.00000000E+00  4.90114982E-01
  0.00000000E+00  0.00000000E+00  0.00000000E+00  0.00000000E+00  3.03643725E+00
 -2.72858888E-18 -1.79290752E-17 -1.18833115E-17 -4.57598897E-18  0.00000000E+00
  0.00000000E+00 -2.34658450E-18  0.00000000E+00  0.00000000E+00  1.11073131E-17
  0.00000000E+00  0.00000000E+00  1.55573378E-18 -1.06730007E-17  0.00000000E+00
  0.00000000E+00  4.87902613E-01  0.00000000E+00  8.90963759E-18  0.00000000E+00
  0.00000000E+00  1.18299258E+00  0.00000000E+00  2.81094821E-18  1.49833751E-17
 -2.78285986E-18  5.45854177E-17  0.00000000E+00  0.00000000E+00  0.00000000E+00
  0.00000000E+00  0.00000000E+00  0.00000000E+00  0.00000000E+00  0.00000000E+00
  0.00000000E+00 -7.91269418E-19  0.00000000E+00  0.00000000E+00  1.63371661E-01
  0.00000000E+00  8.62295285E-19  0.00000000E+00  0.00000000E+00  1.01214575E+00
  0.00000000E+00  0.00000000E+00  0.00000000E+00  0.00000000E+00  0.00000000E+00
  0.00000000E+00  0.00000000E+00  0.00000000E+00  0.00000000E+00  0.00000000E+00
  0.00000000E+00  0.00000000E+00  0.00000000E+00  0.00000000E+00  0.00000000E+00
  0.00000000E+00  0.00000000E+00  4.87902613E-01  0.00000000E+00  0.00000000E+00
  0.00000000E+00  0.00000000E+00  1.18299258E+00  0.00000000E+00  0.00000000E+00
  0.00000000E+00  0.00000000E+00  0.00000000E+00  0.00000000E+00  0.00000000E+00
  0.00000000E+00  0.00000000E+00  0.00000000E+00  0.00000000E+00  0.00000000E+00
  0.00000000E+00  0.00000000E+00  0.00000000E+00  0.00000000E+00  0.00000000E+00
  1.63371661E-01  0.00000000E+00  0.00000000E+00  0.00000000E+00  0.00000000E+00
  1.01214575E+00  0.00000000E+00  5.19631004E-04  1.91655118E-01  1.20484572E+00
  0.00000000E+00  0.00000000E+00  0.00000000E+00  0.00000000E+00  0.00000000E+00
  7.46574223E-04  0.00000000E+00  0.00000000E+00  7.30015449E-01  7.29087745E-08
  0.00000000E+00  0.00000000E+00  1.01368721E-25  0.00000000E+00  5.84642219E-02
  0.00000000E+00  0.00000000E+00 -1.46878067E-20  0.00000000E+00  1.05603523E-05
  3.25053224E-02  8.75995306E-01  1.79002715E+00  0.00000000E+00  0.00000000E+00
  1.58636228E-05  0.00000000E+00  0.00000000E+00  6.58243022E-02  0.00000000E+00
  0.00000000E+00  2.55779219E+00  4.16639063E-04  0.00000000E+00  0.00000000E+00
  7.65737608E-23  0.00000000E+00  9.57474515E-01  0.00000000E+00  0.00000000E+00
 -7.95572139E-19  0.00000000E+00  2.24239029E+01  1.56572559E-05  7.41635518E-03
  4.83955743E-01  3.02071333E+00  0.00000000E+00  0.00000000E+00  1.97595912E-05
  0.00000000E+00  0.00000000E+00  1.42600309E-02  0.00000000E+00  0.00000000E+00
  1.67476088E+00  1.67729583E-04  0.00000000E+00  0.00000000E+00  7.92682317E-22
  0.00000000E+00  2.50727671E-01  0.00000000E+00  0.00000000E+00 -7.47756809E-19
  0.00000000E+00  3.16510482E-03  1.68816595E-01  1.94781452E+00  4.54014586E+00
  0.00000000E+00  0.00000000E+00  6.67438392E-03  0.00000000E+00  0.00000000E+00
  3.49388274E-01  0.00000000E+00  0.00000000E+00  5.26118463E+00  3.01103220E-02
  0.00000000E+00  0.00000000E+00 -2.00931729E-19  0.00000000E+00  2.09244416E+00
  0.00000000E+00  0.00000000E+00 -5.13575579E-18  0.00000000E+00  1.59349639E+01
  2.30148514E+01  1.34594418E-02  4.83851029E-02  7.39832030E-01  5.34799905E+00
  0.00000000E+00  0.00000000E+00 -2.38703065E-03  0.00000000E+00  0.00000000E+00
  4.46888726E-02  0.00000000E+00  0.00000000E+00  2.22705185E+00 -3.00316115E-03
  0.00000000E+00  0.00000000E+00 -8.67077151E-19  0.00000000E+00  4.20225190E-01
  0.00000000E+00  0.00000000E+00 -2.50384147E-18  0.00000000E+00  2.32864723E-02
  3.39467674E-01  2.55116677E+00  8.25164403E+00  0.00000000E+00  0.00000000E+00
  3.54684595E-02  0.00000000E+00  0.00000000E+00  5.97462226E-01  0.00000000E+00
  0.00000000E+00  6.25889851E+00  1.01412305E-01  0.00000000E+00  0.00000000E+00
 -1.47872829E-18  0.00000000E+00  2.12189433E+00  0.00000000E+00  0.00000000E+00
  9.35817919E-18  0.00000000E+00  8.44934706E+00  1.84710840E+01  2.46817840E+01
  1.17614374E-01  3.67236708E-01  1.30633915E+00  7.82358852E+00  0.00000000E+00
  0.00000000E+00 -8.72186082E-02  0.00000000E+00  0.00000000E+00 -2.82705496E-01
  0.00000000E+00  0.00000000E+00  6.80829930E-01  2.07627879E-02  0.00000000E+00
  0.00000000E+00  3.45803247E-18  0.00000000E+00  4.23736311E-01  0.00000000E+00
  0.00000000E+00  1.51963651E-17  0.00000000E+00  3.35804590E-02  3.39526597E-01
  2.16011010E+00  1.16721065E+01  0.00000000E+00  0.00000000E+00  1.61792935E-02
  0.00000000E+00  0.00000000E+00  2.60923301E-01  0.00000000E+00  0.00000000E+00
  3.43896755E+00  1.06456505E-01  0.00000000E+00  0.00000000E+00  1.91511593E-18
  0.00000000E+00  1.29323451E+00  0.00000000E+00  0.00000000E+00  2.73854126E-17
  0.00000000E+00  3.23111827E+00  8.79512416E+00  1.85776548E+01  3.21445799E+01
  0.00000000E+00  0.00000000E+00  0.00000000E+00  0.00000000E+00  0.00000000E+00
  0.00000000E+00  0.00000000E+00  7.47417256E-05  0.00000000E+00  0.00000000E+00
  9.28560680E-02  0.00000000E+00  0.00000000E+00  0.00000000E+00  0.00000000E+00
  0.00000000E+00  0.00000000E+00  0.00000000E+00  0.00000000E+00  1.21544378E-02
  0.00000000E+00  0.00000000E+00  0.00000000E+00  0.00000000E+00  0.00000000E+00
  0.00000000E+00  0.00000000E+00  9.15550544E-07  0.00000000E+00  0.00000000E+00
  9.88128897E-03  0.00000000E+00  0.00000000E+00  4.23577208E-01  0.00000000E+00
  0.00000000E+00  0.00000000E+00  6.25454730E-05  0.00000000E+00  0.00000000E+00
  0.00000000E+00  0.00000000E+00  2.71477631E-01  0.00000000E+00  0.00000000E+00
  0.00000000E+00  0.00000000E+00  0.00000000E+00  0.00000000E+00  0.00000000E+00
  2.24251924E+01  0.00000000E+00  0.00000000E+00  0.00000000E+00  0.00000000E+00
  0.00000000E+00  0.00000000E+00  0.00000000E+00  0.00000000E+00  7.47417256E-05
  0.00000000E+00  0.00000000E+00  9.28560680E-02  0.00000000E+00  0.00000000E+00
  0.00000000E+00  0.00000000E+00  0.00000000E+00  0.00000000E+00  0.00000000E+00
  0.00000000E+00  1.21544378E-02  0.00000000E+00  0.00000000E+00  0.00000000E+00
  0.00000000E+00  0.00000000E+00  0.00000000E+00  0.00000000E+00  9.15550544E-07
  0.00000000E+00  0.00000000E+00  9.88128897E-03  0.00000000E+00  0.00000000E+00
  4.23577208E-01  0.00000000E+00  0.00000000E+00  0.00000000E+00  6.25454730E-05
  0.00000000E+00  0.00000000E+00  0.00000000E+00  0.00000000E+00  2.71477631E-01
  0.00000000E+00  0.00000000E+00  0.00000000E+00  0.00000000E+00  0.00000000E+00
  0.00000000E+00  0.00000000E+00  2.24251924E+01  0.00000000E+00 -9.75917198E-04
 -1.14667402E-01  1.10334963E-01  0.00000000E+00  0.00000000E+00  0.00000000E+00
  0.00000000E+00  0.00000000E+00 -1.48758730E-03  0.00000000E+00  0.00000000E+00
 -3.45211491E-01  0.00000000E+00  0.00000000E+00  0.00000000E+00  0.00000000E+00
  0.00000000E+00 -8.16281038E-02  0.00000000E+00  0.00000000E+00 -3.11920541E-20
  0.00000000E+00 -1.98498073E-05 -5.03543083E-02 -3.42224990E-01  2.61997040E-01
  0.00000000E+00  0.00000000E+00 -2.76865511E-05  0.00000000E+00  0.00000000E+00
 -1.09414022E-01  0.00000000E+00  0.00000000E+00 -5.82106253E-01 -8.78660690E-04
  0.00000000E+00  0.00000000E+00  1.29090227E-21  0.00000000E+00 -8.97042625E-01
  0.00000000E+00  0.00000000E+00 -2.12573060E-19  0.00000000E+00  3.93683393E+00
  4.46093117E+00  2.64871058E+00  1.05524587E+00  0.00000000E+00  0.00000000E+00
  2.27805585E+01  0.00000000E+00  0.00000000E+00  0.00000000E+00  0.00000000E+00
  1.83250211E-06  0.00000000E+00  0.00000000E+00  2.21153896E-03  0.00000000E+00
  0.00000000E+00  3.61705246E-01  0.00000000E+00  0.00000000E+00  0.00000000E+00
  2.72919988E-05  0.00000000E+00  0.00000000E+00  0.00000000E+00  0.00000000E+00
  8.43927482E-02  0.00000000E+00  0.00000000E+00  0.00000000E+00  0.00000000E+00
  0.00000000E+00  0.00000000E+00  0.00000000E+00  9.33764604E-04  0.00000000E+00
  0.00000000E+00  8.28712676E-02  0.00000000E+00  0.00000000E+00  1.47474361E+00
  0.00000000E+00  0.00000000E+00  0.00000000E+00  9.21345202E-03  0.00000000E+00
  0.00000000E+00  0.00000000E+00  0.00000000E+00  9.98877685E-01  0.00000000E+00
  0.00000000E+00  0.00000000E+00  0.00000000E+00  0.00000000E+00  0.00000000E+00
  0.00000000E+00  1.38518057E+01  0.00000000E+00  0.00000000E+00  2.28918393E+01
  0.00000000E+00  0.00000000E+00  0.00000000E+00  0.00000000E+00  0.00000000E+00
  1.83250211E-06  0.00000000E+00  0.00000000E+00  2.21153896E-03  0.00000000E+00
  0.00000000E+00  3.61705246E-01  0.00000000E+00  0.00000000E+00  0.00000000E+00
  2.72919988E-05  0.00000000E+00  0.00000000E+00  0.00000000E+00  0.00000000E+00
  8.43927482E-02  0.00000000E+00  0.00000000E+00  0.00000000E+00  0.00000000E+00
  0.00000000E+00  0.00000000E+00  0.00000000E+00  9.33764604E-04  0.00000000E+00
  0.00000000E+00  8.28712676E-02  0.00000000E+00  0.00000000E+00  1.47474361E+00
  0.00000000E+00  0.00000000E+00  0.00000000E+00  9.21345202E-03  0.00000000E+00
  0.00000000E+00  0.00000000E+00  0.00000000E+00  9.98877685E-01  0.00000000E+00
  0.00000000E+00  0.00000000E+00  0.00000000E+00  0.00000000E+00  0.00000000E+00
  0.00000000E+00  1.38518057E+01  0.00000000E+00  0.00000000E+00  2.28918393E+01
 -2.23750210E-05 -1.47711161E-02 -4.03143098E-01  5.01791541E-01  0.00000000E+00
  0.00000000E+00 -3.23087951E-05  0.00000000E+00  0.00000000E+00 -2.93275514E-02
  0.00000000E+00  0.00000000E+00 -1.09165887E+00 -3.63063306E-04  0.00000000E+00
  0.00000000E+00 -7.35666787E-22  0.00000000E+00 -4.00034410E-01  0.00000000E+00
  0.00000000E+00 -4.22385373E-19  0.00000000E+00 -7.11129814E-03 -2.90740276E-01
 -1.07140398E+00  1.14886223E+00  0.00000000E+00  0.00000000E+00 -1.51756915E-02
  0.00000000E+00  0.00000000E+00 -6.15268875E-01  0.00000000E+00  0.00000000E+00
 -1.59814806E+00 -6.86824814E-02  0.00000000E+00  0.00000000E+00 -6.05470938E-19
  0.00000000E+00 -2.27692589E+00  0.00000000E+00  0.00000000E+00  8.37419813E-18
  0.00000000E+00  2.68820376E+00  8.18516233E+00  8.78806041E+00  4.71543679E+00
  0.00000000E+00  0.00000000E+00  1.41943815E+01  0.00000000E+00  0.00000000E+00
  2.41804991E+01  0.00000000E+00  0.00000000E+00  0.00000000E+00  0.00000000E+00
  6.68146076E-03  0.00000000E+00  0.00000000E+00  2.93664640E-02  0.00000000E+00
  0.00000000E+00  7.52107880E-01  0.00000000E+00  0.00000000E+00  0.00000000E+00
 -1.58297647E-03  0.00000000E+00  0.00000000E+00  0.00000000E+00  0.00000000E+00
  1.99089352E-01  0.00000000E+00  0.00000000E+00  0.00000000E+00  0.00000000E+00
  0.00000000E+00  0.00000000E+00  0.00000000E+00  9.32280579E-03  0.00000000E+00
  0.00000000E+00  1.95496971E-01  0.00000000E+00  0.00000000E+00  2.57648094E+00
  0.00000000E+00  0.00000000E+00  0.00000000E+00  3.81889872E-02  0.00000000E+00
  0.00000000E+00  0.00000000E+00  0.00000000E+00  1.34496981E+00  0.00000000E+00
  0.00000000E+00  0.00000000E+00  0.00000000E+00  0.00000000E+00  0.00000000E+00
  0.00000000E+00  4.03340317E+00  0.00000000E+00  0.00000000E+00  1.38239507E+01
  0.00000000E+00  0.00000000E+00  2.46984898E+01  0.00000000E+00  0.00000000E+00
  0.00000000E+00  0.00000000E+00  0.00000000E+00  6.68146076E-03  0.00000000E+00
  0.00000000E+00  2.93664640E-02  0.00000000E+00  0.00000000E+00  7.52107880E-01
  0.00000000E+00  0.00000000E+00  0.00000000E+00 -1.58297647E-03  0.00000000E+00
  0.00000000E+00  0.00000000E+00  0.00000000E+00  1.99089352E-01  0.00000000E+00
  0.00000000E+00  0.00000000E+00  0.00000000E+00  0.00000000E+00  0.00000000E+00
  0.00000000E+00  9.32280579E-03  0.00000000E+00  0.00000000E+00  1.95496971E-01
  0.00000000E+00  0.00000000E+00  2.57648094E+00  0.00000000E+00  0.00000000E+00
  0.00000000E+00  3.81889872E-02  0.00000000E+00  0.00000000E+00  0.00000000E+00
  0.00000000E+00  1.34496981E+00  0.00000000E+00  0.00000000E+00  0.00000000E+00
  0.00000000E+00  0.00000000E+00  0.00000000E+00  0.00000000E+00  4.03340317E+00
  0.00000000E+00  0.00000000E+00  1.38239507E+01  0.00000000E+00  0.00000000E+00
  2.46984898E+01 -5.47514022E-02 -1.44242971E-01 -7.19924323E-01  1.64768219E+00
  0.00000000E+00  0.00000000E+00  1.49895301E-02  0.00000000E+00  0.00000000E+00
 -6.22524614E-02  0.00000000E+00  0.00000000E+00 -1.42865311E+00  1.27398418E-02
  0.00000000E+00  0.00000000E+00  3.08468236E-19  0.00000000E+00 -5.61200267E-01
  0.00000000E+00  0.00000000E+00 -1.21147308E-17  0.00000000E+00 -5.66505937E-02
 -5.45584885E-01 -1.50791380E+00  3.66866167E+00  0.00000000E+00  0.00000000E+00
 -7.18628375E-02  0.00000000E+00  0.00000000E+00 -8.38602246E-01  0.00000000E+00
  0.00000000E+00 -1.69399525E+00 -2.04154047E-01  0.00000000E+00  0.00000000E+00
  1.91187187E-18  0.00000000E+00 -1.76938302E+00  0.00000000E+00  0.00000000E+00
 -9.62907832E-19  0.00000000E+00  8.36111629E-01  5.54086110E+00  1.47180112E+01
  1.68679038E+01  0.00000000E+00  0.00000000E+00  4.15178375E+00  0.00000000E+00
  0.00000000E+00  1.50364419E+01  0.00000000E+00  0.00000000E+00  2.96004506E+01
  3.84889756E-08  2.61503431E-03  5.30821108E-02 -5.51399932E-02  0.00000000E+00
  0.00000000E+00  0.00000000E+00  0.00000000E+00  0.00000000E+00  4.75429193E-03
  0.00000000E+00  0.00000000E+00  9.82881231E-02  3.02594819E-06  0.00000000E+00
  0.00000000E+00  1.61371227E-24  0.00000000E+00  1.12870773E-01  0.00000000E+00
  0.00000000E+00 -3.57424386E-20  0.00000000E+00  2.58052466E-04  8.21531034E-02
  7.48818301E-02 -5.79080565E-02  0.00000000E+00  0.00000000E+00  4.65820956E-04
  0.00000000E+00  0.00000000E+00  1.92463595E-01  0.00000000E+00  0.00000000E+00
 -7.28077663E-02  6.93570233E-03  0.00000000E+00  0.00000000E+00 -1.35840562E-20
  0.00000000E+00  6.57308832E-01  0.00000000E+00  0.00000000E+00  1.09893588E-19
  0.00000000E+00  2.15491797E-01  4.99115551E-01  3.88699178E-01  1.72905964E-01
  0.00000000E+00  0.00000000E+00  4.43069077E+00  0.00000000E+00  0.00000000E+00
  5.73255820E+00  0.00000000E+00  0.00000000E+00  2.33509455E+00  2.31147437E+01
  0.00000000E+00  0.00000000E+00  0.00000000E+00  0.00000000E+00  0.00000000E+00
  0.00000000E+00  0.00000000E+00 -4.72583631E-04  0.00000000E+00  0.00000000E+00
 -8.98989883E-02  0.00000000E+00  0.00000000E+00  0.00000000E+00 -2.47102325E-07
  0.00000000E+00  0.00000000E+00  0.00000000E+00  0.00000000E+00 -3.46434240E-02
  0.00000000E+00  0.00000000E+00  0.00000000E+00  0.00000000E+00  0.00000000E+00
  0.00000000E+00  0.00000000E+00 -3.17546360E-05  0.00000000E+00  0.00000000E+00
 -3.61441582E-02  0.00000000E+00  0.00000000E+00 -2.60253831E-01  0.00000000E+00
  0.00000000E+00  0.00000000E+00 -1.01827208E-03  0.00000000E+00  0.00000000E+00
  0.00000000E+00  0.00000000E+00 -4.73009932E-01  0.00000000E+00  0.00000000E+00
  0.00000000E+00  0.00000000E+00  0.00000000E+00  0.00000000E+00  0.00000000E+00
  3.83709076E+00  0.00000000E+00  0.00000000E+00  4.96454103E+00  0.00000000E+00
  0.00000000E+00  2.02225120E+00  0.00000000E+00  0.00000000E+00  0.00000000E+00
  2.29570648E+01  0.00000000E+00  0.00000000E+00  0.00000000E+00  0.00000000E+00
  0.00000000E+00  0.00000000E+00  0.00000000E+00  0.00000000E+00 -4.72583631E-04
  0.00000000E+00  0.00000000E+00 -8.98989883E-02  0.00000000E+00  0.00000000E+00
  0.00000000E+00 -2.47102325E-07  0.00000000E+00  0.00000000E+00  0.00000000E+00
  0.00000000E+00 -3.46434240E-02  0.00000000E+00  0.00000000E+00  0.00000000E+00
  0.00000000E+00  0.00000000E+00  0.00000000E+00  0.00000000E+00 -3.17546360E-05
  0.00000000E+00  0.00000000E+00 -3.61441582E-02  0.00000000E+00  0.00000000E+00
 -2.60253831E-01  0.00000000E+00  0.00000000E+00  0.00000000E+00 -1.01827208E-03
  0.00000000E+00  0.00000000E+00  0.00000000E+00  0.00000000E+00 -4.73009932E-01
  0.00000000E+00  0.00000000E+00  0.00000000E+00  0.00000000E+00  0.00000000E+00
  0.00000000E+00  0.00000000E+00  3.83709076E+00  0.00000000E+00  0.00000000E+00
  4.96454103E+00  0.00000000E+00  0.00000000E+00  2.02225120E+00  0.00000000E+00
  0.00000000E+00  0.00000000E+00  2.29570648E+01 -2.91145925E-26  1.75348014E-20
 -3.59697431E-18  6.41770912E-17  0.00000000E+00  0.00000000E+00  0.00000000E+00
  0.00000000E+00  0.00000000E+00 -1.39135631E-20  0.00000000E+00  0.00000000E+00
 -1.14505784E-18 -2.35762678E-24  0.00000000E+00  0.00000000E+00  6.37883336E-09
  0.00000000E+00  1.38727173E-18  0.00000000E+00  0.00000000E+00  2.89392425E-03
  0.00000000E+00 -2.25198191E-22  4.04769213E-19  2.13846800E-17  1.25679807E-16
  0.00000000E+00  0.00000000E+00  3.49678693E-22  0.00000000E+00  0.00000000E+00
  3.81493423E-19  0.00000000E+00  0.00000000E+00  1.96769449E-16  1.72411964E-20
  0.00000000E+00  0.00000000E+00  4.53896053E-05  0.00000000E+00  5.45230007E-17
  0.00000000E+00  0.00000000E+00  7.43266064E-02  0.00000000E+00 -1.00731581E-16
  3.07510128E-16  4.83030646E-16  7.35812605E-17  0.00000000E+00  0.00000000E+00
  1.03673640E-16  0.00000000E+00  0.00000000E+00 -2.12672674E-16  0.00000000E+00
  0.00000000E+00 -8.42083143E-17  2.35577309E-17  0.00000000E+00  0.00000000E+00
  2.24840279E+01  0.00000000E+00  0.00000000E+00  0.00000000E+00  0.00000000E+00
  0.00000000E+00  0.00000000E+00  0.00000000E+00  0.00000000E+00  0.00000000E+00
  0.00000000E+00  0.00000000E+00  0.00000000E+00  0.00000000E+00  0.00000000E+00
  0.00000000E+00  0.00000000E+00  0.00000000E+00  6.37883336E-09  0.00000000E+00
  0.00000000E+00  0.00000000E+00  0.00000000E+00  2.89392425E-03  0.00000000E+00
  0.00000000E+00  0.00000000E+00  0.00000000E+00  0.00000000E+00  0.00000000E+00
  0.00000000E+00  0.00000000E+00  0.00000000E+00  0.00000000E+00  0.00000000E+00
  0.00000000E+00  0.00000000E+00  0.00000000E+00  0.00000000E+00  0.00000000E+00
  0.00000000E+00  4.53896053E-05  0.00000000E+00  0.00000000E+00  0.00000000E+00
  0.00000000E+00  7.43266064E-02  0.00000000E+00  0.00000000E+00  0.00000000E+00
  0.00000000E+00  0.00000000E+00  0.00000000E+00  0.00000000E+00  0.00000000E+00
  0.00000000E+00  0.00000000E+00  0.00000000E+00  0.00000000E+00  0.00000000E+00
  0.00000000E+00  0.00000000E+00  0.00000000E+00  0.00000000E+00  2.24840279E+01
  2.43406067E-03  4.34061122E-02  2.02230537E-01 -4.70736780E-01  0.00000000E+00
  0.00000000E+00  1.43962773E-03  0.00000000E+00  0.00000000E+00  8.68069216E-02
  0.00000000E+00  0.00000000E+00  2.44862591E-01  2.50035212E-03  0.00000000E+00
  0.00000000E+00 -1.25072736E-19  0.00000000E+00  5.22941299E-01  0.00000000E+00
  0.00000000E+00 -2.40725873E-18  0.00000000E+00  4.01587094E-02  4.57521808E-01
  1.71405400E-01 -4.77336517E-01  0.00000000E+00  0.00000000E+00  7.96762274E-02
  0.00000000E+00  0.00000000E+00  8.94863331E-01  0.00000000E+00  0.00000000E+00
 -6.31714124E-01  2.21517615E-01  0.00000000E+00  0.00000000E+00  2.18600504E-18
  0.00000000E+00  1.27277825E+00  0.00000000E+00  0.00000000E+00 -2.64483454E-17
  0.00000000E+00  8.21521216E-02  8.56913150E-01  2.02757604E+00  1.70065257E+00
  0.00000000E+00  0.00000000E+00  1.40419711E+00  0.00000000E+00  0.00000000E+00
  8.00324919E+00  0.00000000E+00  0.00000000E+00  1.22404093E+01  1.00780990E+01
  0.00000000E+00  0.00000000E+00 -3.08035907E-16  0.00000000E+00  2.59587105E+01
  0.00000000E+00  0.00000000E+00  0.00000000E+00  0.00000000E+00 -4.97351783E-04
  0.00000000E+00  0.00000000E+00 -1.54054972E-02  0.00000000E+00  0.00000000E+00
 -4.89697050E-01  0.00000000E+00  0.00000000E+00  0.00000000E+00 -8.04108322E-04
  0.00000000E+00  0.00000000E+00  0.00000000E+00  0.00000000E+00 -2.73272504E-01
  0.00000000E+00  0.00000000E+00  0.00000000E+00  0.00000000E+00  0.00000000E+00
  0.00000000E+00  0.00000000E+00 -1.10517105E-02  0.00000000E+00  0.00000000E+00
 -2.95028494E-01  0.00000000E+00  0.00000000E+00 -1.22330691E+00  0.00000000E+00
  0.00000000E+00  0.00000000E+00 -6.84426444E-02  0.00000000E+00  0.00000000E+00
  0.00000000E+00  0.00000000E+00 -1.76401719E+00  0.00000000E+00  0.00000000E+00
  0.00000000E+00  0.00000000E+00  0.00000000E+00  0.00000000E+00  0.00000000E+00
  1.21607037E+00  0.00000000E+00  0.00000000E+00  6.93101711E+00  0.00000000E+00
  0.00000000E+00  1.06005054E+01  0.00000000E+00  0.00000000E+00  0.00000000E+00
  9.96918455E+00  0.00000000E+00  0.00000000E+00  0.00000000E+00  0.00000000E+00
  2.52839467E+01  0.00000000E+00  0.00000000E+00  0.00000000E+00  0.00000000E+00
  0.00000000E+00 -4.97351783E-04  0.00000000E+00  0.00000000E+00 -1.54054972E-02
  0.00000000E+00  0.00000000E+00 -4.89697050E-01  0.00000000E+00  0.00000000E+00
  0.00000000E+00 -8.04108322E-04  0.00000000E+00  0.00000000E+00  0.00000000E+00
  0.00000000E+00 -2.73272504E-01  0.00000000E+00  0.00000000E+00  0.00000000E+00
  0.00000000E+00  0.00000000E+00  0.00000000E+00  0.00000000E+00 -1.10517105E-02
  0.00000000E+00  0.00000000E+00 -2.95028494E-01  0.00000000E+00  0.00000000E+00
 -1.22330691E+00  0.00000000E+00  0.00000000E+00  0.00000000E+00 -6.84426444E-02
  0.00000000E+00  0.00000000E+00  0.00000000E+00  0.00000000E+00 -1.76401719E+00
  0.00000000E+00  0.00000000E+00  0.00000000E+00  0.00000000E+00  0.00000000E+00
  0.00000000E+00  0.00000000E+00  1.21607037E+00  0.00000000E+00  0.00000000E+00
  6.93101711E+00  0.00000000E+00  0.00000000E+00  1.06005054E+01  0.00000000E+00
  0.00000000E+00  0.00000000E+00  9.96918455E+00  0.00000000E+00  0.00000000E+00
  0.00000000E+00  0.00000000E+00  2.52839467E+01 -1.30157926E-21  2.71697380E-19
  1.52704746E-17 -8.97460916E-17  0.00000000E+00  0.00000000E+00 -1.61175218E-21
  0.00000000E+00  0.00000000E+00  2.72269581E-19  0.00000000E+00  0.00000000E+00
  1.04911901E-16 -1.73532554E-21  0.00000000E+00  0.00000000E+00  1.00744466E-04
  0.00000000E+00 -1.48987392E-18  0.00000000E+00  0.00000000E+00  3.51295406E-02
  0.00000000E+00 -6.49683910E-21 -4.39644874E-18  1.03213069E-16  2.28299615E-16
  0.00000000E+00  0.00000000E+00 -5.55770057E-20  0.00000000E+00  0.00000000E+00
 -6.24705513E-18  0.00000000E+00  0.00000000E+00  2.22318044E-16  2.02187545E-19
  0.00000000E+00  0.00000000E+00  5.85480160E-03  0.00000000E+00  6.69576766E-20
  0.00000000E+00  0.00000000E+00  4.21286808E-01  0.00000000E+00  1.61905036E-16
 -3.28496748E-16 -7.24530606E-16 -7.97544838E-16  0.00000000E+00  0.00000000E+00
 -4.55899912E-17  0.00000000E+00  0.00000000E+00  1.97901288E-16  0.00000000E+00
  0.00000000E+00 -1.78082878E-16 -3.07227973E-17  0.00000000E+00  0.00000000E+00
  9.64244122E+00  0.00000000E+00  1.68212603E-16  0.00000000E+00  0.00000000E+00
  2.32596552E+01  0.00000000E+00  0.00000000E+00  0.00000000E+00  0.00000000E+00
  0.00000000E+00  0.00000000E+00  0.00000000E+00  0.00000000E+00  0.00000000E+00
  0.00000000E+00  0.00000000E+00  0.00000000E+00  0.00000000E+00  0.00000000E+00
  0.00000000E+00  0.00000000E+00  0.00000000E+00  1.00744466E-04  0.00000000E+00
  0.00000000E+00  0.00000000E+00  0.00000000E+00  3.51295406E-02  0.00000000E+00
  0.00000000E+00  0.00000000E+00  0.00000000E+00  0.00000000E+00  0.00000000E+00
  0.00000000E+00  0.00000000E+00  0.00000000E+00  0.00000000E+00  0.00000000E+00
  0.00000000E+00  0.00000000E+00  0.00000000E+00  0.00000000E+00  0.00000000E+00
  0.00000000E+00  5.85480160E-03  0.00000000E+00  0.00000000E+00  0.00000000E+00
  0.00000000E+00  4.21286808E-01  0.00000000E+00  0.00000000E+00  0.00000000E+00
  0.00000000E+00  0.00000000E+00  0.00000000E+00  0.00000000E+00  0.00000000E+00
  0.00000000E+00  0.00000000E+00  0.00000000E+00  0.00000000E+00  0.00000000E+00
  0.00000000E+00  0.00000000E+00  0.00000000E+00  0.00000000E+00  9.64244122E+00
  0.00000000E+00  0.00000000E+00  0.00000000E+00  0.00000000E+00  2.32596552E+01
Number of independent functions            I               69
Alpha MO coefficients                      R   N=        4761
  1.90227581E-01  2.95098925E-01  6.97137704E-02  1.08114378E-02 -1.36728374E-17
  2.78820653E-17  1.11122343E-02  4.29062191E-16 -3.37042602E-16  1.26728776E-02
  3.37834633E-16 -1.18123562E-15 -2.93591705E-03  6.72193787E-04  1.43564770E-18
 -1.83842845E-17  2.50659645E-12 -6.74665612E-18 -3.57473275E-04  3.58797001E-16
 -4.84089311E-16 -4.56071982E-11  1.79955657E-17  1.89980636E-01  2.81450506E-01
  1.86783545E-01 -1.69722329E-02 -8.21783283E-17  3.96916599E-17 -1.11000912E-02
 -3.07450685E-16  4.02259277E-16 -7.04201145E-03  4.26122656E-17  1.20660029E-15
 -2.85485402E-02  5.02854149E-04  2.59678083E-17 -1.63582603E-17  2.44978989E-12
 -4.47426677E-18 -1.96777096E-03  2.28343894E-16 -2.58492278E-16 -4.45785907E-11
 -2.61740951E-17  2.68718361E-03  3.24193977E-03  4.76315447E-03  4.14121309E-03
 -1.10729558E-16 -3.96430616E-17 -1.41400410E-04  2.50159179E-16 -2.33467655E-16
 -1.64127220E-03 -3.21904921E-16  1.49948096E-16 -4.40789656E-03  4.45359795E-05
 -1.08821113E-16  1.36953946E-16  5.69522205E-13  2.47835773E-17  1.75353848E-03
  4.18055041E-17 -3.45817956E-17 -4.22305572E-12 -1.24187859E-16 -1.36397885E-02
 -3.48329840E-02 -1.99273993E-01  9.45713893E-04 -1.03160960E-16  5.25339076E-17
 -7.66873053E-04  9.41525255E-16 -3.93374027E-16 -1.85392605E-03  1.42806701E-15
 -9.55820768E-16 -3.31099250E-02 -1.53543407E-04  1.94563736E-17 -2.57639657E-18
 -5.23873005E-13  8.57563692E-18  4.62655136E-04  8.34237966E-16 -4.48429555E-16
  1.35073022E-11  2.26324467E-17 -7.66968944E-03 -7.52544754E-03  1.66855310E-01
 -3.79103970E-03  3.17527223E-17 -4.33250625E-17  1.23306373E-03 -8.87279686E-16
  4.67208262E-16 -1.05244887E-03 -1.90496562E-15  1.07042769E-15 -6.13404725E-02
  3.58215596E-04  9.96492050E-18 -4.96357656E-17  1.53359551E-12  1.16756420E-17
  6.45634047E-03  5.53821427E-16 -2.32162817E-16 -1.46799382E-11  2.61754920E-17
  2.38171498E-01  5.06366451E-01  3.86480650E-01  9.21790036E-03 -7.19514958E-17
 -4.51254428E-17 -9.02021567E-05  2.47135992E-16  1.55249948E-16 -5.08328996E-04
  1.48828737E-16 -3.96500579E-16 -7.64164805E-03 -2.01701697E-05 -5.76892439E-17
  2.09965359E-17  6.19957352E-12 -1.98607491E-17  8.96829863E-04 -8.64195842E-17
 -2.91134736E-17 -1.15396933E-10 -3.06720059E-17 -3.69330396E-01 -3.51841826E-01
  1.36112454E+00  3.14249102E-02  2.44709971E-16  1.13963498E-16  4.45605107E-02
 -1.50709783E-15 -6.50613874E-16  1.84084015E-01 -6.91515850E-16 -1.08660325E-15
  3.30076345E-01  4.09115486E-02  2.26568157E-17  5.92344644E-17  6.94125613E-12
  3.39809754E-17  3.54718416E-02 -7.11849893E-16 -2.81179235E-16  6.08964546E-11
 -1.80941614E-16  3.72800728E-01  3.72918185E-01 -1.36602470E+00 -2.95859046E-02
 -3.68576895E-16  6.37278584E-17  4.29350817E-02  1.79424505E-15  3.11525386E-16
  1.91278066E-01  1.82760591E-15  1.37478559E-15  3.68512060E-01 -4.06194565E-02
  3.10349897E-18  2.20860504E-16 -7.09520532E-12 -1.30208580E-16 -4.97649283E-02
 -8.88097805E-16 -4.23414499E-16 -6.00219982E-11 -1.71413718E-16 -1.57533759E-02
 -3.20075742E-02 -3.80569306E-02  2.86310917E-03  1.26807126E-16 -2.46626028E-16
  9.25417084E-04 -9.43557499E-16  5.83672067E-16 -5.02845067E-03  3.27242935E-16
 -4.76892564E-16  2.36967959E-03  6.67879390E-04 -2.12778759E-16  2.28001994E-16
 -2.63824289E-13  1.89383177E-16  5.51874654E-03 -1.20139018E-16 -8.58805612E-17
  6.42926462E-12  2.68444099E-16 -1.96720658E-02 -4.11085501E-01 -3.97678423E+00
 -9.60486444E-01  3.36759399E-17  1.20942749E-16 -2.29488543E-02 -1.18092775E-16
 -2.71994347E-16 -1.71911379E-01  2.57174064E-15  4.41911424E-16 -8.91937987E-01
 -1.49140627E-02 -4.11118727E-17  2.30926588E-17 -6.39731014E-12  1.13829948E-17
 -3.62498014E-02  2.27968092E-16 -1.19147228E-16  5.45231386E-11 -4.63816054E-17
 -6.08828059E-02  3.47486498E-01  4.10571690E+00 -1.21892625E-01 -1.47070106E-16
  1.14420220E-17  8.14771847E-03 -2.34610297E-16  2.60230701E-16 -1.57104248E-01
 -1.20633075E-15 -4.48394118E-17 -1.29843291E+00  3.91724184E-03  3.81594207E-17
 -1.31410205E-16  5.24316021E-12  8.61771378E-17  7.54918225E-02  1.15821075E-16
 -8.44997138E-17 -6.66628590E-11 -2.32319952E-17 -6.01196840E-02 -2.90264652E-02
 -5.04266197E-01  1.77457500E+00  8.85321017E-17  2.08703044E-17 -1.65111840E-03
 -2.40091578E-16  4.50685793E-17  1.83709675E-02  4.23157615E-16  1.62635677E-16
 -1.54624817E-01 -1.88612720E-03  9.11642561E-17  4.27733349E-17  1.66321131E-11
 -7.01344054E-17  1.38917065E-02 -3.07810050E-17 -1.45415576E-16 -1.00757384E-10
  1.56718510E-17 -3.68188345E-02  2.96195382E-01  3.02201019E+00  6.98521369E+00
 -1.69059156E-16  1.87086101E-16 -2.37425877E-03  1.24198289E-15 -1.08652862E-15
  2.23948479E-01  4.16785466E-15 -1.10693558E-15  7.78278779E-01  1.76578121E-02
 -1.47203449E-16  1.30159358E-16 -7.36884930E-12 -6.73125901E-17  9.53463525E-02
  1.38316554E-15 -5.57520065E-16 -2.95426368E-11  3.03821658E-16  3.00763162E-02
 -3.90383746E-01 -2.35005057E+00 -9.33698227E+00  5.69452018E-16 -5.29338307E-16
  2.12418435E-02 -1.79923541E-15  9.89588229E-16  1.09622908E-01 -5.58708032E-15
  1.36149939E-15  6.60071472E-01 -1.15306358E-02 -8.53339848E-18 -4.07908819E-17
 -1.93387005E-11  6.66511152E-17 -2.02418116E-02  1.07254406E-15 -4.15505727E-16
  1.53553068E-10 -3.95622209E-16  9.72188059E-03  2.02591326E-02  1.13027486E-01
  2.12758374E+00  2.62950567E-16  2.46864637E-16  7.97311402E-05 -1.24957505E-17
  8.74824842E-17  3.40991753E-02  2.24509708E-16  2.57550057E-16 -3.21727377E-02
  8.18563440E-04  8.01098868E-17 -9.23068340E-17 -6.05718794E-12  4.82830594E-17
 -1.32227022E-02 -5.35058847E-17 -3.40068800E-16  4.47204298E-11  1.41309715E-16
  3.15119412E-15 -2.13834250E-13 -3.86686857E-12 -3.92322052E-13  1.87310985E-02
 -8.98020131E-16  5.40795380E-15 -9.14665437E-02  6.51672058E-15 -7.53493966E-14
  1.35067333E-01  1.87454584E-14 -9.22558037E-13  3.93553844E-16 -5.18925343E-05
 -1.05841369E-16  3.32972639E-18  3.27524505E-20 -2.52657647E-14 -3.29689561E-02
  6.46836750E-15  1.11852421E-16  4.23710668E-16  1.97337480E-14  1.88259036E-13
  3.79829948E-12  4.06409526E-13  1.38418902E-02 -5.81909136E-16 -1.93685632E-15
  7.72149368E-03 -3.92535284E-15 -9.20036951E-14  5.09557729E-01 -4.79429823E-14
 -1.07111950E-12  2.36660250E-15 -1.58260226E-03  1.44699648E-16 -1.32842656E-17
  5.05693159E-17  4.43801008E-14 -5.73487940E-02  4.46479522E-15 -3.20121886E-17
 -1.99810865E-16  2.79477297E-15 -1.26368739E-15  1.01806540E-13 -6.05373433E-14
  2.20792529E-02 -1.12915025E-15  6.87656829E-17 -5.69600088E-02  2.71502327E-15
 -5.29404120E-16  6.81150103E-01 -3.51157910E-14 -5.04818091E-14 -1.00036690E-16
 -4.41493900E-04  2.44864303E-17  1.74817622E-17 -2.91024514E-17  1.40423893E-15
  8.73750056E-04 -8.48991345E-16 -1.73639976E-16  2.57070957E-17  1.21606966E-15
 -8.71104915E-14 -1.51665612E-12 -1.22162754E-13  9.99355331E-16  1.87310985E-02
  1.33120502E-15 -4.89304219E-15 -9.14665441E-02 -3.28259605E-14  5.09788145E-15
  1.35067332E-01 -3.48621934E-13 -4.95185260E-16 -3.60464448E-17 -5.18925414E-05
 -3.15661538E-18  2.59144408E-17 -9.18781592E-15 -2.40085700E-15 -3.29689562E-02
  3.72177531E-17 -9.87829335E-17  5.04636449E-15  7.46012599E-14  1.48562722E-12
  1.24946029E-13  7.82261109E-16  1.38418902E-02 -6.24675498E-16  7.00946117E-16
  7.72149371E-03 -3.77120477E-14  3.05666705E-14  5.09557729E-01 -4.27238901E-13
  1.15188652E-15 -2.09696383E-16 -1.58260226E-03 -8.32836724E-18  4.29677290E-17
  1.77748299E-14 -2.77047834E-15 -5.73487943E-02  3.81485682E-17  4.31253593E-17
  1.05937973E-15 -2.07468698E-15  4.32820204E-14 -1.65277630E-14  9.51487134E-16
  2.20792529E-02 -1.12182559E-16 -2.37452185E-15 -5.69600091E-02  3.21695411E-17
  2.94242330E-14  6.81150103E-01 -2.80593043E-14 -8.82752199E-17 -2.38200013E-17
 -4.41493901E-04  2.13896110E-18  1.41041583E-16  1.20356919E-15  3.81523782E-16
  8.73750086E-04 -5.97271353E-17  2.40641536E-16 -4.49906257E-02  2.12029469E+00
  1.65200402E+01  6.26045331E+00  3.79730037E-17  3.82595558E-16 -7.20341588E-02
 -1.58305703E-15 -2.81027990E-15  6.07082660E-01 -2.99124098E-14 -1.86543610E-14
  4.91072214E+00 -2.10890462E-02  3.90021090E-16  2.02768646E-16 -9.20923184E-12
  7.02845874E-17  2.57741671E-01 -3.22855977E-15 -4.53837816E-15  1.12587571E-10
  6.49309310E-16 -3.29620583E-01 -2.07090554E+00 -1.64147189E+01 -6.90470494E+00
  2.03640659E-16  3.36505592E-16  4.60819705E-02 -2.03683993E-15  3.12909085E-15
  8.82974274E-01  4.06356407E-14  2.85930293E-14  4.27050528E+00 -3.44984969E-02
  3.20584686E-16 -1.98788404E-16  2.21462087E-11  1.57962448E-16 -3.30146643E-01
 -4.38041380E-15 -3.03831043E-15 -2.37600496E-10 -2.56695174E-16 -2.74423933E-02
 -1.10518830E-01 -2.19874143E-01  1.32922201E+00  1.77328660E-15  5.95686695E-16
 -8.47388726E-03 -2.45011063E-15 -1.36160554E-15  1.34119883E-02  6.74576073E-14
  8.31248831E-15 -3.41253571E-01 -2.97507764E-03 -1.75772214E-16 -5.18765754E-16
  2.02902182E-12 -5.35304805E-16  4.49102898E-02  4.00133732E-16  7.01381516E-16
 -7.50256582E-12 -7.98086426E-17  3.48245045E-15 -6.77060754E-14 -1.07901333E-11
  6.21010635E-14  9.83713154E-03  7.59735112E-16  3.12194709E-15  1.14982032E-01
  7.04148911E-15 -5.80733572E-14  1.47051507E+00  9.59054841E-14 -2.39982503E-12
 -8.86687980E-16  2.97141750E-03  2.19296855E-16 -1.59416696E-17  5.00161115E-17
 -2.24826286E-14  1.57875426E-01  9.62085388E-15 -7.38540182E-17 -1.09991208E-16
 -1.08545687E-14  4.09926343E-15  1.05679956E-11 -2.49047304E-13  2.47699302E-02
  1.75370990E-15  3.93376209E-15 -1.92405503E-01 -1.20964194E-14 -3.32532251E-14
 -6.28342786E-01 -3.67404775E-14 -3.02902363E-12 -2.32898463E-15 -3.02574689E-03
 -3.01227079E-16  4.07769180E-17  7.27631011E-17  4.43668520E-14  1.85692544E-01
  1.19078301E-14  8.73535763E-17  1.06130272E-16  3.97564743E-15 -3.47652182E-14
  3.34028199E-13  1.65660392E-13 -1.81141557E-02 -1.55027002E-15 -3.37852554E-15
  4.54047383E-02  3.41837801E-15  5.15106982E-15 -6.11299125E-01 -4.97291441E-14
 -3.72916813E-13 -1.62969203E-15  1.35438501E-03  8.85020196E-17 -1.84209173E-17
 -5.16590591E-17  2.38956254E-14 -2.04639292E-02 -1.48560512E-15  3.62795889E-16
 -6.75474650E-17 -7.13826472E-16 -1.78377759E-14  4.25118507E-13  2.66825754E-14
 -8.53738128E-16  9.83713154E-03 -6.89553972E-16 -6.15011454E-15  1.14982032E-01
 -6.01921339E-15 -1.00436621E-13  1.47051507E+00  9.73405602E-14 -4.32826693E-16
 -1.42366243E-16  2.97141751E-03 -4.26713949E-18 -5.08950099E-17 -6.96871723E-16
 -9.66800757E-15  1.57875427E-01  9.51953401E-19  7.29980869E-16 -1.38163529E-15
  1.67298263E-14 -4.08930351E-13 -2.23153679E-14 -1.87142746E-15  2.47699302E-02
  3.27339260E-16  1.24780890E-14 -1.92405504E-01 -8.08680054E-15  3.39984890E-14
 -6.28342788E-01  1.22464552E-13  3.17208892E-16  3.84560874E-16 -3.02574689E-03
 -1.80485446E-18  6.77889383E-17  1.94829334E-15 -1.20336086E-14  1.85692544E-01
  6.49582333E-17 -6.88647057E-16 -2.34677013E-16  2.94267087E-15 -1.76544936E-14
 -1.77135708E-15  1.15588693E-15 -1.81141557E-02  3.71002893E-17 -2.75351417E-15
  4.54047385E-02 -1.39084812E-16  3.93193182E-14 -6.11299125E-01  1.71434539E-14
  1.55823658E-16 -8.01588114E-17  1.35438500E-03 -1.86053517E-18 -4.44966515E-17
 -2.16261783E-15  1.49376318E-15 -2.04639291E-02  1.75487242E-17  4.43342559E-16
  5.75540296E-02 -6.26517915E-01 -3.87322081E+01 -1.18638555E+00 -1.83400001E-16
 -5.77786024E-17  3.06923039E-02 -3.33483820E-14 -2.69505174E-15 -3.25436752E-01
 -2.69049717E-13  3.14729409E-14 -9.67688949E+00  2.47651519E-03 -1.83580327E-15
 -8.46509068E-16 -1.28111586E-12  6.61928977E-17 -2.01356364E-01 -3.08907266E-14
  3.03118617E-15  5.24694839E-11 -5.78391136E-16  6.27116797E-02  4.75973285E-01
  3.83363288E+01 -2.64903710E-02 -6.01205170E-15 -1.25708243E-17 -1.41578245E-02
  4.73452681E-14  1.85691776E-15 -2.56909451E-01  1.20563499E-13 -3.76033710E-14
 -1.04015696E+01  1.31352993E-02  3.08820017E-16 -4.29735036E-16 -8.24523070E-13
  1.69480533E-16  8.76797983E-02 -3.97705031E-14  5.26302296E-16 -7.17718446E-12
 -1.96772407E-15  2.54858063E-02 -4.60293322E-02  9.74556683E-01  7.82766100E-01
  2.13621925E-15 -9.18671551E-16 -2.59250654E-02 -1.05186215E-14  2.10471061E-15
  5.50904213E-02  7.27961447E-14 -6.54777581E-15 -1.77666962E+00 -5.53208235E-03
 -3.62120139E-16  1.33751985E-15  9.43442566E-13  1.45312860E-15  7.58453707E-02
  5.12355259E-15 -3.48662638E-15 -1.87053662E-11 -7.13681533E-17  3.47657815E-15
  1.44664090E-13  1.73562053E-12 -1.35127438E-14 -2.03921330E-02  7.50579178E-17
  1.98832675E-15  3.37595822E-01  4.07023412E-16  8.32428001E-14  3.03327496E+00
  3.06988021E-14  3.91694335E-13  4.68988232E-15 -3.89813012E-03 -2.13792587E-16
 -1.87136150E-17 -1.03198357E-16  2.51346763E-14  4.12173811E-01  3.41294819E-15
  2.45762681E-16 -6.71518087E-16  7.54309230E-15 -1.73043923E-13 -1.68838927E-12
 -8.47281232E-15  9.65615837E-03 -4.44014085E-18 -1.22043260E-16 -3.21893758E-01
 -1.02204177E-15  6.51983731E-14 -3.38598271E+00 -3.47502029E-14  4.47220332E-13
 -2.09365570E-15 -2.35003450E-03 -2.29993681E-16 -1.15246069E-17 -1.33762738E-17
 -1.79924770E-14  4.09862049E-01  2.73554533E-15 -2.39211650E-17  1.39157539E-15
  1.51858721E-15  1.92647344E-14 -5.70917705E-14  1.05736892E-14  1.60565990E-02
 -9.98005921E-17 -4.46960162E-16 -5.52136484E-02 -4.16015782E-16  6.21310054E-16
  7.72665394E-01  1.29560572E-14 -8.51521177E-16  3.69486039E-16 -1.45999621E-03
 -2.02788860E-16  9.98017690E-18  2.64717663E-17 -1.72686506E-15  1.82174094E-02
  1.32850561E-15 -2.22019650E-16 -2.37072905E-16 -2.62379329E-15 -3.45757553E-13
 -1.25647472E-12 -7.62394802E-14  2.28259406E-16 -2.03921330E-02 -4.73397135E-15
 -3.62855102E-15  3.37595823E-01 -1.52680430E-13 -2.67439101E-14  3.03327496E+00
 -3.44108432E-13 -7.94708301E-15 -1.52150853E-16 -3.89813012E-03 -7.85775783E-18
  2.51840746E-16 -4.54323420E-14 -5.56108417E-15  4.12173812E-01 -1.16779626E-17
 -4.37577535E-16 -9.80618879E-15  3.29722883E-13  1.34451831E-12  9.35993534E-14
 -3.62569480E-16  9.65615839E-03 -4.99520440E-16  4.84477197E-15 -3.21893759E-01
 -1.47835712E-13  2.78995130E-14 -3.38598271E+00 -2.46425173E-13  6.26786718E-15
 -1.90333588E-16 -2.35003449E-03  1.85860786E-18  8.86887401E-17  4.37335712E-14
 -2.88618221E-15  4.09862049E-01 -8.50352345E-17 -6.68739979E-16 -2.58296445E-15
 -1.32578572E-14  2.44872877E-15 -4.68451049E-14 -5.26068732E-16  1.60565990E-02
  5.50272055E-16  1.23102503E-15 -5.52136486E-02 -4.82407389E-15 -1.28718155E-14
  7.72665395E-01  6.60634010E-14  8.25015124E-16 -1.80282034E-17 -1.45999620E-03
 -6.85515277E-18  1.84633315E-17 -1.03348718E-14  9.28500618E-16  1.82174092E-02
  1.05621730E-16 -4.89939803E-17  2.59162632E-02 -9.24562480E-01 -7.36418599E+00
 -2.85921573E+00 -1.28592302E-16  8.28303910E-16 -1.76181372E-02  1.68497735E-15
 -1.34974616E-14 -5.03023027E-01  3.57724455E-14 -1.25041577E-13 -3.70938070E+00
 -1.84051724E-02 -3.90983523E-16 -7.66597212E-17  4.89717635E-12  1.85172668E-16
 -3.69291530E-01  5.02561653E-15 -1.52476358E-14  6.21353241E-11 -1.26208866E-15
 -9.88323525E-02  7.45054810E-01  9.88677051E+00  3.01832750E+00 -1.04311431E-15
  3.35276389E-16  1.21567670E-02 -2.53406602E-16  1.21781409E-14 -4.15522047E-01
 -5.01712986E-14  1.39089662E-13  6.51264230E-01  2.14379228E-02  1.62531193E-16
  1.40206512E-16  1.86836205E-11 -3.63138761E-17  4.54464958E-02  3.24940540E-15
 -1.69733771E-14 -2.00610718E-10  5.66550863E-16 -7.30266137E-02 -4.97742443E-01
 -7.75255625E-02 -1.33834730E+00  3.29750706E-16 -9.30491773E-16  1.67900341E-02
 -2.39972489E-15  1.31032092E-15 -1.23024110E-01  1.58833145E-14 -3.06578926E-14
  1.53892249E+00  1.39943627E-02 -1.50705769E-16  4.77355161E-16  1.58118643E-11
  3.77333944E-16 -1.34601952E-01  1.51593821E-15 -1.36054105E-15 -1.24894997E-10
 -1.17159001E-15  1.40075790E-01 -1.74848641E+00  3.92251972E+01  3.50233560E-01
 -5.13508202E-16 -1.64901282E-15  1.98279030E-02  1.95114762E-14  1.82128877E-14
  2.73739972E-01  2.47593621E-15  2.60532747E-14  9.66160523E+00  2.40652245E-02
  3.08560639E-15  9.23978852E-16  3.89818201E-11  6.82397081E-18  3.80919781E-01
  3.27106200E-15  8.00629486E-15 -2.33025608E-10  2.88708859E-15  2.04150959E-01
 -8.39688354E-01 -3.60955938E+01 -1.64354273E+00  3.96644107E-15  8.20535346E-16
 -3.26184297E-02 -2.37836426E-14 -1.45245431E-14 -5.25547245E-01  5.39986747E-14
 -2.66956646E-14  9.36430607E+00  5.03743561E-02  3.09927572E-16  1.11349768E-15
  2.35855611E-11 -3.46943498E-16  3.73257458E-01  1.24944356E-14  1.27022309E-14
 -1.39646820E-10  3.32798104E-15  2.68346101E-02  3.37226029E-01 -1.20173896E+00
  2.29175680E-01 -2.20608594E-15  1.17938763E-15 -1.19068097E-02  1.58779948E-14
 -6.39660138E-15 -2.86188935E-02 -4.05085133E-14  1.33406513E-14  6.59813186E-01
  1.68672504E-02  5.80364987E-17 -2.54535074E-15 -1.57716794E-11 -3.05708510E-15
 -1.77917503E-01 -7.45528159E-15  6.16348947E-15  1.11888687E-10  8.78301241E-16
  4.32337441E-02  3.74664525E+00  4.90475775E+01  1.82200113E+00 -2.70186014E-15
 -2.11372837E-15  6.65594563E-02  4.32568594E-14  3.05007888E-14  1.36993106E+00
  6.31053215E-14  5.69121963E-14  1.10924490E+01  7.19918574E-02  4.63626367E-15
  2.67956937E-15 -1.72424748E-11 -1.46956038E-16  4.06692495E-01  1.12500613E-14
  1.14495655E-14  1.40247084E-10  4.66767115E-15  1.79674973E-01 -2.84296451E+00
 -4.96030229E+01 -1.76519519E+00  5.93737590E-15  1.33358816E-16 -2.11632042E-02
 -4.65905363E-14 -2.33925441E-14  1.45235004E+00 -6.65888648E-15 -5.57652696E-14
  1.31444794E+01 -4.27624955E-02  5.29993924E-16  1.95191235E-15 -1.36390161E-11
 -3.89658695E-16 -7.85370588E-01  3.16197550E-14  2.26750750E-14  9.28223347E-11
  4.19620718E-15 -6.77054800E-02 -1.10840319E+00  8.59991596E-01 -3.01145675E-01
 -1.83241828E-15  1.34629636E-15 -7.08218060E-03  2.32818593E-14 -4.62841906E-15
  5.79868658E-02 -3.23617875E-14  1.74670682E-14 -7.97475271E-02  1.24455785E-03
  1.92001138E-16 -4.49652197E-15  5.32379054E-11 -4.16557033E-15 -5.21290882E-02
 -1.09309454E-14  1.45722520E-14 -5.04564316E-10  1.48808748E-15  1.30138880E-03
  9.88952034E-01  8.69733970E+01 -4.58185328E-01 -7.19907090E-15 -3.70184708E-15
 -1.14196963E-03  9.47935032E-14  5.86547518E-14  8.84740852E-02  1.16624458E-13
  2.96903649E-14  1.65747192E+01  6.58562026E-03  9.64406834E-15  4.29717541E-15
 -3.41999692E-11 -7.06385266E-16 -1.60743121E-01  1.65421762E-14  2.39512883E-14
  2.53836796E-10  1.02626840E-14  2.45069288E-02  6.63138480E-01 -8.39696510E+01
  1.22900712E+00  1.15712989E-14  1.64550660E-15 -1.60855531E-02 -9.44005468E-14
 -4.80589957E-14  2.14139852E-01 -3.26719387E-14 -2.39135317E-14  2.78346287E+01
  7.46399144E-03  4.88432453E-16  3.84514201E-15 -4.03019495E-11 -1.77636625E-15
 -4.32994398E-01  7.43987987E-14  3.39689163E-14  4.06167254E-10  2.55609305E-14
 -1.12081189E-02  1.08001685E+00 -5.10677790E+00 -3.45497429E-01 -4.43949995E-15
  4.11055370E-15  1.39071854E-02  6.52353315E-14 -2.09585065E-14 -1.72239234E-01
 -6.68640109E-14  2.22668245E-14  2.95929717E+00  6.42157670E-04  2.10587882E-15
 -1.01319738E-14 -5.93269275E-11 -8.79723003E-15 -4.54033566E-02 -4.13166088E-14
  3.78313255E-14  6.83597760E-10 -2.58551300E-15 -5.55694884E-02 -8.92292474E+00
  2.31904632E+01 -2.89978900E-01  3.57917271E-16 -2.20456213E-15 -1.88611694E-01
 -5.80169656E-15  4.33905126E-14 -3.07907668E+00 -1.73483242E-14  5.98977696E-14
  5.03865438E+00 -2.10331465E-01  2.25211118E-15  3.32689111E-16  3.99993408E-12
 -5.05590453E-15 -9.26152694E-01 -2.93644870E-14  5.26829327E-14 -5.17022362E-10
  4.06434895E-14 -2.21718799E-01  8.82895362E+00 -2.31380320E+01  5.23077833E-01
  1.67298137E-15  5.17876186E-15 -9.72301167E-02  8.41588735E-17 -5.46133651E-14
 -2.95179360E+00  3.99413868E-14 -5.80657322E-14  4.50301299E+00  1.64219716E-01
  2.46930945E-16  1.27945583E-15 -1.18914421E-10 -7.97783069E-15  1.18218129E+00
 -1.60591041E-14  3.71467132E-14  1.77803476E-09  1.08040514E-13 -3.92729687E-02
 -3.07558615E-01  2.72667008E-01 -2.58683131E-02 -1.52846033E-15  4.68865850E-15
  5.49357502E-03  2.21946963E-14 -3.32832058E-14 -1.96842079E-01 -2.10562453E-14
  1.89686047E-14 -7.37776827E-03  3.65498000E-03  1.38864764E-15 -2.95762085E-15
 -5.59154655E-11 -8.28435953E-15 -6.35610774E-02 -1.29075607E-14 -3.59331341E-15
  8.13471317E-10  7.85616685E-14 -1.01926323E-10 -1.37353989E-08  1.00360055E-07
 -8.92955425E-10  2.07748177E-16 -1.51494438E-16 -3.11162089E-10 -7.10284781E-15
 -5.74905458E-16 -5.21838612E-09 -1.93090309E-14 -9.00819402E-15  1.92948077E-08
 -3.44591878E-10 -3.58598009E-16 -2.70863095E-16  2.89364905E-02  7.18712900E-07
 -1.88584725E-09 -8.02739051E-15 -3.09810723E-15 -2.43847510E-01 -6.05658626E-06
 -3.66127458E-10  1.57298225E-08 -9.83278911E-08  2.06171721E-09 -2.44382104E-16
 -1.10759367E-16 -1.66446414E-10  6.90111359E-15  3.97958210E-15 -4.72989914E-09
  2.14965342E-14  8.42468283E-15  2.86412378E-08  2.72867950E-10 -2.77806008E-16
 -1.58586605E-16  4.46131043E-02  1.10808232E-06  1.49627394E-09 -1.01714628E-14
 -2.68706850E-15 -5.59049198E-01 -1.38854389E-05 -3.41582009E-11  7.45178004E-10
 -4.34480103E-09 -2.41503135E-10  2.33997951E-16  5.88358379E-16  2.47798285E-11
  2.94190662E-16 -2.53203531E-15 -4.89834255E-10 -2.61345389E-15  2.00758418E-16
  2.53686881E-09  7.91156860E-12 -2.19249123E-16 -2.94286854E-16  4.68158911E-02
  1.16279425E-06 -1.54865472E-10  5.42393622E-15  4.76770024E-15 -6.55304992E-01
 -1.62762015E-05  4.19441422E-15  1.13155381E-12 -2.12165896E-12  4.39354470E-14
  7.59179067E-16 -1.63830552E-15  1.92451175E-14 -4.68496365E-15  2.24669577E-14
  3.81167749E-13  9.23418677E-15  4.68934371E-14 -5.27594276E-13  2.33258648E-14
  5.68671907E-16  6.97305695E-16  7.18712900E-07 -2.89364905E-02  1.02237928E-13
  1.71146993E-15  8.36638462E-15 -6.05658626E-06  2.43847510E-01  1.91321939E-14
 -1.05908180E-12  2.12205687E-12 -7.29559484E-14  5.85650351E-16 -2.03430083E-16
  1.08466684E-14 -9.20021333E-15 -6.60263676E-15  3.84441856E-13 -3.51225743E-15
 -5.78118603E-14 -3.04594430E-13 -1.89537087E-14 -2.62479107E-17 -2.15854003E-16
  1.10808232E-06 -4.46131043E-02 -1.80184123E-13  2.57514155E-15  2.88137449E-14
 -1.38854389E-05  5.59049198E-01  6.86256574E-15  5.48653639E-14 -8.53199587E-14
  1.80966777E-14  4.23869120E-16 -1.19302544E-15 -1.39099382E-15 -2.25794122E-15
  9.79402999E-15  3.97662820E-14  6.19893056E-16  2.46837481E-16  3.43113144E-15
 -4.52861213E-16  6.78612662E-16  1.14836821E-15  1.16279425E-06 -4.68158911E-02
  4.20086382E-15 -7.53144284E-15 -2.02171281E-14 -1.62762015E-05  6.55304992E-01
  7.63051290E-15 -8.31825969E-13 -1.91323828E-12 -9.64254470E-14  4.02025640E-02
 -6.21458836E-16  6.42918820E-15 -6.26266898E-01  8.30887824E-15 -3.25096569E-13
 -1.77670492E+00 -1.45399374E-16 -3.21443711E-13 -7.08430544E-15 -2.07789710E-02
 -3.31905084E-16 -5.29966020E-16  6.28042448E-16 -4.24718893E-14 -3.96860823E-01
  1.20544928E-14  7.01399855E-15 -5.53633777E-15  2.37121652E-14  6.97815307E-13
  1.95768431E-12  1.53603542E-13 -2.20849932E-02  6.57954955E-17 -1.11459855E-15
  5.00984968E-01 -4.79111352E-15 -3.91184013E-13  1.90930516E+00 -3.08625824E-15
 -4.86653188E-13  9.02324975E-15  8.27234022E-03  7.41599316E-16 -6.45708392E-16
 -2.37868312E-16  2.27759780E-13 -1.05962771E+00 -2.93288629E-15  4.52216116E-15
  3.26390189E-15 -7.01790370E-15  1.56679893E-14 -4.70154973E-14 -6.39180706E-14
  2.47343825E-02  1.24750919E-15  3.98522809E-15 -2.99274818E-01 -1.09306940E-14
 -7.84316436E-14  1.10797517E-02  5.24264641E-15  1.25846264E-13  1.27561306E-15
 -4.43395518E-02 -5.26551375E-16 -1.29386327E-17 -1.05104686E-15  1.94194277E-15
  7.42350654E-01  9.49442219E-15  2.94961083E-16  1.35977373E-14  3.04498551E-15
 -3.43951260E-13 -1.02362534E-12 -8.55276198E-14  2.36879583E-16 -4.02025640E-02
  3.21844715E-15  6.51855178E-17  6.26266899E-01 -1.40023904E-13 -1.81259600E-14
  1.77670492E+00 -2.06765912E-13 -2.39841518E-15 -4.75196750E-16  2.07789709E-02
 -5.49972198E-16  3.73312932E-15 -2.01803169E-14 -6.20972413E-15  3.96860824E-01
  8.35530493E-15 -4.52221481E-14  1.16969638E-14  2.93068643E-13  1.05751476E-12
  1.21090708E-13 -4.93235463E-16  2.20849932E-02  4.86277121E-16  1.14543005E-14
 -5.00984969E-01 -1.74746158E-13  1.31778617E-14 -1.90930516E+00 -2.16642458E-13
  3.88204504E-15  1.42091951E-16 -8.27234021E-03 -1.32318354E-16  2.06550307E-15
  9.28062202E-14 -1.07414934E-14  1.05962771E+00  1.02148281E-15 -2.17932769E-14
 -2.20829595E-15  1.28577628E-14 -4.05586202E-14 -4.15598953E-14  3.50689898E-16
 -2.47343825E-02  1.44750115E-15 -5.97110314E-15  2.99274818E-01 -3.04767808E-14
  3.31657908E-15 -1.10797517E-02  6.81660050E-14  7.92820439E-16 -5.61158997E-16
  4.43395518E-02  1.18361175E-15 -1.49750365E-15 -4.77698617E-15  8.96700190E-15
 -7.42350654E-01 -1.76990518E-14  2.62156715E-14 -1.48716017E-11 -5.86223367E-10
 -7.09046423E-10  5.51950595E-11 -4.47441683E-16  7.95729369E-16 -1.96133867E-11
  2.93539637E-15 -1.43786706E-14  2.99234297E-10  1.21232499E-14 -3.28793893E-14
  5.93456101E-10  1.98468179E-12  7.20148862E-18 -4.34498358E-16 -4.36930920E-02
  1.35439459E-06  5.23793448E-10  2.77908981E-15 -6.23425500E-15  6.17205255E-01
 -1.91320737E-05 -2.02716673E-11 -1.08348061E-09  2.34750226E-09 -2.88531404E-10
  8.05785010E-17 -3.92994369E-16  2.51422873E-11 -2.64497098E-15  7.64828824E-15
 -1.72085392E-10 -1.27060803E-14  3.64644960E-14 -8.04879522E-10 -2.52475589E-12
 -2.06467491E-16  3.82131689E-16 -2.01416362E-02  6.24348652E-07  4.46700433E-10
  7.08194520E-15 -2.29913961E-14  1.30354180E-01 -4.04070730E-06  4.12716593E-11
  7.14864372E-10 -1.21188435E-09  1.66225190E-10 -2.90164534E-16  1.24286579E-16
  6.45507054E-12  1.78293901E-15 -5.13463824E-15 -7.96401849E-11 -1.66365475E-15
  2.84018275E-16  5.48160400E-10  1.60768551E-11  3.63214000E-16 -6.82282890E-16
  4.99840862E-02 -1.54940227E-06 -1.51369600E-10 -5.07782362E-15  1.23684366E-14
 -7.48249402E-01  2.31941686E-05 -2.14997642E-15  3.90220667E-13  7.98937603E-13
  6.51646592E-14 -2.67394446E-16 -1.83507960E-15  3.44986537E-16  1.97210508E-15
  3.05414246E-14  1.39828114E-13 -6.54920616E-16  1.14662690E-13  1.22271550E-13
  4.52711228E-15 -5.19135706E-17  1.21387300E-15 -1.35439459E-06 -4.36930920E-02
  3.16811375E-14  1.00967410E-14  2.44414902E-14  1.91320737E-05  6.17205255E-01
 -2.94134423E-15 -3.58521953E-13 -7.41627050E-13 -1.07047534E-13  2.70391917E-16
  1.94454821E-15  1.56673308E-15 -3.51286213E-15 -3.62718540E-14  1.56396476E-13
  2.52466077E-15 -1.14939673E-13  2.79998874E-13 -3.79375178E-15 -1.43043014E-17
 -8.13155186E-16 -6.24348652E-07 -2.01416362E-02 -1.09181667E-13  8.85475986E-16
  6.48092130E-14  4.04070729E-06  1.30354180E-01  6.14366271E-15  2.82153391E-14
 -6.37269397E-14  3.69361101E-14  4.11671254E-16 -1.13164052E-15 -2.61590678E-15
 -4.61644633E-15  1.23817709E-14  4.39959808E-14 -1.38654542E-16  2.74880042E-15
 -1.83909912E-14  2.98390094E-16 -6.46840427E-16  2.68477494E-15  1.54940227E-06
  4.99840862E-02 -1.24413459E-14  1.37946693E-14 -4.37686643E-14 -2.31941686E-05
 -7.48249402E-01 -5.80941825E-15  4.60884102E-13  1.45581820E-11  2.02521721E-13
  5.70416765E-02  2.73706338E-15 -7.44474285E-15 -9.85690893E-01 -6.73571839E-14
  5.91009216E-14 -2.04532707E+00 -2.84709415E-13  2.66754852E-12 -5.59392532E-15
  2.69353212E-03  5.22910947E-16 -2.12806545E-16 -2.67998901E-16 -1.09010537E-13
 -1.49737811E+00 -2.01675061E-13  9.86747229E-16  6.90928468E-15 -1.40261578E-14
  9.68735786E-15 -1.42288683E-11 -2.54051092E-13 -5.56912281E-02 -1.19718233E-14
 -9.57372172E-15  9.12753285E-01  1.69333989E-13  2.03215441E-13  2.07462025E+00
  2.26993578E-13  4.51145750E-12  6.16245642E-15 -1.87993239E-02 -9.22038800E-16
  2.38960048E-16 -3.36609028E-16 -3.59877765E-13 -1.01986060E+00 -1.29212503E-13
  1.17969297E-15 -2.15785257E-15  1.18180327E-14  6.63450674E-14 -5.42399678E-13
  6.89389028E-14  1.74200941E-02  3.01758094E-15 -1.00182188E-14 -2.12146985E-01
 -2.63705563E-14  1.51760493E-13  3.85770009E-02  1.40180421E-14  1.59087078E-13
 -2.19316288E-15  3.11729344E-02  4.90480182E-15 -7.74406942E-17  9.37704714E-16
 -2.63039669E-14 -4.59082330E-01 -7.50110482E-14  1.22751279E-15 -1.19889907E-14
  4.60998781E-15 -2.34636458E-13 -1.01091757E-11 -1.32305912E-13 -6.69241469E-15
  5.70416764E-02  5.99000488E-15  1.15354103E-13 -9.85690893E-01 -7.26164674E-15
  2.65398215E-13 -2.04532706E+00 -1.83565019E-12  5.05585306E-15 -1.21843533E-15
  2.69353214E-03  2.04143156E-16  1.88655343E-16  9.13579088E-14  1.97608676E-13
 -1.49737811E+00 -2.41747433E-15 -8.69806319E-15  9.58433205E-15 -9.47513416E-14
  9.86241823E-12  1.60842474E-13  7.85250161E-15 -5.56912281E-02  6.79804726E-15
 -1.23162457E-13  9.12753285E-01 -1.02068066E-13 -2.61873044E-13  2.07462024E+00
 -3.16166731E-12 -5.61672059E-15  2.21252180E-15 -1.87993239E-02 -1.98517917E-17
 -2.09655930E-16  2.36663066E-13  1.24570125E-13 -1.01986060E+00  1.31439373E-15
  7.78032870E-15 -8.28130690E-15 -5.26253283E-14  4.00418598E-13 -4.37827893E-14
 -1.09598626E-15  1.74200941E-02  5.92903370E-15  1.74012775E-14 -2.12146985E-01
 -9.78739682E-14  1.76204249E-15  3.85770008E-02 -1.31894152E-13  4.27805547E-16
 -4.52020091E-15  3.11729345E-02 -4.14737060E-17 -7.28126952E-17  2.98971261E-14
  6.54221057E-14 -4.59082330E-01  4.37058215E-16  3.92828784E-16  3.95036702E-14
 -3.82359822E-12 -6.42951570E-11 -1.34996722E-12  5.03405298E-02 -8.38838354E-15
  3.66619743E-14 -5.91046838E-01  1.02450947E-13 -1.29783311E-12  6.61986294E-01
 -8.20326947E-14 -1.29289715E-11 -4.59447366E-15  4.08054579E-03 -8.23858231E-16
 -2.39882265E-16  3.48190015E-16 -1.84167868E-13  3.39460447E-01 -4.36981050E-14
  3.57544552E-15  4.08519057E-15  8.49647970E-14  2.40831439E-12  6.33493686E-11
  1.55329739E-12  6.89748018E-02 -1.03896455E-14  2.29676508E-14 -8.79678731E-01
  1.35732323E-13 -1.81039387E-12  1.03655901E-01 -3.83686245E-14 -1.83796946E-11
  1.52241874E-14 -5.78920602E-03  9.02124276E-16  4.92740551E-16  9.75492127E-16
  1.48094491E-12  1.20833398E-01 -3.48282975E-15 -5.20101120E-15 -1.53137748E-14
 -3.84815727E-14 -1.30476813E-13  1.68437829E-12 -3.79895894E-13  2.51649924E-02
 -5.93003693E-15  3.74787057E-14 -3.46653216E-01  7.60331134E-14 -6.40394076E-13
  9.72970950E-02 -2.71599799E-14 -2.74876583E-13  1.54955250E-14 -1.06194355E-02
  1.45816962E-15  5.87040398E-18  1.89659205E-16 -6.17631728E-14  1.62165586E-01
 -2.31759038E-14  6.05506462E-16 -3.13628601E-15 -3.26053442E-15  6.34983565E-13
 -1.84244047E-12  1.45650463E-13 -1.21711059E-14 -5.03405298E-02  2.76151801E-16
  1.63026992E-13  5.91046838E-01  3.32069996E-13  3.66695873E-14 -6.61986293E-01
 -7.53854937E-14  9.37886693E-15 -1.37648993E-15 -4.08054580E-03 -9.14466044E-17
 -3.47329222E-16  2.00277869E-13  5.09818238E-14 -3.39460446E-01  7.34642134E-16
  7.74850764E-15 -6.64105546E-15 -8.28032170E-13  1.66875865E-12 -1.67152980E-13
 -7.25580913E-15 -6.89748018E-02  5.52683972E-15  7.87034313E-14  8.79678731E-01
  3.08333607E-13 -1.60932770E-13 -1.03655902E-01 -9.45575229E-13 -1.34837112E-14
  1.93455139E-15  5.78920602E-03 -1.31853576E-16  3.34979532E-16 -7.88481353E-16
  5.25376172E-14 -1.20833397E-01  2.12924968E-15 -6.57477317E-15 -1.87402546E-15
 -4.61576396E-14  2.56250480E-13  3.85217727E-14 -6.16176606E-15 -2.51649924E-02
  9.00681307E-16  8.10875717E-14  3.46653216E-01 -3.90533977E-16 -2.40315801E-14
 -9.72970949E-02 -1.63916384E-13 -1.99022530E-15 -6.29702369E-16  1.06194355E-02
  2.52063902E-17  6.55290007E-16  4.47325040E-14  7.11779381E-15 -1.62165586E-01
 -4.63095192E-16 -1.32914297E-14  5.46772693E-02 -5.50529631E+00 -8.38390978E+01
 -1.97527342E+00 -3.01652716E-14  4.80746890E-15  4.79217306E-02  3.20800185E-13
 -4.82095918E-14 -1.97158461E+00 -4.07985191E-13  7.68082939E-14 -1.72805511E+01
 -1.01681550E-02 -1.77541232E-14 -1.19996604E-14 -1.36518165E-11 -5.09142176E-15
 -4.95793218E-01 -4.37682855E-13  1.63183346E-13  2.21113257E-10  6.46380994E-14
  1.12390386E-01  3.89354132E+00  8.27820023E+01  2.26318078E+00 -8.18000924E-14
  5.66913186E-15  2.69817110E-02  9.87977405E-13 -1.37699218E-14 -2.61783060E+00
 -4.21111518E-13 -6.62029225E-14 -2.34267902E+01  2.96955542E-02 -3.99933685E-15
 -2.00274513E-15  7.02464642E-12 -2.19148165E-15  1.91752461E+00 -1.03542108E-13
 -5.95513075E-14 -1.57708719E-10  1.56202342E-15 -4.78747070E-02 -1.19981104E-01
  1.95264752E+00 -5.42722496E-01  1.32565404E-14 -8.34696227E-15  4.97407094E-02
 -2.10459992E-13  7.08439266E-14 -8.63204515E-01  2.87678968E-13 -4.30128980E-14
 -1.81654681E-01  2.31035074E-02  2.56010061E-14  9.21454510E-15 -6.57109895E-13
  1.71247859E-14 -1.41319214E-01 -4.03036879E-13  5.65839685E-14  1.63571801E-11
 -2.62458058E-14 -3.16629870E-02  4.68233592E+00 -3.88322910E+01  1.59972326E+00
 -3.86037288E-15  9.40175717E-15  2.25566997E-03  3.30842046E-14 -1.21557306E-13
  2.61050647E+00  3.97621980E-15  1.75922129E-15 -4.43305522E+00  6.01008456E-02
 -7.16133294E-15 -2.11725762E-15 -1.19417512E-11 -5.45991345E-15  2.28588350E+00
 -1.13642277E-13  5.60391891E-14  4.01659475E-10  1.07090428E-13 -2.79847243E-02
 -7.31782109E+00  3.67426337E+01 -1.92586970E+00 -2.18013891E-14  7.87536229E-15
  5.32503749E-02  2.51097533E-13 -9.16523494E-14  2.21360895E+00 -2.30244355E-13
  1.36081172E-13 -1.57015725E+01 -1.00716110E-01 -3.20378149E-15 -2.36243536E-15
  3.09928486E-11  2.91653089E-15  3.75449536E-01  1.15022698E-15 -2.70459155E-14
 -6.27209218E-10 -8.72986173E-14 -2.78011272E-02 -4.85159960E-01  3.20687731E+00
  4.62677819E-01  2.15603760E-14 -1.73212482E-14  5.15373646E-03 -3.26583545E-13
  2.14492702E-13  4.89234676E-02  2.46658694E-13 -1.54017733E-13 -2.00499500E+00
 -1.22858698E-02  8.39981219E-15  1.35165414E-15 -9.58730277E-12  6.90239400E-15
  3.76733352E-01 -1.48826862E-13  8.93715329E-14  1.91644148E-10  1.84884770E-15
 -7.68923366E-15  6.94150706E-13  5.14641192E-11  4.10430110E-13 -2.67097519E-02
  4.34062820E-15 -1.38634618E-14  3.84015773E-01 -6.70473177E-14 -7.93163790E-14
  9.44544415E-01 -1.65136041E-13  9.57949846E-12 -1.59131361E-14 -6.65362375E-03
  2.36863210E-17  1.27052517E-16 -1.54514132E-16 -5.53906822E-13  2.85320625E-01
 -4.84374767E-14 -1.97184439E-15  3.85642287E-16 -2.74819044E-14  8.99214372E-13
 -5.04524232E-11 -4.21195507E-13 -1.01050972E-02  1.40295982E-15 -3.28191746E-14
  1.04545701E-01 -6.47447816E-15  3.67900581E-13 -1.36767940E+00  2.31698619E-13
  1.58046161E-11  1.93902635E-14 -9.83249799E-04 -5.28333894E-16  1.66307313E-16
  2.51275066E-16 -8.96113191E-13  3.60517252E-01 -6.79059546E-14 -4.41404663E-16
 -2.72202717E-15  2.55080283E-14  1.64212663E-13 -1.83299403E-12  8.81759828E-14
  8.34055537E-02 -1.36710636E-14 -2.54838434E-14 -1.22969900E+00  2.08013977E-13
  3.94246146E-13  8.59059634E-01 -1.43928684E-13  6.66454686E-13 -1.03764048E-14
  1.07450508E-02 -2.21084980E-15  1.03534707E-16 -4.43731077E-16  3.82045399E-14
 -2.29856528E-01  4.09984909E-14 -1.43240749E-15  2.30369200E-15  3.26395643E-15
 -1.20378402E-13  1.30656625E-11 -1.97257603E-13  4.43370080E-15  2.67097519E-02
  1.94089423E-15 -7.17710159E-14 -3.84015773E-01 -1.79046233E-13 -2.12813743E-13
 -9.44544414E-01  2.05523369E-12 -6.54615002E-16  1.97952049E-16  6.65362376E-03
  7.30969684E-17  4.04176965E-16 -4.01442120E-13 -7.39378241E-14 -2.85320625E-01
 -4.68980107E-16 -1.57952337E-14 -4.72451563E-15  7.57296927E-13 -1.26991473E-11
  2.47901291E-13  8.61192924E-16  1.01050972E-02 -9.17217360E-15  1.41170616E-15
 -1.04545701E-01 -3.68326291E-14  2.76538093E-13  1.36767940E+00  4.47062657E-12
  5.82000607E-15 -5.91900380E-16  9.83249795E-04  6.98675655E-17 -5.47068951E-16
 -2.16775022E-13 -9.08521081E-14 -3.60517252E-01 -1.55114194E-15  1.85045287E-14
  6.08662353E-15  6.86673852E-14 -6.46731233E-13 -5.86052943E-14 -1.38603811E-14
 -8.34055537E-02 -3.29415031E-15  2.01047823E-13  1.22969900E+00  2.81497205E-14
 -1.41832650E-13 -8.59059634E-01  3.40338499E-13 -1.93169411E-15 -9.81963286E-16
 -1.07450508E-02  1.87440512E-17  4.01873750E-17 -4.62303115E-15  3.01563061E-14
  2.29856528E-01 -1.87118940E-16 -3.62693306E-15  6.72345714E-11  5.09969948E-09
 -5.94350680E-08 -1.51917417E-10  3.16459411E-16 -1.40528320E-16  1.29074381E-10
  2.15797674E-15  6.62775046E-15  1.64988403E-09  1.41364896E-14  1.90526400E-15
 -1.13015594E-08  1.11976965E-10 -3.59698330E-16  2.53997257E-16  5.88482631E-02
  2.09842391E-06  7.33673462E-10  1.90182212E-14  2.53675794E-15 -1.49339196E+00
 -5.32516887E-05  1.09133238E-10 -5.56012781E-09  5.69221680E-08 -1.85613423E-10
  1.21015023E-15  3.47760328E-16  3.65387263E-11 -1.78752205E-14 -6.59722160E-15
  1.90071873E-09 -1.20287504E-14 -1.05274104E-15 -1.75926335E-08 -1.08167558E-10
  7.76625914E-16  3.23311742E-16 -6.08780713E-02 -2.17080325E-06 -2.09340767E-10
 -9.31941292E-15  4.52391571E-15  1.53336443E+00  5.46770356E-05 -1.98056844E-11
 -3.09895683E-10  2.48834514E-09  2.21716544E-10  1.65072534E-16  2.29602658E-16
 -2.51705120E-11 -8.57090149E-16 -1.33867557E-16  4.81825126E-10  3.90162826E-15
 -6.73279977E-16 -2.01037512E-09 -3.56159841E-11  2.85175456E-16 -3.76917044E-16
  1.28031476E-02  4.56537365E-07  8.54121725E-10 -6.71186619E-15  3.32208137E-15
 -2.75166251E-01 -9.81193685E-06 -6.54445490E-15 -3.84817729E-13 -1.68294994E-12
  1.27497352E-13  8.93026826E-16 -2.86116679E-16 -8.94301120E-15 -7.71098216E-15
  1.58881301E-14 -7.30507692E-14  2.36042745E-15  2.64961951E-14 -1.69160554E-13
 -7.06150375E-15 -1.68250970E-16  6.57028618E-17 -2.09842391E-06  5.88482631E-02
  1.18364630E-13  8.03211535E-15  1.27189780E-14  5.32516887E-05 -1.49339196E+00
 -3.76325151E-15  1.13367170E-13  1.79673543E-12 -1.39503067E-13  5.87646435E-16
  1.24395181E-15  4.24223831E-15 -6.73249358E-15 -7.34157466E-15 -1.73255068E-13
  2.05463288E-15 -3.14388091E-14 -6.52084164E-13  5.48744941E-15  8.89430426E-16
 -1.00265625E-15  2.17080325E-06 -6.08780713E-02  1.27261709E-13 -8.40631856E-15
  1.39015225E-14 -5.46770356E-05  1.53336443E+00 -7.12101177E-16  1.87415692E-14
  2.20089449E-14  1.70623183E-14  2.18078846E-15  2.22717679E-15  2.27014837E-15
 -5.83421393E-15 -1.42827756E-14 -4.06276062E-14  4.53625192E-15  9.48596658E-15
  4.86623786E-14  5.27804996E-15  2.74653290E-16  1.22731531E-16 -4.56537365E-07
  1.28031476E-02 -9.38607235E-14 -4.19375280E-15  1.93057192E-15  9.81193685E-06
 -2.75166251E-01 -7.79543608E-02  5.69954358E-01  3.58938124E+01  7.04103829E-01
 -7.37684728E-15 -2.79255328E-15 -5.35392938E-02  1.05014875E-13  4.32616650E-14
  8.14110906E-01  1.29451089E-13 -7.67381568E-14  7.27729333E+00  2.23597713E-02
  5.26919749E-15  5.69669098E-15  4.21429292E-11 -1.84262302E-15  6.88499061E-01
  8.87146570E-14 -7.50555457E-14 -1.04064296E-09  6.95478732E-14 -5.99984272E-02
 -1.55551198E+00 -3.25405011E+01 -4.15954118E-01  9.95049919E-15 -1.18242119E-15
  7.67465636E-02 -9.15033257E-14 -8.55991840E-15 -4.99001630E-03 -1.27714985E-13
  9.28823700E-14  1.15899905E+01 -2.10570714E-02  2.25413991E-15  2.62879060E-16
 -3.38507148E-11  3.91139610E-15  8.61118713E-02  5.27824649E-14  5.90597195E-14
  9.63532067E-10 -8.87874777E-14  4.87011008E-02  6.92207453E-01 -2.88823264E+00
 -2.19447026E-01  9.90536032E-15 -1.49402770E-15  4.41960152E-02 -1.33313232E-13
  4.61111352E-14 -6.57648445E-01  7.67406485E-14 -4.44114716E-14  2.51547126E+00
  5.86688062E-02 -1.36697042E-15 -7.79248320E-15 -4.57893328E-14 -9.52740688E-15
 -1.25325031E+00  9.26008520E-15  3.36711439E-14 -5.32764088E-11  2.40332290E-14
  5.22760328E-16 -3.03273425E-13  1.81508100E-13 -2.49998429E-14  3.28814212E-02
  1.63898273E-15 -2.20872747E-15 -2.90081892E-01 -1.84367651E-14 -1.35625515E-13
  8.58307751E-01  4.43700291E-14  3.01562005E-14 -6.25659316E-15 -2.80040928E-02
 -1.71153360E-15 -6.07552828E-16 -7.47597687E-16 -2.37213567E-14  1.24283184E+00
  4.44600004E-14  1.92838322E-14  1.17839750E-14 -3.62345217E-16  3.07432371E-13
 -1.76296351E-13  2.73358235E-14  4.27088321E-02  1.21793560E-15 -2.81462077E-15
 -6.04100640E-01 -1.07218542E-14 -1.30429217E-13 -9.08137416E-01 -4.98133028E-14
  5.46321550E-14  6.01931887E-15  4.70025230E-02  4.17491738E-16  1.78553437E-16
  2.61737582E-16  3.18412717E-14 -1.08643297E+00 -3.84841883E-14 -2.07419436E-14
 -1.33194717E-14 -1.55914201E-16  5.20254286E-16 -1.26669194E-14 -4.26666925E-15
  9.50810616E-03 -6.25760471E-16 -1.26422804E-15 -3.66938940E-02 -6.19808686E-15
  2.59002510E-14  3.68872726E-01  2.25081364E-14 -5.19586033E-15  5.86678496E-16
  3.17699293E-02  1.11915724E-15 -1.36184595E-16 -4.78650562E-16 -3.87430025E-15
 -7.16568635E-01 -2.78225403E-14  2.96234756E-15 -4.90483420E-16 -4.08098311E-15
 -1.27823329E-12  9.91070920E-12  1.13998347E-13 -9.17127418E-19  3.28814212E-02
 -1.36827266E-14 -3.82424923E-15 -2.90081892E-01 -5.41357262E-13 -1.82261425E-14
  8.58307750E-01  1.92136792E-12 -2.62604876E-14  1.61925772E-16 -2.80040928E-02
  2.53354197E-16  3.13245454E-16 -9.41387714E-14 -4.26121887E-14  1.24283184E+00
 -4.97924785E-15 -1.07111464E-15  1.41084445E-15  1.30373593E-12 -9.37709265E-12
 -1.02495626E-13 -1.45975884E-15  4.27088321E-02 -6.61570282E-15  2.88726150E-14
 -6.04100640E-01 -5.70025568E-13  2.19179499E-14 -9.08137415E-01  3.10802420E-12
  2.60264236E-14 -2.44736902E-15  4.70025230E-02 -2.73983047E-16  5.14725421E-18
  9.66769400E-14  3.62161542E-14 -1.08643297E+00  1.59951826E-15  2.52990199E-15
  4.43017816E-15  1.04005979E-13 -5.86809545E-13 -2.06444989E-15 -1.50999768E-15
  9.50810615E-03 -4.40377003E-15  4.18089789E-15 -3.66938938E-02  7.68349336E-14
 -1.60341395E-14  3.68872726E-01  3.41109136E-13  6.02155665E-15 -1.09742944E-15
  3.17699294E-02  2.62871308E-16  8.33253004E-17 -1.53161082E-13  2.39390282E-14
 -7.16568635E-01 -2.53842678E-16 -6.25082810E-16  9.56346528E-02 -1.10776468E+01
 -1.03371600E+01 -1.54999007E+00  8.02782075E-15  2.89299137E-17 -2.73199484E-02
 -1.30685043E-13 -1.30106961E-15 -4.58537060E+00 -3.65806932E-14 -1.52504864E-13
 -3.72649100E+00 -1.37100049E-01 -7.55020069E-15 -4.02949345E-15 -4.43803324E-12
 -1.30247894E-15 -1.66554305E+00 -6.81080522E-14 -1.10795007E-13  1.16132858E-10
  2.95529856E-14  3.86776765E-02  1.06276847E+01  1.29697790E+01  1.59758195E+00
 -7.45092008E-15  5.30596490E-16 -4.76402311E-02  1.40270561E-13  6.19144382E-14
 -4.45164957E+00  2.71952385E-14  1.59029932E-13  4.31825611E-02  1.32950014E-01
 -4.84855067E-15 -6.26323295E-15  2.17272096E-12  1.08232896E-15  2.45036451E+00
 -3.93220877E-14  4.48483207E-14 -1.00079788E-10 -2.99346000E-14 -4.09083907E-02
  7.88346536E-01 -2.62326668E+00 -3.02097837E-01 -1.38541341E-15 -1.68018835E-16
 -2.61774469E-02  2.32236950E-14  2.46595382E-14  7.18408503E-01 -1.29879561E-14
 -5.20821442E-14  1.68203563E+00  6.44181840E-02  2.63385166E-15 -1.04274793E-16
 -5.05752175E-12  4.23361550E-15 -1.36252799E+00 -4.95545326E-15  5.40980466E-14
  4.02407030E-11  3.85110553E-15 -9.22761200E-02  3.96439143E+00  1.52986827E+00
 -2.88730621E+00 -3.16121929E-15 -4.37466007E-15  1.60820840E-01  5.54645634E-14
  6.45598811E-14 -1.10206665E+00  5.06887359E-14  3.97026094E-14 -8.50542533E-01
 -3.64299801E-02  2.81570634E-15  3.24803301E-15 -5.60255247E-12  2.90936772E-16
 -9.26121234E-01  3.28113244E-14  3.57924373E-14  3.97249288E-11 -4.34367589E-15
 -5.23471863E-02  6.74901550E-01 -4.19257453E+00  3.56864861E+00  2.67524856E-15
  5.44194864E-16 -1.34816511E-01 -5.31064944E-14 -6.54779531E-14  2.33576935E+00
 -4.88557412E-14 -3.96411308E-14  1.94834706E+00 -7.06149862E-02  2.23195947E-15
  3.62261994E-15 -1.08398262E-11 -2.44461977E-16 -1.76099896E+00  3.09809732E-14
  2.52829405E-14  2.47928240E-11  4.29322776E-15  1.48527220E-01 -1.27412233E-01
  3.28969377E-01 -1.00416723E+00  1.32150619E-15 -1.57729146E-15  2.61801479E-02
 -4.80127137E-15 -1.57589073E-15 -5.33639428E-01  6.27456402E-15  4.83528143E-15
  8.24820601E-02 -3.11631251E-02 -1.09409517E-15 -1.96836095E-15 -4.15196612E-12
 -2.93327381E-15  2.28652602E-01  3.83320488E-15 -5.67860308E-15  2.50856112E-11
  2.71024211E-15  1.70698190E-14  4.47061897E-12 -1.44347188E-11 -1.44324647E-13
 -1.06737314E-01 -2.64913932E-15  2.13660206E-14  3.70290548E+00  1.70458920E-13
  2.07428369E-12  1.74518159E+00  8.91056895E-14 -2.82119334E-12  7.68947400E-14
  7.76005921E-02  2.90987288E-15 -3.56685777E-16 -3.30326408E-16  3.34126363E-13
  1.72160724E+00  8.69811573E-14  6.58012721E-15 -1.13274511E-15 -1.09591429E-14
 -4.70160108E-12  1.40801184E-11  1.13216469E-13  1.03834474E-01  5.87641012E-15
  2.54884745E-14 -3.63862588E+00 -1.70334398E-13  2.04039688E-12 -1.72901368E+00
 -9.23070182E-14 -4.21614006E-12 -7.05613811E-14  7.97031519E-02  2.47187975E-16
  1.49592541E-15 -4.58183329E-16 -1.39983431E-13  1.89732881E+00  8.26847426E-14
 -6.78629481E-15  1.59023925E-15 -1.35442258E-14 -1.13905671E-14  4.84389303E-13
  1.55220567E-15 -1.43481678E-02 -4.87530866E-15  9.54355129E-15 -7.59642595E-02
 -8.40588033E-15 -5.20401794E-14  3.59645364E-02  9.42591981E-15 -2.58497865E-13
  8.40494973E-16 -8.22308600E-03 -1.63629161E-15  1.87866527E-15 -1.61235575E-15
  9.88952435E-15  1.87684642E-01  4.13521032E-15 -5.39039552E-16 -7.20932515E-16
 -4.26854997E-14  3.23833602E-12  9.66549808E-12  1.44981084E-13 -6.34813509E-15
  1.06737314E-01  5.17395423E-14  1.57360149E-13 -3.70290548E+00  1.31860362E-12
  3.81560036E-14 -1.74518159E+00  1.95605834E-12  6.92709018E-14  5.39752428E-15
 -7.76005922E-02  9.32314207E-17 -8.88918292E-16  1.44582849E-13  5.62301129E-14
 -1.72160724E+00 -4.36200335E-15 -2.75820067E-15  1.57786967E-14 -2.98337684E-12
 -9.42711056E-12 -9.83327159E-14  5.71397339E-15 -1.03834474E-01  4.96750170E-14
 -1.46595586E-13  3.63862588E+00  1.40737231E-12 -3.77771431E-14  1.72901368E+00
  3.01616521E-12 -7.64940042E-14  5.06999359E-15 -7.97031519E-02 -1.16751854E-15
 -8.69897858E-16 -3.22662099E-13  7.59034003E-14 -1.89732880E+00  4.68540511E-15
  3.22393743E-15  3.44322511E-14  1.50079888E-14 -3.65257214E-13 -3.51831985E-14
  1.16465792E-15  1.43481678E-02  3.33008540E-15 -1.66693631E-15  7.59642595E-02
 -1.75692748E-14 -4.15673935E-15 -3.59645364E-02  2.38947828E-13 -3.08780736E-15
 -5.41705295E-16  8.22308600E-03 -6.44806268E-16  3.17326710E-16 -2.27271680E-14
  1.23773641E-14 -1.87684642E-01 -8.14336029E-16 -2.81104266E-16 -2.61785437E-01
  3.03483404E+01 -3.04328332E+00  1.26500871E+00  3.58644669E-15 -1.29129141E-14
  3.43446540E-01 -6.45511483E-13  4.62952420E-13  1.31956991E+01 -4.22563189E-13
  4.30404479E-13  3.23965907E-01  5.54011125E-01 -6.78465275E-15  3.17998127E-14
 -1.30460054E-11  1.85015934E-15  2.15523573E+00 -3.16511582E-13  3.14974314E-13
 -5.29841945E-12 -3.27166011E-14  1.31582251E-01 -3.02797773E+01  2.60911947E+00
 -1.29167301E+00 -1.76779829E-14 -1.22320370E-14  3.57785434E-01  6.24004886E-13
 -4.90988156E-13  1.32606904E+01  4.29701553E-13 -4.42956184E-13 -7.69113352E-01
 -5.69498984E-01 -1.20436933E-14  2.04716822E-14  1.33199365E-11 -3.19018564E-15
 -2.15641816E+00 -3.77477262E-13  2.20615616E-13 -1.00614877E-11  3.66416919E-14
  1.93144555E-01 -2.32406747E-01  5.22871357E-01  7.63031636E-02  6.46473566E-15
 -2.74513057E-14  2.79020241E-02  5.15511934E-15 -4.13551585E-14 -2.62334776E-01
 -9.74633249E-15  7.62237541E-14 -1.64640080E-01 -1.70523453E-02 -1.28736821E-14
  1.07506401E-14  2.75073621E-12 -5.83043660E-15  1.51281198E-01 -2.42843725E-14
 -2.79977615E-14  2.57923111E-12 -5.48840393E-15 -5.53275038E-01 -2.17706658E+00
 -2.28714984E+01 -2.30922528E-01  6.69623177E-15  3.51893354E-15  3.97339769E-01
  1.45790541E-13  6.97697018E-14 -1.91771210E+00  7.38538296E-14  2.40193656E-14
 -5.62996121E+00  3.09722049E-01 -1.82280750E-14 -9.78602522E-15 -1.98107430E-12
 -1.96968719E-15 -8.27764807E-01  7.70157644E-14  2.92940097E-14 -4.34405031E-11
  4.10974252E-15  4.65988734E-01  2.18434174E+00  2.36875360E+01  2.60919442E-01
 -1.55775237E-14  3.05525405E-15  4.45223535E-01 -1.37283337E-13 -6.47310234E-14
 -1.78662558E+00 -9.01585992E-14 -2.57813921E-14 -4.37938592E+00 -3.20904851E-01
 -8.14243881E-16 -7.18647245E-15  9.35387711E-12 -2.14256978E-15  7.97404026E-01
  8.01050325E-14  4.44495109E-14 -3.64165633E-12  2.64446494E-15 -8.33429419E-01
  1.30162126E+00 -1.25857558E+00  1.14589012E-01 -5.47468623E-15 -6.51285903E-15
 -2.70810461E-03  1.29660371E-14 -1.14278949E-15  7.00357281E-02 -7.55955129E-16
 -3.16706600E-15  5.33786263E-01  1.51400171E-02  2.89978648E-15  2.21383532E-14
 -1.73997413E-11  2.49948404E-14 -2.42425808E-01  9.03219860E-16  2.01989486E-15
 -8.53838227E-12 -8.67725156E-15  2.94354492E-02 -6.96660012E+00 -3.25375799E+01
  5.83238468E-01  1.17337051E-14  7.56852542E-15  1.59195307E-01  1.60166011E-13
  3.89472069E-14 -3.46584875E+00  8.83932527E-14 -9.26812921E-15 -6.84934097E+00
  1.82487162E-01 -2.69680902E-14 -1.82823693E-14  1.53580075E-11 -2.94275971E-15
 -8.91555333E-01  8.65727264E-14  8.94518948E-15 -2.94009235E-11  4.15700764E-15
  5.45833979E-01  6.05362750E+00  3.20004083E+01 -7.55460744E-01 -2.59552964E-14
  1.03012960E-14  2.09577432E-01 -1.43425542E-13 -3.78724506E-14 -3.21768976E+00
 -1.16139275E-13  1.06934464E-14 -9.35393429E+00 -2.07873643E-02  3.77778245E-15
 -1.57651530E-14  1.62264969E-11  6.17714741E-16  9.33624654E-01  9.02410765E-14
  3.37060326E-14 -7.04143301E-12  2.50852492E-15  1.26050233E+00 -1.92809452E+00
  2.06153811E+00  5.61318450E-02 -5.57813881E-15 -2.98780690E-15  4.52424216E-03
  2.05927514E-14  1.99862536E-15  1.33363319E-01 -3.64460395E-16 -1.38392323E-14
 -7.52347011E-01  9.08705253E-02  7.78103177E-15  3.60040574E-14  3.37716258E-11
  4.78242710E-14  9.79161691E-02 -3.72621251E-15  3.76219548E-15 -6.83191302E-12
 -1.69444965E-14  9.12963443E-01  6.25384279E+00  2.07664593E+01  9.38760581E-01
 -1.08690784E-14 -1.42648564E-14 -1.59597860E-01 -4.73024232E-14 -6.63538670E-16
  1.91141038E+00 -3.57997398E-14  1.10345101E-14  3.72830458E+00  2.54614020E-01
  3.28085463E-14  1.92996304E-14  4.65162447E-11  8.29639655E-16 -1.54582348E-01
 -3.39673629E-14  3.69171164E-16 -2.45996266E-11 -3.85077945E-15  7.30406665E-01
 -5.61881628E+00 -2.11024731E+01 -1.04131546E+00  2.79890551E-14 -1.40188521E-14
  6.18824754E-02  2.98401184E-14  1.09941533E-14  3.63725462E+00  5.56906265E-14
 -1.43915584E-14  6.31220435E+00  2.83850320E-01  5.48301393E-16  1.81413670E-14
  4.95558339E-11  1.13342000E-15 -1.93021895E+00 -3.10885364E-14 -1.52052659E-14
 -3.55729128E-12  3.63050440E-16 -4.53418273E-01  5.60601720E-01 -4.90561954E-01
  3.39404062E-01  5.17954882E-15 -2.23996298E-16 -1.43548788E-01 -1.49878130E-14
 -4.85161346E-16 -1.14903506E-01  1.13386128E-15  9.31082888E-15 -7.13847241E-02
 -5.42612276E-02 -1.02635116E-14 -3.15753487E-14 -1.28437696E-11 -4.60179248E-14
  3.41722823E-01  5.80113886E-15  1.42442301E-15 -5.32641426E-12  1.80466567E-14
  6.25869743E-11  6.28777564E-11  1.71895261E-10 -7.12381472E-13 -5.22135116E-14
 -8.30587936E-16 -2.23257665E-11  4.20610819E-14  3.51648717E-15  4.39704851E-11
 -2.99795807E-15  1.48647981E-15  2.85030265E-11  2.19810263E-11 -3.10752433E-14
 -2.26875352E-15 -6.84265028E-01 -1.53137706E-04 -1.50034253E-11  1.73638178E-14
  1.77539914E-15  2.35508294E-01  5.27064783E-05  6.21235394E-11 -1.97800200E-10
 -9.94045527E-11 -3.06567003E-11 -5.38527189E-14 -3.86973656E-15  2.24670905E-11
  3.32523535E-14  5.21137920E-16  7.05085803E-11 -2.33438720E-14 -3.28400476E-15
  1.77208077E-11  2.34661167E-11  2.98642518E-14  2.67975552E-15 -6.84740785E-01
 -1.53244180E-04 -5.56242683E-11 -9.51990045E-15  6.11634777E-16  2.35632766E-01
  5.27343351E-05 -2.36914362E-12 -3.40825616E-12  2.20612216E-11  8.46149888E-12
  2.91335116E-15  4.90986697E-15 -1.69567115E-11 -3.26574697E-15 -3.78789947E-15
  6.71523880E-12  6.05168071E-15  1.69987555E-15 -2.31742196E-11  2.63432534E-12
 -2.50742582E-14  5.99799725E-16 -6.43637816E-02 -1.44045384E-05  1.43044265E-11
  5.85860268E-15 -5.83479460E-16  6.91547790E-03  1.54767580E-06 -1.13995334E-14
 -2.91270229E-14 -4.89617927E-14 -4.62337392E-15  4.35438724E-14  6.96813634E-14
  6.02290514E-15 -2.38911423E-14 -4.29946989E-14 -1.98210082E-14  2.53117383E-15
  1.53489251E-14 -1.32105557E-14 -3.99690702E-15  2.74420123E-14  3.49109945E-14
  1.53137706E-04 -6.84265028E-01 -1.33615846E-15 -1.40655066E-14 -1.49341884E-14
 -5.27064783E-05  2.35508294E-01 -1.62227383E-14  6.83945679E-14  2.64207310E-14
  1.29562481E-14  4.51230631E-14  7.49233253E-14 -8.79954780E-15 -3.66000788E-14
 -5.84294432E-14 -1.67461617E-14  2.12996231E-14  1.96968062E-14 -5.12965258E-15
 -7.18212855E-15 -1.90044036E-14 -4.14348159E-14  1.53244180E-04 -6.84740785E-01
  1.19544347E-14  1.49391064E-14  2.22147957E-14 -5.27343351E-05  2.35632766E-01
  3.85054143E-15 -4.34892660E-15 -1.76703285E-15 -2.06918663E-15 -4.51014929E-16
  3.09495582E-15  5.83220392E-15  1.87609629E-15 -1.73198817E-15 -2.25201645E-15
 -7.41027046E-15 -6.08447978E-15  4.75452132E-15  1.29335464E-15  7.59133683E-15
  2.42819807E-14  1.44045384E-05 -6.43637816E-02 -3.44178888E-15  2.53447063E-15
 -3.45475830E-15 -1.54767580E-06  6.91547790E-03 -4.97789031E-14 -2.47767883E-13
 -8.76414004E-12 -1.39715498E-13  6.35359944E-01  3.72951548E-14  6.10604341E-15
 -4.67009256E-01 -2.17998192E-14 -9.08457757E-14  2.72646199E-02  3.17340611E-15
 -1.80139563E-12  8.12732192E-15  3.23662358E-01  1.52469977E-14 -6.79052455E-14
  4.62462231E-14 -1.29281412E-14 -2.09690912E-01 -8.80935288E-15  2.47391325E-14
 -1.55022338E-14  5.65546719E-15  1.10402155E-13  8.62536769E-12  1.31622358E-13
  6.23369842E-01  4.04883452E-14  1.38906792E-14 -4.04611913E-01 -3.02168946E-14
 -1.63245684E-13  2.98400117E-01  1.55267240E-14 -2.50415768E-12 -1.14797565E-14
 -3.51143440E-01 -1.49200619E-14 -5.42596739E-14  5.07603178E-14  1.55725338E-13
  1.64618925E-01  9.70543172E-15  1.80446716E-14 -1.85377867E-14  3.07673777E-14
 -6.49913234E-14  2.69199961E-13 -1.66263684E-14  1.38984765E-02  2.83538212E-15
  9.77126580E-15  3.37700644E-03 -2.37451452E-15 -6.38279651E-15 -7.93196775E-02
 -2.95110798E-15 -1.22830377E-13  4.04000817E-14  1.07813015E-01  5.00637986E-15
  7.95987761E-16 -7.04238479E-15 -1.86686960E-14  1.67591854E-02  1.38212196E-15
 -1.74931452E-15  3.38788675E-15 -8.66211666E-15 -3.89827283E-13 -3.12019966E-12
 -5.07021872E-14  4.06014295E-14 -6.35359944E-01  1.11470805E-14 -1.42430553E-14
  4.67009256E-01 -1.68527500E-13  1.69330968E-14 -2.72646199E-02 -6.50466351E-13
  5.94832871E-16  1.60106396E-14 -3.23662358E-01  4.05025183E-15 -8.03744065E-14
 -3.36256600E-14 -1.49584347E-15  2.09690912E-01 -8.27219512E-16  2.60854066E-14
 -4.26661999E-15  3.38885067E-13  3.08617517E-12  5.12407287E-14  3.29465257E-14
 -6.23369842E-01 -1.11394999E-14 -3.64688711E-14  4.04611913E-01 -1.71582588E-13
  2.54680122E-15 -2.98400117E-01 -8.84775584E-13 -1.19075737E-14 -2.19748183E-14
  3.51143440E-01  1.95244306E-15 -7.94040523E-14  9.01811331E-14  2.06462135E-14
 -1.64618925E-01 -1.46450538E-15  2.93701434E-14  1.54736780E-14 -2.63565640E-14
  8.22106532E-14 -5.83814833E-15 -1.54771185E-15 -1.38984765E-02  1.38330266E-14
  1.51910385E-15 -3.37700644E-03 -6.95579435E-15 -5.50858392E-15  7.93196775E-02
 -2.67920891E-14  1.66059105E-14 -4.80184146E-15 -1.07813015E-01  8.65378304E-15
  1.10062793E-15 -1.67670824E-14  5.11742025E-15 -1.67591854E-02 -2.65196557E-15
 -3.53787662E-15  5.09864530E-13  6.90818963E-11  2.91944401E-09 -5.77620382E-11
 -4.59925108E-15  1.04187828E-14 -2.37188920E-11 -5.55261256E-15 -3.65596940E-15
  7.75789972E-11 -7.21237007E-15 -1.13836437E-14  5.20053087E-10 -2.94875582E-12
 -1.02165097E-15  6.27853221E-15 -7.88276974E-02 -3.35121985E-04  2.98939956E-12
 -4.66603496E-15 -8.05597655E-15 -5.57073847E-03 -2.36830073E-05 -3.76530636E-12
 -8.70004890E-11 -2.63195337E-09  6.66207283E-11 -4.25606643E-15  6.01762119E-15
  2.52652188E-11  1.21321580E-14 -4.60011501E-15  1.32275238E-11  5.57134609E-15
  1.93248742E-14  1.03820420E-09  9.49368811E-12  1.51350656E-15 -1.56338234E-15
 -9.98839459E-03 -4.24638894E-05  1.21962781E-11 -4.59003723E-15  7.35291969E-15
  5.26822848E-02  2.23969397E-04 -7.41365125E-11  1.97843293E-10 -3.63261922E-10
 -2.10304106E-11 -6.21969157E-15 -3.83036605E-15 -2.45062926E-13  4.96375449E-15
  4.32830186E-15 -8.57079064E-12 -2.01040814E-15 -6.90623022E-15  2.03433931E-10
  1.25299128E-10 -6.92565359E-15 -4.62683113E-14  1.10077185E+00  4.67973644E-03
 -1.02592769E-10  2.50454492E-15  2.18388668E-14 -4.09475109E-01 -1.74081086E-03
 -5.41668595E-14 -3.67777162E-13 -3.38468875E-12 -5.61205311E-13 -2.85911620E-14
 -2.24797232E-15 -1.16285224E-13  1.99980115E-14 -3.82115539E-16  1.43390738E-13
  2.01741370E-14  2.40716382E-15 -1.07884812E-12  3.06007107E-14  8.38786345E-15
 -2.17617493E-15 -3.35121985E-04  7.88276974E-02 -2.68827469E-14  1.25103211E-14
  2.12751442E-16 -2.36830073E-05  5.57073847E-03 -3.49343620E-14 -1.30146633E-14
  4.47863945E-12  5.80659484E-13 -1.72866153E-14 -7.51712073E-15  1.46539896E-13
  3.44298300E-15  6.77818614E-15 -3.23879322E-13 -3.98455050E-14 -4.90146310E-15
 -3.23489441E-14  7.53495080E-15  1.25804043E-14  3.15581086E-15 -4.24638894E-05
  9.98839459E-03  3.85738210E-13 -1.65285229E-14 -1.18793912E-15  2.23969397E-04
 -5.26822848E-02 -2.77166810E-13  7.74830171E-13 -1.15684149E-12 -1.30341831E-13
 -6.78461428E-15  2.32142715E-14  7.22926523E-14  2.08445775E-15 -1.74894978E-14
 -9.07378480E-14  1.16414938E-14  6.44491999E-15  7.27281266E-13  7.03662876E-13
  1.36036695E-13 -5.03209520E-15  4.67973644E-03 -1.10077185E+00 -5.39007794E-13
 -6.11730044E-14  7.04156771E-16 -1.74081086E-03  4.09475109E-01 -1.30191671E-14
  3.38556688E-13  6.87779331E-13  7.61954530E-14 -1.47991281E-01  2.77962738E-14
  1.58681567E-15  1.08360946E-01 -9.63819807E-15  1.39898147E-13  1.83385581E-01
 -4.32974946E-14  1.71399909E-13 -8.86297831E-15  8.18806063E-02 -1.93200266E-14
 -1.90140036E-14 -1.18697786E-14  3.80397568E-14  1.00714803E-01 -1.96401223E-14
  7.46437418E-15 -9.94916538E-16  1.43705020E-14 -3.34090826E-13 -7.01705054E-13
 -9.13392700E-14 -9.88969652E-02  1.91558785E-14  7.24143095E-15 -1.09092667E-02
 -4.39340299E-15  1.35806547E-13 -3.09616103E-01  7.02976239E-14  1.68016233E-13
  1.42462473E-14  6.00531817E-02 -7.05598563E-15 -2.67492669E-15  1.38892450E-15
 -4.85077257E-14 -1.24789818E-01  3.28152240E-14 -3.87230222E-16  5.84412981E-15
 -2.92380740E-15 -2.09889055E-15  8.58903141E-15  1.91317332E-14 -1.42798529E-01
  4.65767935E-14 -2.22749764E-14  7.26699477E-02 -2.70657463E-14  1.35140385E-14
  7.44939202E-02 -1.41883399E-14 -2.01519301E-14 -2.03133625E-14  1.09836530E+00
 -2.72620651E-13  3.45880269E-15  1.38619234E-13  1.92767681E-14 -4.92988612E-01
  1.21343025E-13 -8.96515123E-16 -5.20107816E-14  8.73690200E-14  1.79123067E-13
  1.25493764E-11  2.18802750E-13 -3.28369140E-14 -1.47991281E-01  2.69953747E-14
  1.71262703E-14  1.08360946E-01 -2.45271241E-14  4.97408124E-14  1.83385581E-01
  2.60788895E-12 -1.17339285E-14  1.48537312E-14  8.18806063E-02  2.37866184E-15
  1.43011537E-14 -1.93429911E-14  2.31717993E-14  1.00714803E-01 -3.95436350E-15
 -6.06466459E-15 -1.33302822E-14  1.08509744E-13 -1.25312468E-11 -1.96189886E-13
 -2.49955382E-14 -9.88969652E-02 -5.37483881E-14  4.84323339E-15 -1.09092667E-02
  1.95921146E-13 -7.96116909E-14 -3.09616103E-01  3.47722275E-12 -5.96154389E-15
  8.87317797E-15  6.00531817E-02 -5.37029467E-15  1.55070549E-15 -2.55772129E-13
 -3.09790510E-14 -1.24789818E-01  5.38377660E-15  3.14331376E-16 -1.75500294E-14
  1.63131686E-14 -2.45021303E-13  3.24394246E-14 -4.81187329E-14 -1.42798529E-01
 -4.00274394E-14  2.61060902E-14  7.26699477E-02  3.84860411E-14  1.63909982E-14
  7.44939202E-02  6.34808576E-14 -2.05900071E-13  2.70352265E-13  1.09836530E+00
  4.66527355E-14 -5.51818291E-15  1.27267092E-13 -1.21539500E-13 -4.92988612E-01
 -1.73070963E-14  2.33954146E-15 -9.62650619E-02  1.45173327E-02  1.47708869E+01
 -4.15939716E-01 -7.85367533E-14 -3.20149967E-14 -3.81832591E-01  1.78032936E-13
  6.49219702E-14  9.08649642E-01  6.21736678E-14  7.77521433E-14  2.81899027E+00
  3.37545154E-02  4.36796715E-14  3.49595367E-14  1.12226717E-11 -2.10347958E-14
  2.61394375E-01  5.07181574E-14  3.65680207E-14  1.03802944E-11  4.32343659E-15
 -1.28243026E-01 -6.78431342E-01 -1.29630630E+01  4.43362368E-01 -5.13709704E-15
 -1.51843245E-14  4.01305114E-01 -1.17339961E-13 -4.40597166E-14 -4.60671380E-01
 -8.44144453E-14 -1.12957061E-13  5.00778186E+00  1.10996935E-01  4.23149930E-14
  2.34789707E-14  7.74528049E-12  8.32019920E-15  3.53083749E-01  5.23134947E-14
 -4.67106676E-15 -6.72561674E-12 -2.75730473E-16 -1.37845938E-01  5.07741694E-01
 -1.45577493E+00 -2.40946552E-01  3.14507943E-13  2.14455962E-13  3.03627897E-01
 -2.37746201E-13 -1.61327665E-13 -2.46897763E-01  8.56128671E-14  8.11295544E-14
  1.15143919E+00  1.00359620E+00  3.83975032E-14  2.24335664E-13 -1.19999201E-10
  1.68749621E-13 -7.39888743E-01 -1.51487707E-14 -1.05924528E-13  5.27285221E-11
 -6.17834640E-14  4.48729101E-14  2.95729183E-13 -2.78016277E-12  1.67536838E-13
  5.24238794E-02 -3.53323607E-15  1.33285980E-13 -4.21216057E-02  1.13268382E-14
 -1.90357859E-13  2.22715959E-01  1.88037332E-14 -5.32579867E-13 -1.42057444E-14
 -8.34239991E-02  5.46742491E-16 -3.87999090E-15  9.69505937E-15 -7.62286587E-14
  6.74450964E-02  8.98607269E-15  1.91117072E-15 -1.06801038E-15  4.43966867E-14
 -3.31544172E-14  2.30178951E-12 -1.62968787E-13 -3.56953718E-02 -9.14691643E-15
 -1.33490933E-13  4.81153221E-02 -3.03026160E-15  3.07573039E-13 -2.93716723E-01
 -2.58498749E-14 -9.46532321E-13 -3.86819218E-14 -1.70975702E-02 -2.39746886E-15
  5.93300616E-15 -1.29797262E-14 -1.62033586E-13  1.23627652E-02  4.31078677E-15
 -2.26883544E-15  1.14989147E-15  1.83029788E-14 -9.75228058E-14  3.18081291E-13
  6.54407246E-14  1.31305888E+00  4.87152655E-14 -5.79577647E-14 -9.64613023E-01
 -3.51953207E-14  4.01324769E-14  3.70018018E-01  1.63099270E-14 -2.60255789E-13
 -2.14848016E-13  1.38976216E-01  1.54942486E-14  6.08394155E-15  1.00115537E-14
  1.70812909E-13 -8.80367835E-02 -7.95936331E-15 -1.94341316E-15 -3.82295577E-15
  3.98575612E-14 -1.23687749E-13  4.86658391E-12 -8.78545077E-14 -4.96800684E-15
 -5.24238794E-02 -8.13405216E-14  5.42001868E-14  4.21216057E-02  1.35178315E-13
 -4.21897378E-15 -2.22715959E-01  9.46131369E-13  4.47538758E-14  1.92406597E-14
  8.34239991E-02 -6.75139741E-15  1.00794232E-15  2.00274726E-14  1.23501066E-14
 -6.74450964E-02  3.54186773E-15 -1.82985200E-15 -6.35277572E-14  3.91133635E-14
 -4.50492530E-12  1.05208088E-13  2.60488933E-14  3.56953718E-02  6.04271459E-14
 -6.32296685E-14 -4.81153221E-02 -9.15455995E-14  4.15059894E-15  2.93716723E-01
  1.52176762E-12 -1.61781757E-14  3.78644868E-14  1.70975702E-02  1.50721141E-15
 -2.91707047E-15  4.83424670E-14  7.84753042E-15 -1.23627652E-02 -2.60335446E-15
  6.32307311E-16 -2.81867341E-14  1.01352079E-13 -3.25540616E-13 -5.34014824E-14
  4.90865972E-14 -1.31305888E+00  1.22126831E-13 -3.75821443E-14  9.64613023E-01
 -9.22689816E-14  1.16388144E-14 -3.70018018E-01  2.58207454E-13  1.70597725E-13
  1.41631128E-14 -1.38976216E-01 -9.43099999E-15 -1.98027897E-14 -1.30438241E-13
 -4.83932691E-15  8.80367835E-02  3.46076137E-15  6.41966932E-15  1.36804948E-01
 -1.57922598E+00  3.10073303E+00  3.20422946E-01 -1.06160062E-15  1.57589115E-15
  5.78593470E-01 -3.38678357E-14 -1.81275808E-14 -1.82430218E+00  8.18027510E-15
 -1.77609056E-14  9.38886210E-02 -2.50470140E-01 -3.22607234E-14  1.64601594E-15
 -1.96320778E-12  6.76060609E-15 -6.53548529E-01  4.48592435E-16 -7.52781031E-15
 -1.08528221E-11 -2.74449577E-15  1.63019200E-01  2.52745656E+00 -2.93947614E+00
 -2.38779140E-01 -1.89524379E-15  8.89776036E-15 -5.57808036E-01  3.55322642E-14
  8.70668530E-15  1.06031083E-01 -7.14637730E-15  2.01009956E-14  1.94750724E+00
 -1.45413174E-01 -1.87774988E-14  3.81807493E-15  9.38925248E-13 -6.26726973E-15
  6.06893981E-02 -8.68582345E-15 -1.72533915E-14 -2.57952265E-12  2.06667911E-15
 -9.52673798E-02  3.48929851E-01 -9.17873917E-01  1.13552277E-01 -4.05930487E-14
 -5.94575951E-14 -8.69802393E-01  2.99315193E-14  4.35163794E-14  6.36722976E-01
 -9.32574012E-15 -1.40359762E-14  3.64854091E-01  5.56218288E-01 -5.92305582E-15
  3.98288399E-14 -3.83343300E-11  1.56994591E-14 -4.78372336E-01  1.19577955E-15
 -1.80640432E-14  1.28753238E-11 -5.09874966E-15 -3.03621086E-01 -4.98563411E+00
 -4.18801482E+00  4.39127838E-02  9.20005327E-14  7.75022840E-14 -6.80381734E-01
 -3.67495283E-13 -1.13482205E-13 -6.01229678E-02 -5.71172390E-14 -3.00674368E-15
 -4.36629333E-01  1.45437742E-01 -1.33224301E-13 -1.08723286E-13  7.11936764E-11
  3.11140650E-14  3.18987218E-01 -9.72253947E-14  2.86859785E-14 -1.95308855E-11
 -1.15082152E-14 -3.30900100E-01  2.72686387E+00  5.74228535E+00 -4.99010267E-01
 -6.68964291E-14  6.75071815E-14  6.31712693E-01  3.50073545E-13  1.67956414E-14
 -3.24975036E+00  5.31181441E-14  2.06719198E-14 -1.81339653E+00  5.07860865E-02
 -1.11993749E-13  4.58897461E-14 -5.60135152E-11 -3.23387325E-14  1.63428388E+00
 -1.15371806E-13 -6.58965852E-14  2.85678248E-11  1.16787341E-14  1.67067733E-01
 -1.90759449E-01 -9.74326793E-02  1.74658366E-01  4.06770482E-14 -4.84059893E-14
 -1.00819299E+00 -2.46337462E-14  3.62340903E-14  1.00122228E+00  1.14231255E-14
 -8.66710108E-15 -1.79454306E-01 -1.43092253E-01  2.70209189E-15 -6.62734267E-15
  3.25652997E-12 -3.42251794E-14 -1.74138519E-01 -1.47027361E-14 -4.19815951E-15
  2.37324666E-12  1.27096726E-14 -3.86473964E-11 -1.42997917E-09  1.01382257E-10
 -7.38613498E-11  6.26181686E-14  2.95368763E-14 -5.99621989E-11  2.42668281E-14
 -7.65757502E-14 -4.62959146E-10  3.78977288E-14 -8.60132634E-15  3.16879683E-11
 -3.26594612E-11 -4.96875275E-14 -3.26622544E-14 -9.34451831E-01  7.91377250E-05
 -5.09362711E-11  7.53447454E-14 -1.00031982E-14  5.06368708E-01 -4.28838237E-05
 -6.30246816E-12  1.26692578E-09  7.22894923E-12  4.00827768E-11  9.96648160E-14
  1.63239314E-15  3.18558821E-11 -1.34809225E-13  5.41439787E-14 -6.90808533E-10
 -1.68251450E-14  1.11157143E-14 -7.67853659E-11  4.44004225E-11  1.06779159E-13
  1.58547496E-16  9.38174731E-01 -7.94530134E-05  1.91838485E-10 -2.74871380E-14
 -3.48653669E-14 -5.09765979E-01  4.31715349E-05  1.95142934E-11 -3.28975639E-11
  1.48594291E-11 -2.34712966E-12 -1.12692929E-14  1.65773271E-15 -6.90424101E-11
  8.86896329E-15 -8.25370441E-16  7.58646553E-11  3.99206043E-15  3.24968829E-15
 -2.28613168E-11 -1.53659896E-11 -8.40426180E-16  1.20428456E-14 -5.21790599E-02
  4.41898871E-06 -1.12705133E-11 -8.57398867E-15 -9.80034994E-15  4.60837032E-02
 -3.90277948E-06 -1.93613843E-14 -3.65848722E-13 -6.58929697E-13 -2.40013914E-14
 -2.19596136E-14 -2.37416302E-14 -1.75122134E-14  1.28827894E-13 -9.19803886E-14
 -9.58811163E-14  2.46069728E-14 -2.84293870E-14 -1.31811910E-13 -4.25005571E-15
  3.81727186E-14  5.71288032E-15 -7.91377250E-05 -9.34451831E-01 -6.94848357E-15
  4.19527290E-14 -6.54070622E-14  4.28838237E-05  5.06368708E-01 -7.16663788E-15
  2.88422477E-13  7.04949649E-13  9.96190761E-15  2.66883915E-14 -8.20428333E-14
  1.65583377E-14 -1.32216061E-13  1.64290189E-13 -1.99012385E-13 -2.24420989E-14
  1.20946514E-14 -2.02644077E-13  6.57937027E-15  4.62489416E-14 -8.60155803E-14
  7.94530134E-05  9.38174731E-01  8.07518708E-14  4.04081091E-14 -9.76096069E-15
 -4.31715349E-05 -5.09765979E-01  7.98565335E-15 -1.12578490E-14  8.25157262E-15
  2.19902782E-15  2.20004321E-14 -2.77146909E-15 -4.96483609E-14 -1.65911483E-14
  2.28011208E-15  4.76561438E-14  3.84932130E-15 -1.29225392E-15 -1.46688274E-14
 -1.26558099E-14 -4.54727270E-15  3.03607108E-15 -4.41898872E-06 -5.21790599E-02
 -5.35151315E-15  5.54363226E-15  6.54097874E-17  3.90277948E-06  4.60837032E-02
 -3.29968896E-14 -3.11289655E-13  5.23388755E-13  6.83844199E-15  4.61312007E-01
  1.54252485E-13 -2.19777573E-14  5.32881371E-01  2.41708036E-13 -8.20929054E-14
  3.84119914E-01  1.56192792E-13  1.13374022E-13 -2.00030431E-14 -2.24933181E-01
 -7.16830296E-14  1.19819607E-13  1.87830612E-14  8.49637731E-15  6.60660984E-01
  2.55950738E-13 -6.33178807E-14 -7.28623734E-15  8.19770696E-15  2.47065576E-13
 -4.46031882E-13 -2.00603592E-14  8.37879358E-01  3.09091711E-13  2.82638359E-14
 -1.41788456E+00 -5.57363497E-13 -1.96084909E-13 -2.03861832E-01 -9.36938339E-14
  1.49710046E-13  3.30199726E-14  9.19129958E-01  3.40324043E-13 -1.19477610E-13
 -1.57775281E-14  4.54750866E-14 -6.43083176E-02 -4.47963003E-15  6.32460725E-14
  7.44915785E-15 -2.07056482E-16  6.58059776E-15 -3.87179321E-14  4.27234348E-15
 -3.04218645E-02  2.43203956E-14 -2.73218204E-14  1.80894137E-02 -1.98292139E-14
  2.75571422E-14  3.85490940E-02  2.48285485E-14  1.52921541E-14  1.46237137E-15
  8.00437594E-02  3.23816071E-14  8.03125010E-15  1.56705489E-15 -8.03312235E-15
 -8.57029365E-02 -3.06253316E-14 -6.46130914E-15 -1.65376871E-15 -3.06229283E-14
  1.53744612E-13  7.59401675E-13  4.35541551E-14 -1.14831934E-13  4.61312007E-01
  6.87089744E-14 -4.19521092E-13  5.32881371E-01 -1.83149731E-13 -1.65786357E-13
  3.84119914E-01  1.42281089E-13 -7.75534366E-14 -1.62940469E-14 -2.24933180E-01
  1.76489816E-14 -7.95153131E-14 -2.05581143E-14 -2.87523663E-13  6.60660984E-01
 -8.82805907E-15  4.35737997E-14  8.33175759E-14  7.71073288E-14 -9.41853634E-13
 -2.66925319E-15 -3.32954516E-13  8.37879358E-01 -4.64562705E-14  7.24023938E-13
 -1.41788456E+00  1.13169804E-13  9.86105035E-14 -2.03861832E-01  2.42397624E-13
  6.98642505E-14 -3.93615163E-13  9.19129958E-01 -1.65000516E-14  8.22342678E-14
 -1.78788243E-13 -5.72653139E-14 -6.43083175E-02  8.60056289E-15 -4.37711954E-14
 -1.48598098E-14  7.55310268E-15  3.55786728E-14 -8.25355121E-15  9.64760111E-15
 -3.04218645E-02  1.08834592E-13 -4.20864274E-15  1.80894137E-02 -1.07153472E-13
 -8.80767014E-15  3.85490940E-02 -2.29609012E-15  4.86077648E-15 -2.08630201E-14
  8.00437594E-02  2.90349083E-15 -5.83903394E-15  3.54146986E-14  1.69437843E-14
 -8.57029365E-02 -1.30089438E-15  5.00844494E-15  1.66111155E-14 -2.11382626E-13
  1.82791978E-11  1.92141666E-13  7.56154945E-01 -1.34876695E-13  5.99836219E-14
 -3.12100418E+00  3.41937393E-13 -3.62361962E-13 -5.05287109E-01  2.06095216E-14
  3.68215524E-12 -1.60056560E-13 -1.19553429E+00  1.70699110E-13  1.39372203E-14
 -3.93604625E-14 -3.37824633E-14 -7.46111394E-01  3.26466503E-14 -7.17800133E-15
  2.01818497E-14  1.00688513E-13  6.60055997E-13 -1.80066391E-11 -9.70093250E-14
 -3.26889851E-01 -1.66116149E-14 -3.40538755E-15  2.79893377E+00 -2.35083350E-13
 -4.02646318E-14  5.36587699E-01 -3.38762052E-14  5.39894551E-12  1.38791851E-13
 -7.73505198E-01  2.06415387E-14 -1.11658303E-14  3.38994486E-14 -3.75646038E-13
 -1.11605144E+00  1.45707388E-13  6.13738236E-15 -1.83054354E-14 -6.23282937E-14
  1.48491097E-13 -6.19122042E-13 -4.60459104E-14 -1.26258039E-01 -1.43830079E-14
  1.50555829E-13  1.11867517E-01  9.01234733E-15 -1.43129431E-13  1.42145537E-02
 -1.72731051E-14  3.88479094E-13  6.33392785E-14  1.14946744E-01 -3.17556120E-14
  2.19284521E-15 -6.74808695E-15 -2.24623312E-14 -1.71790771E-01  3.64373856E-14
 -1.07029167E-15  4.08787052E-15 -2.98027547E-14 -6.81027247E-14 -9.69556871E-12
 -7.21593724E-14 -1.02189672E-13 -7.56154945E-01 -3.79992445E-14  4.21361806E-13
  3.12100418E+00  1.29958329E-13  7.85082027E-14  5.05287109E-01 -1.93419584E-12
  6.77293099E-14  1.67404629E-13  1.19553429E+00 -2.57541565E-14 -1.61138394E-14
  2.79851059E-14  1.01571556E-13  7.46111394E-01  1.38121553E-14  8.30308996E-15
 -4.33385370E-14 -2.05522188E-13  9.57585940E-12  1.96612445E-14  2.89208152E-14
  3.26889851E-01  1.50500739E-14 -3.69946191E-13 -2.79893377E+00 -9.02985120E-14
 -8.31980546E-14 -5.36587699E-01 -2.87278356E-12 -4.98336873E-14  9.59803846E-14
  7.73505198E-01  2.35780495E-14  1.58550380E-14  2.20292863E-13  1.56891396E-13
  1.11605144E+00 -1.33820236E-14 -8.42870803E-15  3.45247275E-14 -7.74954649E-14
  3.21129438E-13  2.66590718E-14  1.65483655E-14  1.26258039E-01 -6.82020406E-14
 -1.57064553E-14 -1.11867517E-01  6.67738396E-14 -1.27188885E-15 -1.42145537E-02
 -1.94242264E-13 -2.67190128E-14 -2.18459225E-14 -1.14946744E-01 -5.15660413E-15
 -6.96319367E-16  6.01846686E-15  2.58151241E-14  1.71790771E-01  2.84972932E-15
  7.17803238E-16 -7.36918546E-01 -2.37651668E+01 -1.44610709E+01 -6.63322932E-01
 -2.66800321E-14 -2.82481750E-13  1.20079370E-01  5.59493426E-13  1.46659307E-13
 -1.08312384E+01  1.51807752E-13 -7.92218620E-14 -3.47782477E+00 -1.26395456E+00
  2.86028891E-13 -1.31705901E-13  2.00413267E-11  4.85038111E-15 -1.44374725E+00
  1.29723734E-13 -2.15881066E-14 -1.50200696E-11  1.52360180E-14  6.81835739E-01
  2.32372849E+01  1.46904724E+01  6.14792628E-01 -6.56579585E-14  1.40892465E-13
  2.59754983E-01 -4.77716442E-13 -2.31212388E-14 -1.13191182E+01 -1.74823576E-13
  6.56691847E-14 -4.06511856E+00  1.20333839E+00  1.89317751E-13 -2.37339214E-13
 -1.86899947E-11 -5.81784863E-15  1.89034075E+00  2.37748182E-13  1.07362398E-13
  1.40411189E-11 -1.53237690E-14  1.02591432E-01 -1.95842403E-01  2.00515997E-01
 -2.52748497E-02  2.61444325E-14 -6.46816268E-14 -1.04051194E-01 -1.36646354E-14
  6.67044426E-14  2.50079190E-01 -1.62866608E-15 -6.23601330E-14 -1.12815498E-01
 -1.05470537E-01 -4.42487164E-14 -1.85089436E-14  1.41411255E-12 -5.10704135E-14
 -5.55678364E-02  3.87392649E-14  4.40092278E-14 -1.88297842E-12  2.12627307E-14
  1.75212146E-13  3.29801812E-12  9.48660685E-12  2.08604406E-13  1.10648025E+00
 -6.12662012E-14  3.47863214E-14 -2.73456425E-01 -1.10161710E-14  1.40387166E-12
 -5.32222362E-01  1.61890112E-14  2.01678655E-12  9.20214989E-14  1.21645909E+00
 -8.15009243E-14 -1.24160717E-15  2.48490245E-16  1.93464847E-13 -3.69593836E-01
  1.07658624E-14  3.64229817E-16  8.66527494E-16 -3.21523192E-14 -3.13434116E-12
 -9.36347553E-12 -1.81952041E-13 -1.10323171E+00  6.93438626E-14 -1.29189419E-14
  2.69773573E-01  4.78289912E-15  1.62344555E-12  5.43164910E-01 -1.38441849E-14
  2.75985765E-12 -1.89667074E-13  1.21325217E+00 -7.87423926E-14  1.89952641E-15
  1.84509796E-15 -3.79280606E-13 -3.60155680E-01  1.06815550E-14 -1.87080429E-16
 -2.26622203E-15 -3.13987092E-14  8.15450220E-14 -2.94152614E-13  1.83719567E-15
 -2.29955896E-02 -1.15287246E-15  1.58811651E-14  3.20416403E-02  5.23140953E-15
 -3.87782993E-14 -4.16624505E-02 -1.31191326E-15  1.64725065E-13  2.58094247E-14
 -9.86610681E-03  2.41162908E-15  1.84970232E-16 -1.79256762E-15 -5.86655033E-15
 -1.81007072E-03 -7.36353158E-16 -1.38603343E-15  4.83333790E-16  9.16137258E-14
  5.96250173E-12  4.94316881E-12  2.14882049E-13 -6.77992766E-14 -1.10648025E+00
 -6.00363903E-14  2.05267531E-14  2.73456425E-01  2.68324057E-12  2.65890594E-14
  5.32222362E-01  1.17438114E-12  2.58372085E-13 -6.33332592E-14 -1.21645909E+00
 -3.96573435E-15 -2.18690949E-15  4.01426048E-13  1.88635427E-14  3.69593836E-01
  1.01053969E-15  4.51445130E-15 -1.14724393E-13 -5.78706803E-12 -5.02047462E-12
 -1.96978610E-13  5.97576596E-14  1.10323171E+00 -8.57765282E-14 -1.59646527E-14
 -2.69773573E-01  2.78346573E-12 -2.73836010E-14 -5.43164910E-01  1.36622979E-12
 -2.07333738E-13 -6.82421193E-14 -1.21325217E+00  1.55223230E-15  7.53667888E-15
 -5.34742887E-13  2.06960000E-14  3.60155680E-01 -2.66320602E-16 -6.51547941E-15
 -3.06285180E-14  5.09052512E-14 -5.62828584E-14  8.98543644E-15  3.48799260E-15
  2.29955896E-02  2.97986471E-14 -2.25682446E-15 -3.20416403E-02 -7.19536355E-14
  1.28744305E-15  4.16624504E-02  2.58201387E-14  2.02049636E-14  1.31908622E-17
  9.86610681E-03  3.43424408E-15 -2.38274536E-15  3.23040870E-14  6.90909194E-16
  1.81007072E-03 -6.31619400E-16  1.66028241E-15 -1.40596357E+00 -1.91530317E+00
  9.57870332E+00 -1.08887823E-01  5.82393210E-14  2.09088114E-14 -2.58445191E-01
 -7.15177471E-14 -5.19451042E-14  3.33953720E-01 -3.71945288E-14 -2.54624299E-14
  1.75211918E+00  1.09857298E+00  3.80264335E-14  1.12039113E-14 -7.47249773E-13
 -1.12387688E-16  6.85532319E-02 -3.54258142E-14 -2.56169099E-14 -1.46578015E-12
  1.03712581E-15 -1.37601035E+00  2.57071625E+00 -8.71355270E+00  1.55493370E-01
 -6.28609212E-14 -2.81897973E-14  2.84242691E-01  7.37693658E-14  5.61724070E-14
 -2.29706425E+00  4.23143855E-14  2.34688823E-14  3.15071679E+00  1.21067828E+00
  4.38669002E-14  7.26821154E-15 -4.97146254E-13 -5.54647580E-16  5.60059647E-01
 -3.96422042E-14 -2.63422660E-14 -1.92457109E-12 -1.94312599E-15 -5.37427794E-03
  1.17494462E-01 -7.40597431E-01 -5.93491935E-02 -1.27966638E-15 -1.10812987E-14
 -7.15083400E-02 -1.78106111E-15  1.14908328E-14  1.29943839E-01 -2.29080765E-15
 -3.84257868E-15  4.60212135E-01  5.27218480E-02 -2.06245801E-15  1.52381423E-14
 -3.80940006E-14  1.27542759E-14 -1.87606458E-01  5.31221566E-16 -8.75756029E-15
 -4.75220172E-14 -3.54564068E-15  1.45607387E+00  6.90116955E+00 -1.57513712E+01
  3.87392587E-02 -3.05330606E-14 -3.44810199E-14  2.01174772E+00  6.97175554E-14
  9.58962925E-14  2.82372918E+00 -6.39318588E-15  8.43624567E-14 -3.28447650E+00
  1.16981734E+00 -2.24985828E-15 -2.51181040E-14 -3.65831403E-12  3.34419117E-16
  1.29199264E-01  1.97099572E-14  6.09307974E-14  8.40799701E-12 -2.42123962E-15
 -1.44277908E+00 -7.11215544E+00  1.57482088E+01 -7.52214459E-02  3.90173896E-14
  4.42957084E-14  2.01931275E+00 -7.62698625E-14 -1.03087429E-13  2.72010797E+00
  2.90104826E-15 -8.59414936E-14 -3.80762731E+00 -1.18868681E+00 -1.33820981E-14
 -1.63802721E-14  2.68382212E-12  5.36070165E-16  3.73515265E-02  2.92037247E-14
  5.33023353E-14 -1.95833592E-12  5.00297284E-15  1.23383697E-02 -1.23707863E-03
  1.52132006E-01 -9.20733783E-03 -4.27533574E-16  1.91342698E-14 -1.69300067E-02
  6.10308437E-15 -2.42995627E-14  2.13086248E-02 -5.11747525E-15  1.77416260E-14
 -3.39398705E-02 -1.71169557E-02  1.70475407E-15 -2.29340212E-14 -5.69799346E-14
 -1.26211274E-14 -1.94472149E-02  2.46606229E-15  1.02448218E-14  6.31599018E-13
  2.09035826E-15
Beta MO coefficients                       R   N=        4761
  1.90227581E-01  2.95098925E-01  6.97137704E-02  1.08114378E-02 -1.36728374E-17
  2.78820653E-17  1.11122343E-02  4.29062191E-16 -3.37042602E-16  1.26728776E-02
  3.37834633E-16 -1.18123562E-15 -2.93591705E-03  6.72193787E-04  1.43564770E-18
 -1.83842845E-17  2.50659645E-12 -6.74665612E-18 -3.57473275E-04  3.58797001E-16
 -4.84089311E-16 -4.56071982E-11  1.79955657E-17  1.89980636E-01  2.81450506E-01
  1.86783545E-01 -1.69722329E-02 -8.21783283E-17  3.96916599E-17 -1.11000912E-02
 -3.07450685E-16  4.02259277E-16 -7.04201145E-03  4.26122656E-17  1.20660029E-15
 -2.85485402E-02  5.02854149E-04  2.59678083E-17 -1.63582603E-17  2.44978989E-12
 -4.47426677E-18 -1.96777096E-03  2.28343894E-16 -2.58492278E-16 -4.45785907E-11
 -2.61740951E-17  2.68718361E-03  3.24193977E-03  4.76315447E-03  4.14121309E-03
 -1.10729558E-16 -3.96430616E-17 -1.41400410E-04  2.50159179E-16 -2.33467655E-16
 -1.64127220E-03 -3.21904921E-16  1.49948096E-16 -4.40789656E-03  4.45359795E-05
 -1.08821113E-16  1.36953946E-16  5.69522205E-13  2.47835773E-17  1.75353848E-03
  4.18055041E-17 -3.45817956E-17 -4.22305572E-12 -1.24187859E-16 -1.36397885E-02
 -3.48329840E-02 -1.99273993E-01  9.45713893E-04 -1.03160960E-16  5.25339076E-17
 -7.66873053E-04  9.41525255E-16 -3.93374027E-16 -1.85392605E-03  1.42806701E-15
 -9.55820768E-16 -3.31099250E-02 -1.53543407E-04  1.94563736E-17 -2.57639657E-18
 -5.23873005E-13  8.57563692E-18  4.62655136E-04  8.34237966E-16 -4.48429555E-16
  1.35073022E-11  2.26324467E-17 -7.66968944E-03 -7.52544754E-03  1.66855310E-01
 -3.79103970E-03  3.17527223E-17 -4.33250625E-17  1.23306373E-03 -8.87279686E-16
  4.67208262E-16 -1.05244887E-03 -1.90496562E-15  1.07042769E-15 -6.13404725E-02
  3.58215596E-04  9.96492050E-18 -4.96357656E-17  1.53359551E-12  1.16756420E-17
  6.45634047E-03  5.53821427E-16 -2.32162817E-16 -1.46799382E-11  2.61754920E-17
  2.38171498E-01  5.06366451E-01  3.86480650E-01  9.21790036E-03 -7.19514958E-17
 -4.51254428E-17 -9.02021567E-05  2.47135992E-16  1.55249948E-16 -5.08328996E-04
  1.48828737E-16 -3.96500579E-16 -7.64164805E-03 -2.01701697E-05 -5.76892439E-17
  2.09965359E-17  6.19957352E-12 -1.98607491E-17  8.96829863E-04 -8.64195842E-17
 -2.91134736E-17 -1.15396933E-10 -3.06720059E-17 -3.69330396E-01 -3.51841826E-01
  1.36112454E+00  3.14249102E-02  2.44709971E-16  1.13963498E-16  4.45605107E-02
 -1.50709783E-15 -6.50613874E-16  1.84084015E-01 -6.91515850E-16 -1.08660325E-15
  3.30076345E-01  4.09115486E-02  2.26568157E-17  5.92344644E-17  6.94125613E-12
  3.39809754E-17  3.54718416E-02 -7.11849893E-16 -2.81179235E-16  6.08964546E-11
 -1.80941614E-16  3.72800728E-01  3.72918185E-01 -1.36602470E+00 -2.95859046E-02
 -3.68576895E-16  6.37278584E-17  4.29350817E-02  1.79424505E-15  3.11525386E-16
  1.91278066E-01  1.82760591E-15  1.37478559E-15  3.68512060E-01 -4.06194565E-02
  3.10349897E-18  2.20860504E-16 -7.09520532E-12 -1.30208580E-16 -4.97649283E-02
 -8.88097805E-16 -4.23414499E-16 -6.00219982E-11 -1.71413718E-16 -1.57533759E-02
 -3.20075742E-02 -3.80569306E-02  2.86310917E-03  1.26807126E-16 -2.46626028E-16
  9.25417084E-04 -9.43557499E-16  5.83672067E-16 -5.02845067E-03  3.27242935E-16
 -4.76892564E-16  2.36967959E-03  6.67879390E-04 -2.12778759E-16  2.28001994E-16
 -2.63824289E-13  1.89383177E-16  5.51874654E-03 -1.20139018E-16 -8.58805612E-17
  6.42926462E-12  2.68444099E-16 -1.96720658E-02 -4.11085501E-01 -3.97678423E+00
 -9.60486444E-01  3.36759399E-17  1.20942749E-16 -2.29488543E-02 -1.18092775E-16
 -2.71994347E-16 -1.71911379E-01  2.57174064E-15  4.41911424E-16 -8.91937987E-01
 -1.49140627E-02 -4.11118727E-17  2.30926588E-17 -6.39731014E-12  1.13829948E-17
 -3.62498014E-02  2.27968092E-16 -1.19147228E-16  5.45231386E-11 -4.63816054E-17
 -6.08828059E-02  3.47486498E-01  4.10571690E+00 -1.21892625E-01 -1.47070106E-16
  1.14420220E-17  8.14771847E-03 -2.34610297E-16  2.60230701E-16 -1.57104248E-01
 -1.20633075E-15 -4.48394118E-17 -1.29843291E+00  3.91724184E-03  3.81594207E-17
 -1.31410205E-16  5.24316021E-12  8.61771378E-17  7.54918225E-02  1.15821075E-16
 -8.44997138E-17 -6.66628590E-11 -2.32319952E-17 -6.01196840E-02 -2.90264652E-02
 -5.04266197E-01  1.77457500E+00  8.85321017E-17  2.08703044E-17 -1.65111840E-03
 -2.40091578E-16  4.50685793E-17  1.83709675E-02  4.23157615E-16  1.62635677E-16
 -1.54624817E-01 -1.88612720E-03  9.11642561E-17  4.27733349E-17  1.66321131E-11
 -7.01344054E-17  1.38917065E-02 -3.07810050E-17 -1.45415576E-16 -1.00757384E-10
  1.56718510E-17 -3.68188345E-02  2.96195382E-01  3.02201019E+00  6.98521369E+00
 -1.69059156E-16  1.87086101E-16 -2.37425877E-03  1.24198289E-15 -1.08652862E-15
  2.23948479E-01  4.16785466E-15 -1.10693558E-15  7.78278779E-01  1.76578121E-02
 -1.47203449E-16  1.30159358E-16 -7.36884930E-12 -6.73125901E-17  9.53463525E-02
  1.38316554E-15 -5.57520065E-16 -2.95426368E-11  3.03821658E-16  3.00763162E-02
 -3.90383746E-01 -2.35005057E+00 -9.33698227E+00  5.69452018E-16 -5.29338307E-16
  2.12418435E-02 -1.79923541E-15  9.89588229E-16  1.09622908E-01 -5.58708032E-15
  1.36149939E-15  6.60071472E-01 -1.15306358E-02 -8.53339848E-18 -4.07908819E-17
 -1.93387005E-11  6.66511152E-17 -2.02418116E-02  1.07254406E-15 -4.15505727E-16
  1.53553068E-10 -3.95622209E-16  9.72188059E-03  2.02591326E-02  1.13027486E-01
  2.12758374E+00  2.62950567E-16  2.46864637E-16  7.97311402E-05 -1.24957505E-17
  8.74824842E-17  3.40991753E-02  2.24509708E-16  2.57550057E-16 -3.21727377E-02
  8.18563440E-04  8.01098868E-17 -9.23068340E-17 -6.05718794E-12  4.82830594E-17
 -1.32227022E-02 -5.35058847E-17 -3.40068800E-16  4.47204298E-11  1.41309715E-16
  3.15119412E-15 -2.13834250E-13 -3.86686857E-12 -3.92322052E-13  1.87310985E-02
 -8.98020131E-16  5.40795380E-15 -9.14665437E-02  6.51672058E-15 -7.53493966E-14
  1.35067333E-01  1.87454584E-14 -9.22558037E-13  3.93553844E-16 -5.18925343E-05
 -1.05841369E-16  3.32972639E-18  3.27524505E-20 -2.52657647E-14 -3.29689561E-02
  6.46836750E-15  1.11852421E-16  4.23710668E-16  1.97337480E-14  1.88259036E-13
  3.79829948E-12  4.06409526E-13  1.38418902E-02 -5.81909136E-16 -1.93685632E-15
  7.72149368E-03 -3.92535284E-15 -9.20036951E-14  5.09557729E-01 -4.79429823E-14
 -1.07111950E-12  2.36660250E-15 -1.58260226E-03  1.44699648E-16 -1.32842656E-17
  5.05693159E-17  4.43801008E-14 -5.73487940E-02  4.46479522E-15 -3.20121886E-17
 -1.99810865E-16  2.79477297E-15 -1.26368739E-15  1.01806540E-13 -6.05373433E-14
  2.20792529E-02 -1.12915025E-15  6.87656829E-17 -5.69600088E-02  2.71502327E-15
 -5.29404120E-16  6.81150103E-01 -3.51157910E-14 -5.04818091E-14 -1.00036690E-16
 -4.41493900E-04  2.44864303E-17  1.74817622E-17 -2.91024514E-17  1.40423893E-15
  8.73750056E-04 -8.48991345E-16 -1.73639976E-16  2.57070957E-17  1.21606966E-15
 -8.71104915E-14 -1.51665612E-12 -1.22162754E-13  9.99355331E-16  1.87310985E-02
  1.33120502E-15 -4.89304219E-15 -9.14665441E-02 -3.28259605E-14  5.09788145E-15
  1.35067332E-01 -3.48621934E-13 -4.95185260E-16 -3.60464448E-17 -5.18925414E-05
 -3.15661538E-18  2.59144408E-17 -9.18781592E-15 -2.40085700E-15 -3.29689562E-02
  3.72177531E-17 -9.87829335E-17  5.04636449E-15  7.46012599E-14  1.48562722E-12
  1.24946029E-13  7.82261109E-16  1.38418902E-02 -6.24675498E-16  7.00946117E-16
  7.72149371E-03 -3.77120477E-14  3.05666705E-14  5.09557729E-01 -4.27238901E-13
  1.15188652E-15 -2.09696383E-16 -1.58260226E-03 -8.32836724E-18  4.29677290E-17
  1.77748299E-14 -2.77047834E-15 -5.73487943E-02  3.81485682E-17  4.31253593E-17
  1.05937973E-15 -2.07468698E-15  4.32820204E-14 -1.65277630E-14  9.51487134E-16
  2.20792529E-02 -1.12182559E-16 -2.37452185E-15 -5.69600091E-02  3.21695411E-17
  2.94242330E-14  6.81150103E-01 -2.80593043E-14 -8.82752199E-17 -2.38200013E-17
 -4.41493901E-04  2.13896110E-18  1.41041583E-16  1.20356919E-15  3.81523782E-16
  8.73750086E-04 -5.97271353E-17  2.40641536E-16 -4.49906257E-02  2.12029469E+00
  1.65200402E+01  6.26045331E+00  3.79730037E-17  3.82595558E-16 -7.20341588E-02
 -1.58305703E-15 -2.81027990E-15  6.07082660E-01 -2.99124098E-14 -1.86543610E-14
  4.91072214E+00 -2.10890462E-02  3.90021090E-16  2.02768646E-16 -9.20923184E-12
  7.02845874E-17  2.57741671E-01 -3.22855977E-15 -4.53837816E-15  1.12587571E-10
  6.49309310E-16 -3.29620583E-01 -2.07090554E+00 -1.64147189E+01 -6.90470494E+00
  2.03640659E-16  3.36505592E-16  4.60819705E-02 -2.03683993E-15  3.12909085E-15
  8.82974274E-01  4.06356407E-14  2.85930293E-14  4.27050528E+00 -3.44984969E-02
  3.20584686E-16 -1.98788404E-16  2.21462087E-11  1.57962448E-16 -3.30146643E-01
 -4.38041380E-15 -3.03831043E-15 -2.37600496E-10 -2.56695174E-16 -2.74423933E-02
 -1.10518830E-01 -2.19874143E-01  1.32922201E+00  1.77328660E-15  5.95686695E-16
 -8.47388726E-03 -2.45011063E-15 -1.36160554E-15  1.34119883E-02  6.74576073E-14
  8.31248831E-15 -3.41253571E-01 -2.97507764E-03 -1.75772214E-16 -5.18765754E-16
  2.02902182E-12 -5.35304805E-16  4.49102898E-02  4.00133732E-16  7.01381516E-16
 -7.50256582E-12 -7.98086426E-17  3.48245045E-15 -6.77060754E-14 -1.07901333E-11
  6.21010635E-14  9.83713154E-03  7.59735112E-16  3.12194709E-15  1.14982032E-01
  7.04148911E-15 -5.80733572E-14  1.47051507E+00  9.59054841E-14 -2.39982503E-12
 -8.86687980E-16  2.97141750E-03  2.19296855E-16 -1.59416696E-17  5.00161115E-17
 -2.24826286E-14  1.57875426E-01  9.62085388E-15 -7.38540182E-17 -1.09991208E-16
 -1.08545687E-14  4.09926343E-15  1.05679956E-11 -2.49047304E-13  2.47699302E-02
  1.75370990E-15  3.93376209E-15 -1.92405503E-01 -1.20964194E-14 -3.32532251E-14
 -6.28342786E-01 -3.67404775E-14 -3.02902363E-12 -2.32898463E-15 -3.02574689E-03
 -3.01227079E-16  4.07769180E-17  7.27631011E-17  4.43668520E-14  1.85692544E-01
  1.19078301E-14  8.73535763E-17  1.06130272E-16  3.97564743E-15 -3.47652182E-14
  3.34028199E-13  1.65660392E-13 -1.81141557E-02 -1.55027002E-15 -3.37852554E-15
  4.54047383E-02  3.41837801E-15  5.15106982E-15 -6.11299125E-01 -4.97291441E-14
 -3.72916813E-13 -1.62969203E-15  1.35438501E-03  8.85020196E-17 -1.84209173E-17
 -5.16590591E-17  2.38956254E-14 -2.04639292E-02 -1.48560512E-15  3.62795889E-16
 -6.75474650E-17 -7.13826472E-16 -1.78377759E-14  4.25118507E-13  2.66825754E-14
 -8.53738128E-16  9.83713154E-03 -6.89553972E-16 -6.15011454E-15  1.14982032E-01
 -6.01921339E-15 -1.00436621E-13  1.47051507E+00  9.73405602E-14 -4.32826693E-16
 -1.42366243E-16  2.97141751E-03 -4.26713949E-18 -5.08950099E-17 -6.96871723E-16
 -9.66800757E-15  1.57875427E-01  9.51953401E-19  7.29980869E-16 -1.38163529E-15
  1.67298263E-14 -4.08930351E-13 -2.23153679E-14 -1.87142746E-15  2.47699302E-02
  3.27339260E-16  1.24780890E-14 -1.92405504E-01 -8.08680054E-15  3.39984890E-14
 -6.28342788E-01  1.22464552E-13  3.17208892E-16  3.84560874E-16 -3.02574689E-03
 -1.80485446E-18  6.77889383E-17  1.94829334E-15 -1.20336086E-14  1.85692544E-01
  6.49582333E-17 -6.88647057E-16 -2.34677013E-16  2.94267087E-15 -1.76544936E-14
 -1.77135708E-15  1.15588693E-15 -1.81141557E-02  3.71002893E-17 -2.75351417E-15
  4.54047385E-02 -1.39084812E-16  3.93193182E-14 -6.11299125E-01  1.71434539E-14
  1.55823658E-16 -8.01588114E-17  1.35438500E-03 -1.86053517E-18 -4.44966515E-17
 -2.16261783E-15  1.49376318E-15 -2.04639291E-02  1.75487242E-17  4.43342559E-16
  5.75540296E-02 -6.26517915E-01 -3.87322081E+01 -1.18638555E+00 -1.83400001E-16
 -5.77786024E-17  3.06923039E-02 -3.33483820E-14 -2.69505174E-15 -3.25436752E-01
 -2.69049717E-13  3.14729409E-14 -9.67688949E+00  2.47651519E-03 -1.83580327E-15
 -8.46509068E-16 -1.28111586E-12  6.61928977E-17 -2.01356364E-01 -3.08907266E-14
  3.03118617E-15  5.24694839E-11 -5.78391136E-16  6.27116797E-02  4.75973285E-01
  3.83363288E+01 -2.64903710E-02 -6.01205170E-15 -1.25708243E-17 -1.41578245E-02
  4.73452681E-14  1.85691776E-15 -2.56909451E-01  1.20563499E-13 -3.76033710E-14
 -1.04015696E+01  1.31352993E-02  3.08820017E-16 -4.29735036E-16 -8.24523070E-13
  1.69480533E-16  8.76797983E-02 -3.97705031E-14  5.26302296E-16 -7.17718446E-12
 -1.96772407E-15  2.54858063E-02 -4.60293322E-02  9.74556683E-01  7.82766100E-01
  2.13621925E-15 -9.18671551E-16 -2.59250654E-02 -1.05186215E-14  2.10471061E-15
  5.50904213E-02  7.27961447E-14 -6.54777581E-15 -1.77666962E+00 -5.53208235E-03
 -3.62120139E-16  1.33751985E-15  9.43442566E-13  1.45312860E-15  7.58453707E-02
  5.12355259E-15 -3.48662638E-15 -1.87053662E-11 -7.13681533E-17  3.47657815E-15
  1.44664090E-13  1.73562053E-12 -1.35127438E-14 -2.03921330E-02  7.50579178E-17
  1.98832675E-15  3.37595822E-01  4.07023412E-16  8.32428001E-14  3.03327496E+00
  3.06988021E-14  3.91694335E-13  4.68988232E-15 -3.89813012E-03 -2.13792587E-16
 -1.87136150E-17 -1.03198357E-16  2.51346763E-14  4.12173811E-01  3.41294819E-15
  2.45762681E-16 -6.71518087E-16  7.54309230E-15 -1.73043923E-13 -1.68838927E-12
 -8.47281232E-15  9.65615837E-03 -4.44014085E-18 -1.22043260E-16 -3.21893758E-01
 -1.02204177E-15  6.51983731E-14 -3.38598271E+00 -3.47502029E-14  4.47220332E-13
 -2.09365570E-15 -2.35003450E-03 -2.29993681E-16 -1.15246069E-17 -1.33762738E-17
 -1.79924770E-14  4.09862049E-01  2.73554533E-15 -2.39211650E-17  1.39157539E-15
  1.51858721E-15  1.92647344E-14 -5.70917705E-14  1.05736892E-14  1.60565990E-02
 -9.98005921E-17 -4.46960162E-16 -5.52136484E-02 -4.16015782E-16  6.21310054E-16
  7.72665394E-01  1.29560572E-14 -8.51521177E-16  3.69486039E-16 -1.45999621E-03
 -2.02788860E-16  9.98017690E-18  2.64717663E-17 -1.72686506E-15  1.82174094E-02
  1.32850561E-15 -2.22019650E-16 -2.37072905E-16 -2.62379329E-15 -3.45757553E-13
 -1.25647472E-12 -7.62394802E-14  2.28259406E-16 -2.03921330E-02 -4.73397135E-15
 -3.62855102E-15  3.37595823E-01 -1.52680430E-13 -2.67439101E-14  3.03327496E+00
 -3.44108432E-13 -7.94708301E-15 -1.52150853E-16 -3.89813012E-03 -7.85775783E-18
  2.51840746E-16 -4.54323420E-14 -5.56108417E-15  4.12173812E-01 -1.16779626E-17
 -4.37577535E-16 -9.80618879E-15  3.29722883E-13  1.34451831E-12  9.35993534E-14
 -3.62569480E-16  9.65615839E-03 -4.99520440E-16  4.84477197E-15 -3.21893759E-01
 -1.47835712E-13  2.78995130E-14 -3.38598271E+00 -2.46425173E-13  6.26786718E-15
 -1.90333588E-16 -2.35003449E-03  1.85860786E-18  8.86887401E-17  4.37335712E-14
 -2.88618221E-15  4.09862049E-01 -8.50352345E-17 -6.68739979E-16 -2.58296445E-15
 -1.32578572E-14  2.44872877E-15 -4.68451049E-14 -5.26068732E-16  1.60565990E-02
  5.50272055E-16  1.23102503E-15 -5.52136486E-02 -4.82407389E-15 -1.28718155E-14
  7.72665395E-01  6.60634010E-14  8.25015124E-16 -1.80282034E-17 -1.45999620E-03
 -6.85515277E-18  1.84633315E-17 -1.03348718E-14  9.28500618E-16  1.82174092E-02
  1.05621730E-16 -4.89939803E-17  2.59162632E-02 -9.24562480E-01 -7.36418599E+00
 -2.85921573E+00 -1.28592302E-16  8.28303910E-16 -1.76181372E-02  1.68497735E-15
 -1.34974616E-14 -5.03023027E-01  3.57724455E-14 -1.25041577E-13 -3.70938070E+00
 -1.84051724E-02 -3.90983523E-16 -7.66597212E-17  4.89717635E-12  1.85172668E-16
 -3.69291530E-01  5.02561653E-15 -1.52476358E-14  6.21353241E-11 -1.26208866E-15
 -9.88323525E-02  7.45054810E-01  9.88677051E+00  3.01832750E+00 -1.04311431E-15
  3.35276389E-16  1.21567670E-02 -2.53406602E-16  1.21781409E-14 -4.15522047E-01
 -5.01712986E-14  1.39089662E-13  6.51264230E-01  2.14379228E-02  1.62531193E-16
  1.40206512E-16  1.86836205E-11 -3.63138761E-17  4.54464958E-02  3.24940540E-15
 -1.69733771E-14 -2.00610718E-10  5.66550863E-16 -7.30266137E-02 -4.97742443E-01
 -7.75255625E-02 -1.33834730E+00  3.29750706E-16 -9.30491773E-16  1.67900341E-02
 -2.39972489E-15  1.31032092E-15 -1.23024110E-01  1.58833145E-14 -3.06578926E-14
  1.53892249E+00  1.39943627E-02 -1.50705769E-16  4.77355161E-16  1.58118643E-11
  3.77333944E-16 -1.34601952E-01  1.51593821E-15 -1.36054105E-15 -1.24894997E-10
 -1.17159001E-15  1.40075790E-01 -1.74848641E+00  3.92251972E+01  3.50233560E-01
 -5.13508202E-16 -1.64901282E-15  1.98279030E-02  1.95114762E-14  1.82128877E-14
  2.73739972E-01  2.47593621E-15  2.60532747E-14  9.66160523E+00  2.40652245E-02
  3.08560639E-15  9.23978852E-16  3.89818201E-11  6.82397081E-18  3.80919781E-01
  3.27106200E-15  8.00629486E-15 -2.33025608E-10  2.88708859E-15  2.04150959E-01
 -8.39688354E-01 -3.60955938E+01 -1.64354273E+00  3.96644107E-15  8.20535346E-16
 -3.26184297E-02 -2.37836426E-14 -1.45245431E-14 -5.25547245E-01  5.39986747E-14
 -2.66956646E-14  9.36430607E+00  5.03743561E-02  3.09927572E-16  1.11349768E-15
  2.35855611E-11 -3.46943498E-16  3.73257458E-01  1.24944356E-14  1.27022309E-14
 -1.39646820E-10  3.32798104E-15  2.68346101E-02  3.37226029E-01 -1.20173896E+00
  2.29175680E-01 -2.20608594E-15  1.17938763E-15 -1.19068097E-02  1.58779948E-14
 -6.39660138E-15 -2.86188935E-02 -4.05085133E-14  1.33406513E-14  6.59813186E-01
  1.68672504E-02  5.80364987E-17 -2.54535074E-15 -1.57716794E-11 -3.05708510E-15
 -1.77917503E-01 -7.45528159E-15  6.16348947E-15  1.11888687E-10  8.78301241E-16
  4.32337441E-02  3.74664525E+00  4.90475775E+01  1.82200113E+00 -2.70186014E-15
 -2.11372837E-15  6.65594563E-02  4.32568594E-14  3.05007888E-14  1.36993106E+00
  6.31053215E-14  5.69121963E-14  1.10924490E+01  7.19918574E-02  4.63626367E-15
  2.67956937E-15 -1.72424748E-11 -1.46956038E-16  4.06692495E-01  1.12500613E-14
  1.14495655E-14  1.40247084E-10  4.66767115E-15  1.79674973E-01 -2.84296451E+00
 -4.96030229E+01 -1.76519519E+00  5.93737590E-15  1.33358816E-16 -2.11632042E-02
 -4.65905363E-14 -2.33925441E-14  1.45235004E+00 -6.65888648E-15 -5.57652696E-14
  1.31444794E+01 -4.27624955E-02  5.29993924E-16  1.95191235E-15 -1.36390161E-11
 -3.89658695E-16 -7.85370588E-01  3.16197550E-14  2.26750750E-14  9.28223347E-11
  4.19620718E-15 -6.77054800E-02 -1.10840319E+00  8.59991596E-01 -3.01145675E-01
 -1.83241828E-15  1.34629636E-15 -7.08218060E-03  2.32818593E-14 -4.62841906E-15
  5.79868658E-02 -3.23617875E-14  1.74670682E-14 -7.97475271E-02  1.24455785E-03
  1.92001138E-16 -4.49652197E-15  5.32379054E-11 -4.16557033E-15 -5.21290882E-02
 -1.09309454E-14  1.45722520E-14 -5.04564316E-10  1.48808748E-15  1.30138880E-03
  9.88952034E-01  8.69733970E+01 -4.58185328E-01 -7.19907090E-15 -3.70184708E-15
 -1.14196963E-03  9.47935032E-14  5.86547518E-14  8.84740852E-02  1.16624458E-13
  2.96903649E-14  1.65747192E+01  6.58562026E-03  9.64406834E-15  4.29717541E-15
 -3.41999692E-11 -7.06385266E-16 -1.60743121E-01  1.65421762E-14  2.39512883E-14
  2.53836796E-10  1.02626840E-14  2.45069288E-02  6.63138480E-01 -8.39696510E+01
  1.22900712E+00  1.15712989E-14  1.64550660E-15 -1.60855531E-02 -9.44005468E-14
 -4.80589957E-14  2.14139852E-01 -3.26719387E-14 -2.39135317E-14  2.78346287E+01
  7.46399144E-03  4.88432453E-16  3.84514201E-15 -4.03019495E-11 -1.77636625E-15
 -4.32994398E-01  7.43987987E-14  3.39689163E-14  4.06167254E-10  2.55609305E-14
 -1.12081189E-02  1.08001685E+00 -5.10677790E+00 -3.45497429E-01 -4.43949995E-15
  4.11055370E-15  1.39071854E-02  6.52353315E-14 -2.09585065E-14 -1.72239234E-01
 -6.68640109E-14  2.22668245E-14  2.95929717E+00  6.42157670E-04  2.10587882E-15
 -1.01319738E-14 -5.93269275E-11 -8.79723003E-15 -4.54033566E-02 -4.13166088E-14
  3.78313255E-14  6.83597760E-10 -2.58551300E-15 -5.55694884E-02 -8.92292474E+00
  2.31904632E+01 -2.89978900E-01  3.57917271E-16 -2.20456213E-15 -1.88611694E-01
 -5.80169656E-15  4.33905126E-14 -3.07907668E+00 -1.73483242E-14  5.98977696E-14
  5.03865438E+00 -2.10331465E-01  2.25211118E-15  3.32689111E-16  3.99993408E-12
 -5.05590453E-15 -9.26152694E-01 -2.93644870E-14  5.26829327E-14 -5.17022362E-10
  4.06434895E-14 -2.21718799E-01  8.82895362E+00 -2.31380320E+01  5.23077833E-01
  1.67298137E-15  5.17876186E-15 -9.72301167E-02  8.41588735E-17 -5.46133651E-14
 -2.95179360E+00  3.99413868E-14 -5.80657322E-14  4.50301299E+00  1.64219716E-01
  2.46930945E-16  1.27945583E-15 -1.18914421E-10 -7.97783069E-15  1.18218129E+00
 -1.60591041E-14  3.71467132E-14  1.77803476E-09  1.08040514E-13 -3.92729687E-02
 -3.07558615E-01  2.72667008E-01 -2.58683131E-02 -1.52846033E-15  4.68865850E-15
  5.49357502E-03  2.21946963E-14 -3.32832058E-14 -1.96842079E-01 -2.10562453E-14
  1.89686047E-14 -7.37776827E-03  3.65498000E-03  1.38864764E-15 -2.95762085E-15
 -5.59154655E-11 -8.28435953E-15 -6.35610774E-02 -1.29075607E-14 -3.59331341E-15
  8.13471317E-10  7.85616685E-14 -1.01926323E-10 -1.37353989E-08  1.00360055E-07
 -8.92955425E-10  2.07748177E-16 -1.51494438E-16 -3.11162089E-10 -7.10284781E-15
 -5.74905458E-16 -5.21838612E-09 -1.93090309E-14 -9.00819402E-15  1.92948077E-08
 -3.44591878E-10 -3.58598009E-16 -2.70863095E-16  2.89364905E-02  7.18712900E-07
 -1.88584725E-09 -8.02739051E-15 -3.09810723E-15 -2.43847510E-01 -6.05658626E-06
 -3.66127458E-10  1.57298225E-08 -9.83278911E-08  2.06171721E-09 -2.44382104E-16
 -1.10759367E-16 -1.66446414E-10  6.90111359E-15  3.97958210E-15 -4.72989914E-09
  2.14965342E-14  8.42468283E-15  2.86412378E-08  2.72867950E-10 -2.77806008E-16
 -1.58586605E-16  4.46131043E-02  1.10808232E-06  1.49627394E-09 -1.01714628E-14
 -2.68706850E-15 -5.59049198E-01 -1.38854389E-05 -3.41582009E-11  7.45178004E-10
 -4.34480103E-09 -2.41503135E-10  2.33997951E-16  5.88358379E-16  2.47798285E-11
  2.94190662E-16 -2.53203531E-15 -4.89834255E-10 -2.61345389E-15  2.00758418E-16
  2.53686881E-09  7.91156860E-12 -2.19249123E-16 -2.94286854E-16  4.68158911E-02
  1.16279425E-06 -1.54865472E-10  5.42393622E-15  4.76770024E-15 -6.55304992E-01
 -1.62762015E-05  4.19441422E-15  1.13155381E-12 -2.12165896E-12  4.39354470E-14
  7.59179067E-16 -1.63830552E-15  1.92451175E-14 -4.68496365E-15  2.24669577E-14
  3.81167749E-13  9.23418677E-15  4.68934371E-14 -5.27594276E-13  2.33258648E-14
  5.68671907E-16  6.97305695E-16  7.18712900E-07 -2.89364905E-02  1.02237928E-13
  1.71146993E-15  8.36638462E-15 -6.05658626E-06  2.43847510E-01  1.91321939E-14
 -1.05908180E-12  2.12205687E-12 -7.29559484E-14  5.85650351E-16 -2.03430083E-16
  1.08466684E-14 -9.20021333E-15 -6.60263676E-15  3.84441856E-13 -3.51225743E-15
 -5.78118603E-14 -3.04594430E-13 -1.89537087E-14 -2.62479107E-17 -2.15854003E-16
  1.10808232E-06 -4.46131043E-02 -1.80184123E-13  2.57514155E-15  2.88137449E-14
 -1.38854389E-05  5.59049198E-01  6.86256574E-15  5.48653639E-14 -8.53199587E-14
  1.80966777E-14  4.23869120E-16 -1.19302544E-15 -1.39099382E-15 -2.25794122E-15
  9.79402999E-15  3.97662820E-14  6.19893056E-16  2.46837481E-16  3.43113144E-15
 -4.52861213E-16  6.78612662E-16  1.14836821E-15  1.16279425E-06 -4.68158911E-02
  4.20086382E-15 -7.53144284E-15 -2.02171281E-14 -1.62762015E-05  6.55304992E-01
  7.63051290E-15 -8.31825969E-13 -1.91323828E-12 -9.64254470E-14  4.02025640E-02
 -6.21458836E-16  6.42918820E-15 -6.26266898E-01  8.30887824E-15 -3.25096569E-13
 -1.77670492E+00 -1.45399374E-16 -3.21443711E-13 -7.08430544E-15 -2.07789710E-02
 -3.31905084E-16 -5.29966020E-16  6.28042448E-16 -4.24718893E-14 -3.96860823E-01
  1.20544928E-14  7.01399855E-15 -5.53633777E-15  2.37121652E-14  6.97815307E-13
  1.95768431E-12  1.53603542E-13 -2.20849932E-02  6.57954955E-17 -1.11459855E-15
  5.00984968E-01 -4.79111352E-15 -3.91184013E-13  1.90930516E+00 -3.08625824E-15
 -4.86653188E-13  9.02324975E-15  8.27234022E-03  7.41599316E-16 -6.45708392E-16
 -2.37868312E-16  2.27759780E-13 -1.05962771E+00 -2.93288629E-15  4.52216116E-15
  3.26390189E-15 -7.01790370E-15  1.56679893E-14 -4.70154973E-14 -6.39180706E-14
  2.47343825E-02  1.24750919E-15  3.98522809E-15 -2.99274818E-01 -1.09306940E-14
 -7.84316436E-14  1.10797517E-02  5.24264641E-15  1.25846264E-13  1.27561306E-15
 -4.43395518E-02 -5.26551375E-16 -1.29386327E-17 -1.05104686E-15  1.94194277E-15
  7.42350654E-01  9.49442219E-15  2.94961083E-16  1.35977373E-14  3.04498551E-15
 -3.43951260E-13 -1.02362534E-12 -8.55276198E-14  2.36879583E-16 -4.02025640E-02
  3.21844715E-15  6.51855178E-17  6.26266899E-01 -1.40023904E-13 -1.81259600E-14
  1.77670492E+00 -2.06765912E-13 -2.39841518E-15 -4.75196750E-16  2.07789709E-02
 -5.49972198E-16  3.73312932E-15 -2.01803169E-14 -6.20972413E-15  3.96860824E-01
  8.35530493E-15 -4.52221481E-14  1.16969638E-14  2.93068643E-13  1.05751476E-12
  1.21090708E-13 -4.93235463E-16  2.20849932E-02  4.86277121E-16  1.14543005E-14
 -5.00984969E-01 -1.74746158E-13  1.31778617E-14 -1.90930516E+00 -2.16642458E-13
  3.88204504E-15  1.42091951E-16 -8.27234021E-03 -1.32318354E-16  2.06550307E-15
  9.28062202E-14 -1.07414934E-14  1.05962771E+00  1.02148281E-15 -2.17932769E-14
 -2.20829595E-15  1.28577628E-14 -4.05586202E-14 -4.15598953E-14  3.50689898E-16
 -2.47343825E-02  1.44750115E-15 -5.97110314E-15  2.99274818E-01 -3.04767808E-14
  3.31657908E-15 -1.10797517E-02  6.81660050E-14  7.92820439E-16 -5.61158997E-16
  4.43395518E-02  1.18361175E-15 -1.49750365E-15 -4.77698617E-15  8.96700190E-15
 -7.42350654E-01 -1.76990518E-14  2.62156715E-14 -1.48716017E-11 -5.86223367E-10
 -7.09046423E-10  5.51950595E-11 -4.47441683E-16  7.95729369E-16 -1.96133867E-11
  2.93539637E-15 -1.43786706E-14  2.99234297E-10  1.21232499E-14 -3.28793893E-14
  5.93456101E-10  1.98468179E-12  7.20148862E-18 -4.34498358E-16 -4.36930920E-02
  1.35439459E-06  5.23793448E-10  2.77908981E-15 -6.23425500E-15  6.17205255E-01
 -1.91320737E-05 -2.02716673E-11 -1.08348061E-09  2.34750226E-09 -2.88531404E-10
  8.05785010E-17 -3.92994369E-16  2.51422873E-11 -2.64497098E-15  7.64828824E-15
 -1.72085392E-10 -1.27060803E-14  3.64644960E-14 -8.04879522E-10 -2.52475589E-12
 -2.06467491E-16  3.82131689E-16 -2.01416362E-02  6.24348652E-07  4.46700433E-10
  7.08194520E-15 -2.29913961E-14  1.30354180E-01 -4.04070730E-06  4.12716593E-11
  7.14864372E-10 -1.21188435E-09  1.66225190E-10 -2.90164534E-16  1.24286579E-16
  6.45507054E-12  1.78293901E-15 -5.13463824E-15 -7.96401849E-11 -1.66365475E-15
  2.84018275E-16  5.48160400E-10  1.60768551E-11  3.63214000E-16 -6.82282890E-16
  4.99840862E-02 -1.54940227E-06 -1.51369600E-10 -5.07782362E-15  1.23684366E-14
 -7.48249402E-01  2.31941686E-05 -2.14997642E-15  3.90220667E-13  7.98937603E-13
  6.51646592E-14 -2.67394446E-16 -1.83507960E-15  3.44986537E-16  1.97210508E-15
  3.05414246E-14  1.39828114E-13 -6.54920616E-16  1.14662690E-13  1.22271550E-13
  4.52711228E-15 -5.19135706E-17  1.21387300E-15 -1.35439459E-06 -4.36930920E-02
  3.16811375E-14  1.00967410E-14  2.44414902E-14  1.91320737E-05  6.17205255E-01
 -2.94134423E-15 -3.58521953E-13 -7.41627050E-13 -1.07047534E-13  2.70391917E-16
  1.94454821E-15  1.56673308E-15 -3.51286213E-15 -3.62718540E-14  1.56396476E-13
  2.52466077E-15 -1.14939673E-13  2.79998874E-13 -3.79375178E-15 -1.43043014E-17
 -8.13155186E-16 -6.24348652E-07 -2.01416362E-02 -1.09181667E-13  8.85475986E-16
  6.48092130E-14  4.04070729E-06  1.30354180E-01  6.14366271E-15  2.82153391E-14
 -6.37269397E-14  3.69361101E-14  4.11671254E-16 -1.13164052E-15 -2.61590678E-15
 -4.61644633E-15  1.23817709E-14  4.39959808E-14 -1.38654542E-16  2.74880042E-15
 -1.83909912E-14  2.98390094E-16 -6.46840427E-16  2.68477494E-15  1.54940227E-06
  4.99840862E-02 -1.24413459E-14  1.37946693E-14 -4.37686643E-14 -2.31941686E-05
 -7.48249402E-01 -5.80941825E-15  4.60884102E-13  1.45581820E-11  2.02521721E-13
  5.70416765E-02  2.73706338E-15 -7.44474285E-15 -9.85690893E-01 -6.73571839E-14
  5.91009216E-14 -2.04532707E+00 -2.84709415E-13  2.66754852E-12 -5.59392532E-15
  2.69353212E-03  5.22910947E-16 -2.12806545E-16 -2.67998901E-16 -1.09010537E-13
 -1.49737811E+00 -2.01675061E-13  9.86747229E-16  6.90928468E-15 -1.40261578E-14
  9.68735786E-15 -1.42288683E-11 -2.54051092E-13 -5.56912281E-02 -1.19718233E-14
 -9.57372172E-15  9.12753285E-01  1.69333989E-13  2.03215441E-13  2.07462025E+00
  2.26993578E-13  4.51145750E-12  6.16245642E-15 -1.87993239E-02 -9.22038800E-16
  2.38960048E-16 -3.36609028E-16 -3.59877765E-13 -1.01986060E+00 -1.29212503E-13
  1.17969297E-15 -2.15785257E-15  1.18180327E-14  6.63450674E-14 -5.42399678E-13
  6.89389028E-14  1.74200941E-02  3.01758094E-15 -1.00182188E-14 -2.12146985E-01
 -2.63705563E-14  1.51760493E-13  3.85770009E-02  1.40180421E-14  1.59087078E-13
 -2.19316288E-15  3.11729344E-02  4.90480182E-15 -7.74406942E-17  9.37704714E-16
 -2.63039669E-14 -4.59082330E-01 -7.50110482E-14  1.22751279E-15 -1.19889907E-14
  4.60998781E-15 -2.34636458E-13 -1.01091757E-11 -1.32305912E-13 -6.69241469E-15
  5.70416764E-02  5.99000488E-15  1.15354103E-13 -9.85690893E-01 -7.26164674E-15
  2.65398215E-13 -2.04532706E+00 -1.83565019E-12  5.05585306E-15 -1.21843533E-15
  2.69353214E-03  2.04143156E-16  1.88655343E-16  9.13579088E-14  1.97608676E-13
 -1.49737811E+00 -2.41747433E-15 -8.69806319E-15  9.58433205E-15 -9.47513416E-14
  9.86241823E-12  1.60842474E-13  7.85250161E-15 -5.56912281E-02  6.79804726E-15
 -1.23162457E-13  9.12753285E-01 -1.02068066E-13 -2.61873044E-13  2.07462024E+00
 -3.16166731E-12 -5.61672059E-15  2.21252180E-15 -1.87993239E-02 -1.98517917E-17
 -2.09655930E-16  2.36663066E-13  1.24570125E-13 -1.01986060E+00  1.31439373E-15
  7.78032870E-15 -8.28130690E-15 -5.26253283E-14  4.00418598E-13 -4.37827893E-14
 -1.09598626E-15  1.74200941E-02  5.92903370E-15  1.74012775E-14 -2.12146985E-01
 -9.78739682E-14  1.76204249E-15  3.85770008E-02 -1.31894152E-13  4.27805547E-16
 -4.52020091E-15  3.11729345E-02 -4.14737060E-17 -7.28126952E-17  2.98971261E-14
  6.54221057E-14 -4.59082330E-01  4.37058215E-16  3.92828784E-16  3.95036702E-14
 -3.82359822E-12 -6.42951570E-11 -1.34996722E-12  5.03405298E-02 -8.38838354E-15
  3.66619743E-14 -5.91046838E-01  1.02450947E-13 -1.29783311E-12  6.61986294E-01
 -8.20326947E-14 -1.29289715E-11 -4.59447366E-15  4.08054579E-03 -8.23858231E-16
 -2.39882265E-16  3.48190015E-16 -1.84167868E-13  3.39460447E-01 -4.36981050E-14
  3.57544552E-15  4.08519057E-15  8.49647970E-14  2.40831439E-12  6.33493686E-11
  1.55329739E-12  6.89748018E-02 -1.03896455E-14  2.29676508E-14 -8.79678731E-01
  1.35732323E-13 -1.81039387E-12  1.03655901E-01 -3.83686245E-14 -1.83796946E-11
  1.52241874E-14 -5.78920602E-03  9.02124276E-16  4.92740551E-16  9.75492127E-16
  1.48094491E-12  1.20833398E-01 -3.48282975E-15 -5.20101120E-15 -1.53137748E-14
 -3.84815727E-14 -1.30476813E-13  1.68437829E-12 -3.79895894E-13  2.51649924E-02
 -5.93003693E-15  3.74787057E-14 -3.46653216E-01  7.60331134E-14 -6.40394076E-13
  9.72970950E-02 -2.71599799E-14 -2.74876583E-13  1.54955250E-14 -1.06194355E-02
  1.45816962E-15  5.87040398E-18  1.89659205E-16 -6.17631728E-14  1.62165586E-01
 -2.31759038E-14  6.05506462E-16 -3.13628601E-15 -3.26053442E-15  6.34983565E-13
 -1.84244047E-12  1.45650463E-13 -1.21711059E-14 -5.03405298E-02  2.76151801E-16
  1.63026992E-13  5.91046838E-01  3.32069996E-13  3.66695873E-14 -6.61986293E-01
 -7.53854937E-14  9.37886693E-15 -1.37648993E-15 -4.08054580E-03 -9.14466044E-17
 -3.47329222E-16  2.00277869E-13  5.09818238E-14 -3.39460446E-01  7.34642134E-16
  7.74850764E-15 -6.64105546E-15 -8.28032170E-13  1.66875865E-12 -1.67152980E-13
 -7.25580913E-15 -6.89748018E-02  5.52683972E-15  7.87034313E-14  8.79678731E-01
  3.08333607E-13 -1.60932770E-13 -1.03655902E-01 -9.45575229E-13 -1.34837112E-14
  1.93455139E-15  5.78920602E-03 -1.31853576E-16  3.34979532E-16 -7.88481353E-16
  5.25376172E-14 -1.20833397E-01  2.12924968E-15 -6.57477317E-15 -1.87402546E-15
 -4.61576396E-14  2.56250480E-13  3.85217727E-14 -6.16176606E-15 -2.51649924E-02
  9.00681307E-16  8.10875717E-14  3.46653216E-01 -3.90533977E-16 -2.40315801E-14
 -9.72970949E-02 -1.63916384E-13 -1.99022530E-15 -6.29702369E-16  1.06194355E-02
  2.52063902E-17  6.55290007E-16  4.47325040E-14  7.11779381E-15 -1.62165586E-01
 -4.63095192E-16 -1.32914297E-14  5.46772693E-02 -5.50529631E+00 -8.38390978E+01
 -1.97527342E+00 -3.01652716E-14  4.80746890E-15  4.79217306E-02  3.20800185E-13
 -4.82095918E-14 -1.97158461E+00 -4.07985191E-13  7.68082939E-14 -1.72805511E+01
 -1.01681550E-02 -1.77541232E-14 -1.19996604E-14 -1.36518165E-11 -5.09142176E-15
 -4.95793218E-01 -4.37682855E-13  1.63183346E-13  2.21113257E-10  6.46380994E-14
  1.12390386E-01  3.89354132E+00  8.27820023E+01  2.26318078E+00 -8.18000924E-14
  5.66913186E-15  2.69817110E-02  9.87977405E-13 -1.37699218E-14 -2.61783060E+00
 -4.21111518E-13 -6.62029225E-14 -2.34267902E+01  2.96955542E-02 -3.99933685E-15
 -2.00274513E-15  7.02464642E-12 -2.19148165E-15  1.91752461E+00 -1.03542108E-13
 -5.95513075E-14 -1.57708719E-10  1.56202342E-15 -4.78747070E-02 -1.19981104E-01
  1.95264752E+00 -5.42722496E-01  1.32565404E-14 -8.34696227E-15  4.97407094E-02
 -2.10459992E-13  7.08439266E-14 -8.63204515E-01  2.87678968E-13 -4.30128980E-14
 -1.81654681E-01  2.31035074E-02  2.56010061E-14  9.21454510E-15 -6.57109895E-13
  1.71247859E-14 -1.41319214E-01 -4.03036879E-13  5.65839685E-14  1.63571801E-11
 -2.62458058E-14 -3.16629870E-02  4.68233592E+00 -3.88322910E+01  1.59972326E+00
 -3.86037288E-15  9.40175717E-15  2.25566997E-03  3.30842046E-14 -1.21557306E-13
  2.61050647E+00  3.97621980E-15  1.75922129E-15 -4.43305522E+00  6.01008456E-02
 -7.16133294E-15 -2.11725762E-15 -1.19417512E-11 -5.45991345E-15  2.28588350E+00
 -1.13642277E-13  5.60391891E-14  4.01659475E-10  1.07090428E-13 -2.79847243E-02
 -7.31782109E+00  3.67426337E+01 -1.92586970E+00 -2.18013891E-14  7.87536229E-15
  5.32503749E-02  2.51097533E-13 -9.16523494E-14  2.21360895E+00 -2.30244355E-13
  1.36081172E-13 -1.57015725E+01 -1.00716110E-01 -3.20378149E-15 -2.36243536E-15
  3.09928486E-11  2.91653089E-15  3.75449536E-01  1.15022698E-15 -2.70459155E-14
 -6.27209218E-10 -8.72986173E-14 -2.78011272E-02 -4.85159960E-01  3.20687731E+00
  4.62677819E-01  2.15603760E-14 -1.73212482E-14  5.15373646E-03 -3.26583545E-13
  2.14492702E-13  4.89234676E-02  2.46658694E-13 -1.54017733E-13 -2.00499500E+00
 -1.22858698E-02  8.39981219E-15  1.35165414E-15 -9.58730277E-12  6.90239400E-15
  3.76733352E-01 -1.48826862E-13  8.93715329E-14  1.91644148E-10  1.84884770E-15
 -7.68923366E-15  6.94150706E-13  5.14641192E-11  4.10430110E-13 -2.67097519E-02
  4.34062820E-15 -1.38634618E-14  3.84015773E-01 -6.70473177E-14 -7.93163790E-14
  9.44544415E-01 -1.65136041E-13  9.57949846E-12 -1.59131361E-14 -6.65362375E-03
  2.36863210E-17  1.27052517E-16 -1.54514132E-16 -5.53906822E-13  2.85320625E-01
 -4.84374767E-14 -1.97184439E-15  3.85642287E-16 -2.74819044E-14  8.99214372E-13
 -5.04524232E-11 -4.21195507E-13 -1.01050972E-02  1.40295982E-15 -3.28191746E-14
  1.04545701E-01 -6.47447816E-15  3.67900581E-13 -1.36767940E+00  2.31698619E-13
  1.58046161E-11  1.93902635E-14 -9.83249799E-04 -5.28333894E-16  1.66307313E-16
  2.51275066E-16 -8.96113191E-13  3.60517252E-01 -6.79059546E-14 -4.41404663E-16
 -2.72202717E-15  2.55080283E-14  1.64212663E-13 -1.83299403E-12  8.81759828E-14
  8.34055537E-02 -1.36710636E-14 -2.54838434E-14 -1.22969900E+00  2.08013977E-13
  3.94246146E-13  8.59059634E-01 -1.43928684E-13  6.66454686E-13 -1.03764048E-14
  1.07450508E-02 -2.21084980E-15  1.03534707E-16 -4.43731077E-16  3.82045399E-14
 -2.29856528E-01  4.09984909E-14 -1.43240749E-15  2.30369200E-15  3.26395643E-15
 -1.20378402E-13  1.30656625E-11 -1.97257603E-13  4.43370080E-15  2.67097519E-02
  1.94089423E-15 -7.17710159E-14 -3.84015773E-01 -1.79046233E-13 -2.12813743E-13
 -9.44544414E-01  2.05523369E-12 -6.54615002E-16  1.97952049E-16  6.65362376E-03
  7.30969684E-17  4.04176965E-16 -4.01442120E-13 -7.39378241E-14 -2.85320625E-01
 -4.68980107E-16 -1.57952337E-14 -4.72451563E-15  7.57296927E-13 -1.26991473E-11
  2.47901291E-13  8.61192924E-16  1.01050972E-02 -9.17217360E-15  1.41170616E-15
 -1.04545701E-01 -3.68326291E-14  2.76538093E-13  1.36767940E+00  4.47062657E-12
  5.82000607E-15 -5.91900380E-16  9.83249795E-04  6.98675655E-17 -5.47068951E-16
 -2.16775022E-13 -9.08521081E-14 -3.60517252E-01 -1.55114194E-15  1.85045287E-14
  6.08662353E-15  6.86673852E-14 -6.46731233E-13 -5.86052943E-14 -1.38603811E-14
 -8.34055537E-02 -3.29415031E-15  2.01047823E-13  1.22969900E+00  2.81497205E-14
 -1.41832650E-13 -8.59059634E-01  3.40338499E-13 -1.93169411E-15 -9.81963286E-16
 -1.07450508E-02  1.87440512E-17  4.01873750E-17 -4.62303115E-15  3.01563061E-14
  2.29856528E-01 -1.87118940E-16 -3.62693306E-15  6.72345714E-11  5.09969948E-09
 -5.94350680E-08 -1.51917417E-10  3.16459411E-16 -1.40528320E-16  1.29074381E-10
  2.15797674E-15  6.62775046E-15  1.64988403E-09  1.41364896E-14  1.90526400E-15
 -1.13015594E-08  1.11976965E-10 -3.59698330E-16  2.53997257E-16  5.88482631E-02
  2.09842391E-06  7.33673462E-10  1.90182212E-14  2.53675794E-15 -1.49339196E+00
 -5.32516887E-05  1.09133238E-10 -5.56012781E-09  5.69221680E-08 -1.85613423E-10
  1.21015023E-15  3.47760328E-16  3.65387263E-11 -1.78752205E-14 -6.59722160E-15
  1.90071873E-09 -1.20287504E-14 -1.05274104E-15 -1.75926335E-08 -1.08167558E-10
  7.76625914E-16  3.23311742E-16 -6.08780713E-02 -2.17080325E-06 -2.09340767E-10
 -9.31941292E-15  4.52391571E-15  1.53336443E+00  5.46770356E-05 -1.98056844E-11
 -3.09895683E-10  2.48834514E-09  2.21716544E-10  1.65072534E-16  2.29602658E-16
 -2.51705120E-11 -8.57090149E-16 -1.33867557E-16  4.81825126E-10  3.90162826E-15
 -6.73279977E-16 -2.01037512E-09 -3.56159841E-11  2.85175456E-16 -3.76917044E-16
  1.28031476E-02  4.56537365E-07  8.54121725E-10 -6.71186619E-15  3.32208137E-15
 -2.75166251E-01 -9.81193685E-06 -6.54445490E-15 -3.84817729E-13 -1.68294994E-12
  1.27497352E-13  8.93026826E-16 -2.86116679E-16 -8.94301120E-15 -7.71098216E-15
  1.58881301E-14 -7.30507692E-14  2.36042745E-15  2.64961951E-14 -1.69160554E-13
 -7.06150375E-15 -1.68250970E-16  6.57028618E-17 -2.09842391E-06  5.88482631E-02
  1.18364630E-13  8.03211535E-15  1.27189780E-14  5.32516887E-05 -1.49339196E+00
 -3.76325151E-15  1.13367170E-13  1.79673543E-12 -1.39503067E-13  5.87646435E-16
  1.24395181E-15  4.24223831E-15 -6.73249358E-15 -7.34157466E-15 -1.73255068E-13
  2.05463288E-15 -3.14388091E-14 -6.52084164E-13  5.48744941E-15  8.89430426E-16
 -1.00265625E-15  2.17080325E-06 -6.08780713E-02  1.27261709E-13 -8.40631856E-15
  1.39015225E-14 -5.46770356E-05  1.53336443E+00 -7.12101177E-16  1.87415692E-14
  2.20089449E-14  1.70623183E-14  2.18078846E-15  2.22717679E-15  2.27014837E-15
 -5.83421393E-15 -1.42827756E-14 -4.06276062E-14  4.53625192E-15  9.48596658E-15
  4.86623786E-14  5.27804996E-15  2.74653290E-16  1.22731531E-16 -4.56537365E-07
  1.28031476E-02 -9.38607235E-14 -4.19375280E-15  1.93057192E-15  9.81193685E-06
 -2.75166251E-01 -7.79543608E-02  5.69954358E-01  3.58938124E+01  7.04103829E-01
 -7.37684728E-15 -2.79255328E-15 -5.35392938E-02  1.05014875E-13  4.32616650E-14
  8.14110906E-01  1.29451089E-13 -7.67381568E-14  7.27729333E+00  2.23597713E-02
  5.26919749E-15  5.69669098E-15  4.21429292E-11 -1.84262302E-15  6.88499061E-01
  8.87146570E-14 -7.50555457E-14 -1.04064296E-09  6.95478732E-14 -5.99984272E-02
 -1.55551198E+00 -3.25405011E+01 -4.15954118E-01  9.95049919E-15 -1.18242119E-15
  7.67465636E-02 -9.15033257E-14 -8.55991840E-15 -4.99001630E-03 -1.27714985E-13
  9.28823700E-14  1.15899905E+01 -2.10570714E-02  2.25413991E-15  2.62879060E-16
 -3.38507148E-11  3.91139610E-15  8.61118713E-02  5.27824649E-14  5.90597195E-14
  9.63532067E-10 -8.87874777E-14  4.87011008E-02  6.92207453E-01 -2.88823264E+00
 -2.19447026E-01  9.90536032E-15 -1.49402770E-15  4.41960152E-02 -1.33313232E-13
  4.61111352E-14 -6.57648445E-01  7.67406485E-14 -4.44114716E-14  2.51547126E+00
  5.86688062E-02 -1.36697042E-15 -7.79248320E-15 -4.57893328E-14 -9.52740688E-15
 -1.25325031E+00  9.26008520E-15  3.36711439E-14 -5.32764088E-11  2.40332290E-14
  5.22760328E-16 -3.03273425E-13  1.81508100E-13 -2.49998429E-14  3.28814212E-02
  1.63898273E-15 -2.20872747E-15 -2.90081892E-01 -1.84367651E-14 -1.35625515E-13
  8.58307751E-01  4.43700291E-14  3.01562005E-14 -6.25659316E-15 -2.80040928E-02
 -1.71153360E-15 -6.07552828E-16 -7.47597687E-16 -2.37213567E-14  1.24283184E+00
  4.44600004E-14  1.92838322E-14  1.17839750E-14 -3.62345217E-16  3.07432371E-13
 -1.76296351E-13  2.73358235E-14  4.27088321E-02  1.21793560E-15 -2.81462077E-15
 -6.04100640E-01 -1.07218542E-14 -1.30429217E-13 -9.08137416E-01 -4.98133028E-14
  5.46321550E-14  6.01931887E-15  4.70025230E-02  4.17491738E-16  1.78553437E-16
  2.61737582E-16  3.18412717E-14 -1.08643297E+00 -3.84841883E-14 -2.07419436E-14
 -1.33194717E-14 -1.55914201E-16  5.20254286E-16 -1.26669194E-14 -4.26666925E-15
  9.50810616E-03 -6.25760471E-16 -1.26422804E-15 -3.66938940E-02 -6.19808686E-15
  2.59002510E-14  3.68872726E-01  2.25081364E-14 -5.19586033E-15  5.86678496E-16
  3.17699293E-02  1.11915724E-15 -1.36184595E-16 -4.78650562E-16 -3.87430025E-15
 -7.16568635E-01 -2.78225403E-14  2.96234756E-15 -4.90483420E-16 -4.08098311E-15
 -1.27823329E-12  9.91070920E-12  1.13998347E-13 -9.17127418E-19  3.28814212E-02
 -1.36827266E-14 -3.82424923E-15 -2.90081892E-01 -5.41357262E-13 -1.82261425E-14
  8.58307750E-01  1.92136792E-12 -2.62604876E-14  1.61925772E-16 -2.80040928E-02
  2.53354197E-16  3.13245454E-16 -9.41387714E-14 -4.26121887E-14  1.24283184E+00
 -4.97924785E-15 -1.07111464E-15  1.41084445E-15  1.30373593E-12 -9.37709265E-12
 -1.02495626E-13 -1.45975884E-15  4.27088321E-02 -6.61570282E-15  2.88726150E-14
 -6.04100640E-01 -5.70025568E-13  2.19179499E-14 -9.08137415E-01  3.10802420E-12
  2.60264236E-14 -2.44736902E-15  4.70025230E-02 -2.73983047E-16  5.14725421E-18
  9.66769400E-14  3.62161542E-14 -1.08643297E+00  1.59951826E-15  2.52990199E-15
  4.43017816E-15  1.04005979E-13 -5.86809545E-13 -2.06444989E-15 -1.50999768E-15
  9.50810615E-03 -4.40377003E-15  4.18089789E-15 -3.66938938E-02  7.68349336E-14
 -1.60341395E-14  3.68872726E-01  3.41109136E-13  6.02155665E-15 -1.09742944E-15
  3.17699294E-02  2.62871308E-16  8.33253004E-17 -1.53161082E-13  2.39390282E-14
 -7.16568635E-01 -2.53842678E-16 -6.25082810E-16  9.56346528E-02 -1.10776468E+01
 -1.03371600E+01 -1.54999007E+00  8.02782075E-15  2.89299137E-17 -2.73199484E-02
 -1.30685043E-13 -1.30106961E-15 -4.58537060E+00 -3.65806932E-14 -1.52504864E-13
 -3.72649100E+00 -1.37100049E-01 -7.55020069E-15 -4.02949345E-15 -4.43803324E-12
 -1.30247894E-15 -1.66554305E+00 -6.81080522E-14 -1.10795007E-13  1.16132858E-10
  2.95529856E-14  3.86776765E-02  1.06276847E+01  1.29697790E+01  1.59758195E+00
 -7.45092008E-15  5.30596490E-16 -4.76402311E-02  1.40270561E-13  6.19144382E-14
 -4.45164957E+00  2.71952385E-14  1.59029932E-13  4.31825611E-02  1.32950014E-01
 -4.84855067E-15 -6.26323295E-15  2.17272096E-12  1.08232896E-15  2.45036451E+00
 -3.93220877E-14  4.48483207E-14 -1.00079788E-10 -2.99346000E-14 -4.09083907E-02
  7.88346536E-01 -2.62326668E+00 -3.02097837E-01 -1.38541341E-15 -1.68018835E-16
 -2.61774469E-02  2.32236950E-14  2.46595382E-14  7.18408503E-01 -1.29879561E-14
 -5.20821442E-14  1.68203563E+00  6.44181840E-02  2.63385166E-15 -1.04274793E-16
 -5.05752175E-12  4.23361550E-15 -1.36252799E+00 -4.95545326E-15  5.40980466E-14
  4.02407030E-11  3.85110553E-15 -9.22761200E-02  3.96439143E+00  1.52986827E+00
 -2.88730621E+00 -3.16121929E-15 -4.37466007E-15  1.60820840E-01  5.54645634E-14
  6.45598811E-14 -1.10206665E+00  5.06887359E-14  3.97026094E-14 -8.50542533E-01
 -3.64299801E-02  2.81570634E-15  3.24803301E-15 -5.60255247E-12  2.90936772E-16
 -9.26121234E-01  3.28113244E-14  3.57924373E-14  3.97249288E-11 -4.34367589E-15
 -5.23471863E-02  6.74901550E-01 -4.19257453E+00  3.56864861E+00  2.67524856E-15
  5.44194864E-16 -1.34816511E-01 -5.31064944E-14 -6.54779531E-14  2.33576935E+00
 -4.88557412E-14 -3.96411308E-14  1.94834706E+00 -7.06149862E-02  2.23195947E-15
  3.62261994E-15 -1.08398262E-11 -2.44461977E-16 -1.76099896E+00  3.09809732E-14
  2.52829405E-14  2.47928240E-11  4.29322776E-15  1.48527220E-01 -1.27412233E-01
  3.28969377E-01 -1.00416723E+00  1.32150619E-15 -1.57729146E-15  2.61801479E-02
 -4.80127137E-15 -1.57589073E-15 -5.33639428E-01  6.27456402E-15  4.83528143E-15
  8.24820601E-02 -3.11631251E-02 -1.09409517E-15 -1.96836095E-15 -4.15196612E-12
 -2.93327381E-15  2.28652602E-01  3.83320488E-15 -5.67860308E-15  2.50856112E-11
  2.71024211E-15  1.70698190E-14  4.47061897E-12 -1.44347188E-11 -1.44324647E-13
 -1.06737314E-01 -2.64913932E-15  2.13660206E-14  3.70290548E+00  1.70458920E-13
  2.07428369E-12  1.74518159E+00  8.91056895E-14 -2.82119334E-12  7.68947400E-14
  7.76005921E-02  2.90987288E-15 -3.56685777E-16 -3.30326408E-16  3.34126363E-13
  1.72160724E+00  8.69811573E-14  6.58012721E-15 -1.13274511E-15 -1.09591429E-14
 -4.70160108E-12  1.40801184E-11  1.13216469E-13  1.03834474E-01  5.87641012E-15
  2.54884745E-14 -3.63862588E+00 -1.70334398E-13  2.04039688E-12 -1.72901368E+00
 -9.23070182E-14 -4.21614006E-12 -7.05613811E-14  7.97031519E-02  2.47187975E-16
  1.49592541E-15 -4.58183329E-16 -1.39983431E-13  1.89732881E+00  8.26847426E-14
 -6.78629481E-15  1.59023925E-15 -1.35442258E-14 -1.13905671E-14  4.84389303E-13
  1.55220567E-15 -1.43481678E-02 -4.87530866E-15  9.54355129E-15 -7.59642595E-02
 -8.40588033E-15 -5.20401794E-14  3.59645364E-02  9.42591981E-15 -2.58497865E-13
  8.40494973E-16 -8.22308600E-03 -1.63629161E-15  1.87866527E-15 -1.61235575E-15
  9.88952435E-15  1.87684642E-01  4.13521032E-15 -5.39039552E-16 -7.20932515E-16
 -4.26854997E-14  3.23833602E-12  9.66549808E-12  1.44981084E-13 -6.34813509E-15
  1.06737314E-01  5.17395423E-14  1.57360149E-13 -3.70290548E+00  1.31860362E-12
  3.81560036E-14 -1.74518159E+00  1.95605834E-12  6.92709018E-14  5.39752428E-15
 -7.76005922E-02  9.32314207E-17 -8.88918292E-16  1.44582849E-13  5.62301129E-14
 -1.72160724E+00 -4.36200335E-15 -2.75820067E-15  1.57786967E-14 -2.98337684E-12
 -9.42711056E-12 -9.83327159E-14  5.71397339E-15 -1.03834474E-01  4.96750170E-14
 -1.46595586E-13  3.63862588E+00  1.40737231E-12 -3.77771431E-14  1.72901368E+00
  3.01616521E-12 -7.64940042E-14  5.06999359E-15 -7.97031519E-02 -1.16751854E-15
 -8.69897858E-16 -3.22662099E-13  7.59034003E-14 -1.89732880E+00  4.68540511E-15
  3.22393743E-15  3.44322511E-14  1.50079888E-14 -3.65257214E-13 -3.51831985E-14
  1.16465792E-15  1.43481678E-02  3.33008540E-15 -1.66693631E-15  7.59642595E-02
 -1.75692748E-14 -4.15673935E-15 -3.59645364E-02  2.38947828E-13 -3.08780736E-15
 -5.41705295E-16  8.22308600E-03 -6.44806268E-16  3.17326710E-16 -2.27271680E-14
  1.23773641E-14 -1.87684642E-01 -8.14336029E-16 -2.81104266E-16 -2.61785437E-01
  3.03483404E+01 -3.04328332E+00  1.26500871E+00  3.58644669E-15 -1.29129141E-14
  3.43446540E-01 -6.45511483E-13  4.62952420E-13  1.31956991E+01 -4.22563189E-13
  4.30404479E-13  3.23965907E-01  5.54011125E-01 -6.78465275E-15  3.17998127E-14
 -1.30460054E-11  1.85015934E-15  2.15523573E+00 -3.16511582E-13  3.14974314E-13
 -5.29841945E-12 -3.27166011E-14  1.31582251E-01 -3.02797773E+01  2.60911947E+00
 -1.29167301E+00 -1.76779829E-14 -1.22320370E-14  3.57785434E-01  6.24004886E-13
 -4.90988156E-13  1.32606904E+01  4.29701553E-13 -4.42956184E-13 -7.69113352E-01
 -5.69498984E-01 -1.20436933E-14  2.04716822E-14  1.33199365E-11 -3.19018564E-15
 -2.15641816E+00 -3.77477262E-13  2.20615616E-13 -1.00614877E-11  3.66416919E-14
  1.93144555E-01 -2.32406747E-01  5.22871357E-01  7.63031636E-02  6.46473566E-15
 -2.74513057E-14  2.79020241E-02  5.15511934E-15 -4.13551585E-14 -2.62334776E-01
 -9.74633249E-15  7.62237541E-14 -1.64640080E-01 -1.70523453E-02 -1.28736821E-14
  1.07506401E-14  2.75073621E-12 -5.83043660E-15  1.51281198E-01 -2.42843725E-14
 -2.79977615E-14  2.57923111E-12 -5.48840393E-15 -5.53275038E-01 -2.17706658E+00
 -2.28714984E+01 -2.30922528E-01  6.69623177E-15  3.51893354E-15  3.97339769E-01
  1.45790541E-13  6.97697018E-14 -1.91771210E+00  7.38538296E-14  2.40193656E-14
 -5.62996121E+00  3.09722049E-01 -1.82280750E-14 -9.78602522E-15 -1.98107430E-12
 -1.96968719E-15 -8.27764807E-01  7.70157644E-14  2.92940097E-14 -4.34405031E-11
  4.10974252E-15  4.65988734E-01  2.18434174E+00  2.36875360E+01  2.60919442E-01
 -1.55775237E-14  3.05525405E-15  4.45223535E-01 -1.37283337E-13 -6.47310234E-14
 -1.78662558E+00 -9.01585992E-14 -2.57813921E-14 -4.37938592E+00 -3.20904851E-01
 -8.14243881E-16 -7.18647245E-15  9.35387711E-12 -2.14256978E-15  7.97404026E-01
  8.01050325E-14  4.44495109E-14 -3.64165633E-12  2.64446494E-15 -8.33429419E-01
  1.30162126E+00 -1.25857558E+00  1.14589012E-01 -5.47468623E-15 -6.51285903E-15
 -2.70810461E-03  1.29660371E-14 -1.14278949E-15  7.00357281E-02 -7.55955129E-16
 -3.16706600E-15  5.33786263E-01  1.51400171E-02  2.89978648E-15  2.21383532E-14
 -1.73997413E-11  2.49948404E-14 -2.42425808E-01  9.03219860E-16  2.01989486E-15
 -8.53838227E-12 -8.67725156E-15  2.94354492E-02 -6.96660012E+00 -3.25375799E+01
  5.83238468E-01  1.17337051E-14  7.56852542E-15  1.59195307E-01  1.60166011E-13
  3.89472069E-14 -3.46584875E+00  8.83932527E-14 -9.26812921E-15 -6.84934097E+00
  1.82487162E-01 -2.69680902E-14 -1.82823693E-14  1.53580075E-11 -2.94275971E-15
 -8.91555333E-01  8.65727264E-14  8.94518948E-15 -2.94009235E-11  4.15700764E-15
  5.45833979E-01  6.05362750E+00  3.20004083E+01 -7.55460744E-01 -2.59552964E-14
  1.03012960E-14  2.09577432E-01 -1.43425542E-13 -3.78724506E-14 -3.21768976E+00
 -1.16139275E-13  1.06934464E-14 -9.35393429E+00 -2.07873643E-02  3.77778245E-15
 -1.57651530E-14  1.62264969E-11  6.17714741E-16  9.33624654E-01  9.02410765E-14
  3.37060326E-14 -7.04143301E-12  2.50852492E-15  1.26050233E+00 -1.92809452E+00
  2.06153811E+00  5.61318450E-02 -5.57813881E-15 -2.98780690E-15  4.52424216E-03
  2.05927514E-14  1.99862536E-15  1.33363319E-01 -3.64460395E-16 -1.38392323E-14
 -7.52347011E-01  9.08705253E-02  7.78103177E-15  3.60040574E-14  3.37716258E-11
  4.78242710E-14  9.79161691E-02 -3.72621251E-15  3.76219548E-15 -6.83191302E-12
 -1.69444965E-14  9.12963443E-01  6.25384279E+00  2.07664593E+01  9.38760581E-01
 -1.08690784E-14 -1.42648564E-14 -1.59597860E-01 -4.73024232E-14 -6.63538670E-16
  1.91141038E+00 -3.57997398E-14  1.10345101E-14  3.72830458E+00  2.54614020E-01
  3.28085463E-14  1.92996304E-14  4.65162447E-11  8.29639655E-16 -1.54582348E-01
 -3.39673629E-14  3.69171164E-16 -2.45996266E-11 -3.85077945E-15  7.30406665E-01
 -5.61881628E+00 -2.11024731E+01 -1.04131546E+00  2.79890551E-14 -1.40188521E-14
  6.18824754E-02  2.98401184E-14  1.09941533E-14  3.63725462E+00  5.56906265E-14
 -1.43915584E-14  6.31220435E+00  2.83850320E-01  5.48301393E-16  1.81413670E-14
  4.95558339E-11  1.13342000E-15 -1.93021895E+00 -3.10885364E-14 -1.52052659E-14
 -3.55729128E-12  3.63050440E-16 -4.53418273E-01  5.60601720E-01 -4.90561954E-01
  3.39404062E-01  5.17954882E-15 -2.23996298E-16 -1.43548788E-01 -1.49878130E-14
 -4.85161346E-16 -1.14903506E-01  1.13386128E-15  9.31082888E-15 -7.13847241E-02
 -5.42612276E-02 -1.02635116E-14 -3.15753487E-14 -1.28437696E-11 -4.60179248E-14
  3.41722823E-01  5.80113886E-15  1.42442301E-15 -5.32641426E-12  1.80466567E-14
  6.25869743E-11  6.28777564E-11  1.71895261E-10 -7.12381472E-13 -5.22135116E-14
 -8.30587936E-16 -2.23257665E-11  4.20610819E-14  3.51648717E-15  4.39704851E-11
 -2.99795807E-15  1.48647981E-15  2.85030265E-11  2.19810263E-11 -3.10752433E-14
 -2.26875352E-15 -6.84265028E-01 -1.53137706E-04 -1.50034253E-11  1.73638178E-14
  1.77539914E-15  2.35508294E-01  5.27064783E-05  6.21235394E-11 -1.97800200E-10
 -9.94045527E-11 -3.06567003E-11 -5.38527189E-14 -3.86973656E-15  2.24670905E-11
  3.32523535E-14  5.21137920E-16  7.05085803E-11 -2.33438720E-14 -3.28400476E-15
  1.77208077E-11  2.34661167E-11  2.98642518E-14  2.67975552E-15 -6.84740785E-01
 -1.53244180E-04 -5.56242683E-11 -9.51990045E-15  6.11634777E-16  2.35632766E-01
  5.27343351E-05 -2.36914362E-12 -3.40825616E-12  2.20612216E-11  8.46149888E-12
  2.91335116E-15  4.90986697E-15 -1.69567115E-11 -3.26574697E-15 -3.78789947E-15
  6.71523880E-12  6.05168071E-15  1.69987555E-15 -2.31742196E-11  2.63432534E-12
 -2.50742582E-14  5.99799725E-16 -6.43637816E-02 -1.44045384E-05  1.43044265E-11
  5.85860268E-15 -5.83479460E-16  6.91547790E-03  1.54767580E-06 -1.13995334E-14
 -2.91270229E-14 -4.89617927E-14 -4.62337392E-15  4.35438724E-14  6.96813634E-14
  6.02290514E-15 -2.38911423E-14 -4.29946989E-14 -1.98210082E-14  2.53117383E-15
  1.53489251E-14 -1.32105557E-14 -3.99690702E-15  2.74420123E-14  3.49109945E-14
  1.53137706E-04 -6.84265028E-01 -1.33615846E-15 -1.40655066E-14 -1.49341884E-14
 -5.27064783E-05  2.35508294E-01 -1.62227383E-14  6.83945679E-14  2.64207310E-14
  1.29562481E-14  4.51230631E-14  7.49233253E-14 -8.79954780E-15 -3.66000788E-14
 -5.84294432E-14 -1.67461617E-14  2.12996231E-14  1.96968062E-14 -5.12965258E-15
 -7.18212855E-15 -1.90044036E-14 -4.14348159E-14  1.53244180E-04 -6.84740785E-01
  1.19544347E-14  1.49391064E-14  2.22147957E-14 -5.27343351E-05  2.35632766E-01
  3.85054143E-15 -4.34892660E-15 -1.76703285E-15 -2.06918663E-15 -4.51014929E-16
  3.09495582E-15  5.83220392E-15  1.87609629E-15 -1.73198817E-15 -2.25201645E-15
 -7.41027046E-15 -6.08447978E-15  4.75452132E-15  1.29335464E-15  7.59133683E-15
  2.42819807E-14  1.44045384E-05 -6.43637816E-02 -3.44178888E-15  2.53447063E-15
 -3.45475830E-15 -1.54767580E-06  6.91547790E-03 -4.97789031E-14 -2.47767883E-13
 -8.76414004E-12 -1.39715498E-13  6.35359944E-01  3.72951548E-14  6.10604341E-15
 -4.67009256E-01 -2.17998192E-14 -9.08457757E-14  2.72646199E-02  3.17340611E-15
 -1.80139563E-12  8.12732192E-15  3.23662358E-01  1.52469977E-14 -6.79052455E-14
  4.62462231E-14 -1.29281412E-14 -2.09690912E-01 -8.80935288E-15  2.47391325E-14
 -1.55022338E-14  5.65546719E-15  1.10402155E-13  8.62536769E-12  1.31622358E-13
  6.23369842E-01  4.04883452E-14  1.38906792E-14 -4.04611913E-01 -3.02168946E-14
 -1.63245684E-13  2.98400117E-01  1.55267240E-14 -2.50415768E-12 -1.14797565E-14
 -3.51143440E-01 -1.49200619E-14 -5.42596739E-14  5.07603178E-14  1.55725338E-13
  1.64618925E-01  9.70543172E-15  1.80446716E-14 -1.85377867E-14  3.07673777E-14
 -6.49913234E-14  2.69199961E-13 -1.66263684E-14  1.38984765E-02  2.83538212E-15
  9.77126580E-15  3.37700644E-03 -2.37451452E-15 -6.38279651E-15 -7.93196775E-02
 -2.95110798E-15 -1.22830377E-13  4.04000817E-14  1.07813015E-01  5.00637986E-15
  7.95987761E-16 -7.04238479E-15 -1.86686960E-14  1.67591854E-02  1.38212196E-15
 -1.74931452E-15  3.38788675E-15 -8.66211666E-15 -3.89827283E-13 -3.12019966E-12
 -5.07021872E-14  4.06014295E-14 -6.35359944E-01  1.11470805E-14 -1.42430553E-14
  4.67009256E-01 -1.68527500E-13  1.69330968E-14 -2.72646199E-02 -6.50466351E-13
  5.94832871E-16  1.60106396E-14 -3.23662358E-01  4.05025183E-15 -8.03744065E-14
 -3.36256600E-14 -1.49584347E-15  2.09690912E-01 -8.27219512E-16  2.60854066E-14
 -4.26661999E-15  3.38885067E-13  3.08617517E-12  5.12407287E-14  3.29465257E-14
 -6.23369842E-01 -1.11394999E-14 -3.64688711E-14  4.04611913E-01 -1.71582588E-13
  2.54680122E-15 -2.98400117E-01 -8.84775584E-13 -1.19075737E-14 -2.19748183E-14
  3.51143440E-01  1.95244306E-15 -7.94040523E-14  9.01811331E-14  2.06462135E-14
 -1.64618925E-01 -1.46450538E-15  2.93701434E-14  1.54736780E-14 -2.63565640E-14
  8.22106532E-14 -5.83814833E-15 -1.54771185E-15 -1.38984765E-02  1.38330266E-14
  1.51910385E-15 -3.37700644E-03 -6.95579435E-15 -5.50858392E-15  7.93196775E-02
 -2.67920891E-14  1.66059105E-14 -4.80184146E-15 -1.07813015E-01  8.65378304E-15
  1.10062793E-15 -1.67670824E-14  5.11742025E-15 -1.67591854E-02 -2.65196557E-15
 -3.53787662E-15  5.09864530E-13  6.90818963E-11  2.91944401E-09 -5.77620382E-11
 -4.59925108E-15  1.04187828E-14 -2.37188920E-11 -5.55261256E-15 -3.65596940E-15
  7.75789972E-11 -7.21237007E-15 -1.13836437E-14  5.20053087E-10 -2.94875582E-12
 -1.02165097E-15  6.27853221E-15 -7.88276974E-02 -3.35121985E-04  2.98939956E-12
 -4.66603496E-15 -8.05597655E-15 -5.57073847E-03 -2.36830073E-05 -3.76530636E-12
 -8.70004890E-11 -2.63195337E-09  6.66207283E-11 -4.25606643E-15  6.01762119E-15
  2.52652188E-11  1.21321580E-14 -4.60011501E-15  1.32275238E-11  5.57134609E-15
  1.93248742E-14  1.03820420E-09  9.49368811E-12  1.51350656E-15 -1.56338234E-15
 -9.98839459E-03 -4.24638894E-05  1.21962781E-11 -4.59003723E-15  7.35291969E-15
  5.26822848E-02  2.23969397E-04 -7.41365125E-11  1.97843293E-10 -3.63261922E-10
 -2.10304106E-11 -6.21969157E-15 -3.83036605E-15 -2.45062926E-13  4.96375449E-15
  4.32830186E-15 -8.57079064E-12 -2.01040814E-15 -6.90623022E-15  2.03433931E-10
  1.25299128E-10 -6.92565359E-15 -4.62683113E-14  1.10077185E+00  4.67973644E-03
 -1.02592769E-10  2.50454492E-15  2.18388668E-14 -4.09475109E-01 -1.74081086E-03
 -5.41668595E-14 -3.67777162E-13 -3.38468875E-12 -5.61205311E-13 -2.85911620E-14
 -2.24797232E-15 -1.16285224E-13  1.99980115E-14 -3.82115539E-16  1.43390738E-13
  2.01741370E-14  2.40716382E-15 -1.07884812E-12  3.06007107E-14  8.38786345E-15
 -2.17617493E-15 -3.35121985E-04  7.88276974E-02 -2.68827469E-14  1.25103211E-14
  2.12751442E-16 -2.36830073E-05  5.57073847E-03 -3.49343620E-14 -1.30146633E-14
  4.47863945E-12  5.80659484E-13 -1.72866153E-14 -7.51712073E-15  1.46539896E-13
  3.44298300E-15  6.77818614E-15 -3.23879322E-13 -3.98455050E-14 -4.90146310E-15
 -3.23489441E-14  7.53495080E-15  1.25804043E-14  3.15581086E-15 -4.24638894E-05
  9.98839459E-03  3.85738210E-13 -1.65285229E-14 -1.18793912E-15  2.23969397E-04
 -5.26822848E-02 -2.77166810E-13  7.74830171E-13 -1.15684149E-12 -1.30341831E-13
 -6.78461428E-15  2.32142715E-14  7.22926523E-14  2.08445775E-15 -1.74894978E-14
 -9.07378480E-14  1.16414938E-14  6.44491999E-15  7.27281266E-13  7.03662876E-13
  1.36036695E-13 -5.03209520E-15  4.67973644E-03 -1.10077185E+00 -5.39007794E-13
 -6.11730044E-14  7.04156771E-16 -1.74081086E-03  4.09475109E-01 -1.30191671E-14
  3.38556688E-13  6.87779331E-13  7.61954530E-14 -1.47991281E-01  2.77962738E-14
  1.58681567E-15  1.08360946E-01 -9.63819807E-15  1.39898147E-13  1.83385581E-01
 -4.32974946E-14  1.71399909E-13 -8.86297831E-15  8.18806063E-02 -1.93200266E-14
 -1.90140036E-14 -1.18697786E-14  3.80397568E-14  1.00714803E-01 -1.96401223E-14
  7.46437418E-15 -9.94916538E-16  1.43705020E-14 -3.34090826E-13 -7.01705054E-13
 -9.13392700E-14 -9.88969652E-02  1.91558785E-14  7.24143095E-15 -1.09092667E-02
 -4.39340299E-15  1.35806547E-13 -3.09616103E-01  7.02976239E-14  1.68016233E-13
  1.42462473E-14  6.00531817E-02 -7.05598563E-15 -2.67492669E-15  1.38892450E-15
 -4.85077257E-14 -1.24789818E-01  3.28152240E-14 -3.87230222E-16  5.84412981E-15
 -2.92380740E-15 -2.09889055E-15  8.58903141E-15  1.91317332E-14 -1.42798529E-01
  4.65767935E-14 -2.22749764E-14  7.26699477E-02 -2.70657463E-14  1.35140385E-14
  7.44939202E-02 -1.41883399E-14 -2.01519301E-14 -2.03133625E-14  1.09836530E+00
 -2.72620651E-13  3.45880269E-15  1.38619234E-13  1.92767681E-14 -4.92988612E-01
  1.21343025E-13 -8.96515123E-16 -5.20107816E-14  8.73690200E-14  1.79123067E-13
  1.25493764E-11  2.18802750E-13 -3.28369140E-14 -1.47991281E-01  2.69953747E-14
  1.71262703E-14  1.08360946E-01 -2.45271241E-14  4.97408124E-14  1.83385581E-01
  2.60788895E-12 -1.17339285E-14  1.48537312E-14  8.18806063E-02  2.37866184E-15
  1.43011537E-14 -1.93429911E-14  2.31717993E-14  1.00714803E-01 -3.95436350E-15
 -6.06466459E-15 -1.33302822E-14  1.08509744E-13 -1.25312468E-11 -1.96189886E-13
 -2.49955382E-14 -9.88969652E-02 -5.37483881E-14  4.84323339E-15 -1.09092667E-02
  1.95921146E-13 -7.96116909E-14 -3.09616103E-01  3.47722275E-12 -5.96154389E-15
  8.87317797E-15  6.00531817E-02 -5.37029467E-15  1.55070549E-15 -2.55772129E-13
 -3.09790510E-14 -1.24789818E-01  5.38377660E-15  3.14331376E-16 -1.75500294E-14
  1.63131686E-14 -2.45021303E-13  3.24394246E-14 -4.81187329E-14 -1.42798529E-01
 -4.00274394E-14  2.61060902E-14  7.26699477E-02  3.84860411E-14  1.63909982E-14
  7.44939202E-02  6.34808576E-14 -2.05900071E-13  2.70352265E-13  1.09836530E+00
  4.66527355E-14 -5.51818291E-15  1.27267092E-13 -1.21539500E-13 -4.92988612E-01
 -1.73070963E-14  2.33954146E-15 -9.62650619E-02  1.45173327E-02  1.47708869E+01
 -4.15939716E-01 -7.85367533E-14 -3.20149967E-14 -3.81832591E-01  1.78032936E-13
  6.49219702E-14  9.08649642E-01  6.21736678E-14  7.77521433E-14  2.81899027E+00
  3.37545154E-02  4.36796715E-14  3.49595367E-14  1.12226717E-11 -2.10347958E-14
  2.61394375E-01  5.07181574E-14  3.65680207E-14  1.03802944E-11  4.32343659E-15
 -1.28243026E-01 -6.78431342E-01 -1.29630630E+01  4.43362368E-01 -5.13709704E-15
 -1.51843245E-14  4.01305114E-01 -1.17339961E-13 -4.40597166E-14 -4.60671380E-01
 -8.44144453E-14 -1.12957061E-13  5.00778186E+00  1.10996935E-01  4.23149930E-14
  2.34789707E-14  7.74528049E-12  8.32019920E-15  3.53083749E-01  5.23134947E-14
 -4.67106676E-15 -6.72561674E-12 -2.75730473E-16 -1.37845938E-01  5.07741694E-01
 -1.45577493E+00 -2.40946552E-01  3.14507943E-13  2.14455962E-13  3.03627897E-01
 -2.37746201E-13 -1.61327665E-13 -2.46897763E-01  8.56128671E-14  8.11295544E-14
  1.15143919E+00  1.00359620E+00  3.83975032E-14  2.24335664E-13 -1.19999201E-10
  1.68749621E-13 -7.39888743E-01 -1.51487707E-14 -1.05924528E-13  5.27285221E-11
 -6.17834640E-14  4.48729101E-14  2.95729183E-13 -2.78016277E-12  1.67536838E-13
  5.24238794E-02 -3.53323607E-15  1.33285980E-13 -4.21216057E-02  1.13268382E-14
 -1.90357859E-13  2.22715959E-01  1.88037332E-14 -5.32579867E-13 -1.42057444E-14
 -8.34239991E-02  5.46742491E-16 -3.87999090E-15  9.69505937E-15 -7.62286587E-14
  6.74450964E-02  8.98607269E-15  1.91117072E-15 -1.06801038E-15  4.43966867E-14
 -3.31544172E-14  2.30178951E-12 -1.62968787E-13 -3.56953718E-02 -9.14691643E-15
 -1.33490933E-13  4.81153221E-02 -3.03026160E-15  3.07573039E-13 -2.93716723E-01
 -2.58498749E-14 -9.46532321E-13 -3.86819218E-14 -1.70975702E-02 -2.39746886E-15
  5.93300616E-15 -1.29797262E-14 -1.62033586E-13  1.23627652E-02  4.31078677E-15
 -2.26883544E-15  1.14989147E-15  1.83029788E-14 -9.75228058E-14  3.18081291E-13
  6.54407246E-14  1.31305888E+00  4.87152655E-14 -5.79577647E-14 -9.64613023E-01
 -3.51953207E-14  4.01324769E-14  3.70018018E-01  1.63099270E-14 -2.60255789E-13
 -2.14848016E-13  1.38976216E-01  1.54942486E-14  6.08394155E-15  1.00115537E-14
  1.70812909E-13 -8.80367835E-02 -7.95936331E-15 -1.94341316E-15 -3.82295577E-15
  3.98575612E-14 -1.23687749E-13  4.86658391E-12 -8.78545077E-14 -4.96800684E-15
 -5.24238794E-02 -8.13405216E-14  5.42001868E-14  4.21216057E-02  1.35178315E-13
 -4.21897378E-15 -2.22715959E-01  9.46131369E-13  4.47538758E-14  1.92406597E-14
  8.34239991E-02 -6.75139741E-15  1.00794232E-15  2.00274726E-14  1.23501066E-14
 -6.74450964E-02  3.54186773E-15 -1.82985200E-15 -6.35277572E-14  3.91133635E-14
 -4.50492530E-12  1.05208088E-13  2.60488933E-14  3.56953718E-02  6.04271459E-14
 -6.32296685E-14 -4.81153221E-02 -9.15455995E-14  4.15059894E-15  2.93716723E-01
  1.52176762E-12 -1.61781757E-14  3.78644868E-14  1.70975702E-02  1.50721141E-15
 -2.91707047E-15  4.83424670E-14  7.84753042E-15 -1.23627652E-02 -2.60335446E-15
  6.32307311E-16 -2.81867341E-14  1.01352079E-13 -3.25540616E-13 -5.34014824E-14
  4.90865972E-14 -1.31305888E+00  1.22126831E-13 -3.75821443E-14  9.64613023E-01
 -9.22689816E-14  1.16388144E-14 -3.70018018E-01  2.58207454E-13  1.70597725E-13
  1.41631128E-14 -1.38976216E-01 -9.43099999E-15 -1.98027897E-14 -1.30438241E-13
 -4.83932691E-15  8.80367835E-02  3.46076137E-15  6.41966932E-15  1.36804948E-01
 -1.57922598E+00  3.10073303E+00  3.20422946E-01 -1.06160062E-15  1.57589115E-15
  5.78593470E-01 -3.38678357E-14 -1.81275808E-14 -1.82430218E+00  8.18027510E-15
 -1.77609056E-14  9.38886210E-02 -2.50470140E-01 -3.22607234E-14  1.64601594E-15
 -1.96320778E-12  6.76060609E-15 -6.53548529E-01  4.48592435E-16 -7.52781031E-15
 -1.08528221E-11 -2.74449577E-15  1.63019200E-01  2.52745656E+00 -2.93947614E+00
 -2.38779140E-01 -1.89524379E-15  8.89776036E-15 -5.57808036E-01  3.55322642E-14
  8.70668530E-15  1.06031083E-01 -7.14637730E-15  2.01009956E-14  1.94750724E+00
 -1.45413174E-01 -1.87774988E-14  3.81807493E-15  9.38925248E-13 -6.26726973E-15
  6.06893981E-02 -8.68582345E-15 -1.72533915E-14 -2.57952265E-12  2.06667911E-15
 -9.52673798E-02  3.48929851E-01 -9.17873917E-01  1.13552277E-01 -4.05930487E-14
 -5.94575951E-14 -8.69802393E-01  2.99315193E-14  4.35163794E-14  6.36722976E-01
 -9.32574012E-15 -1.40359762E-14  3.64854091E-01  5.56218288E-01 -5.92305582E-15
  3.98288399E-14 -3.83343300E-11  1.56994591E-14 -4.78372336E-01  1.19577955E-15
 -1.80640432E-14  1.28753238E-11 -5.09874966E-15 -3.03621086E-01 -4.98563411E+00
 -4.18801482E+00  4.39127838E-02  9.20005327E-14  7.75022840E-14 -6.80381734E-01
 -3.67495283E-13 -1.13482205E-13 -6.01229678E-02 -5.71172390E-14 -3.00674368E-15
 -4.36629333E-01  1.45437742E-01 -1.33224301E-13 -1.08723286E-13  7.11936764E-11
  3.11140650E-14  3.18987218E-01 -9.72253947E-14  2.86859785E-14 -1.95308855E-11
 -1.15082152E-14 -3.30900100E-01  2.72686387E+00  5.74228535E+00 -4.99010267E-01
 -6.68964291E-14  6.75071815E-14  6.31712693E-01  3.50073545E-13  1.67956414E-14
 -3.24975036E+00  5.31181441E-14  2.06719198E-14 -1.81339653E+00  5.07860865E-02
 -1.11993749E-13  4.58897461E-14 -5.60135152E-11 -3.23387325E-14  1.63428388E+00
 -1.15371806E-13 -6.58965852E-14  2.85678248E-11  1.16787341E-14  1.67067733E-01
 -1.90759449E-01 -9.74326793E-02  1.74658366E-01  4.06770482E-14 -4.84059893E-14
 -1.00819299E+00 -2.46337462E-14  3.62340903E-14  1.00122228E+00  1.14231255E-14
 -8.66710108E-15 -1.79454306E-01 -1.43092253E-01  2.70209189E-15 -6.62734267E-15
  3.25652997E-12 -3.42251794E-14 -1.74138519E-01 -1.47027361E-14 -4.19815951E-15
  2.37324666E-12  1.27096726E-14 -3.86473964E-11 -1.42997917E-09  1.01382257E-10
 -7.38613498E-11  6.26181686E-14  2.95368763E-14 -5.99621989E-11  2.42668281E-14
 -7.65757502E-14 -4.62959146E-10  3.78977288E-14 -8.60132634E-15  3.16879683E-11
 -3.26594612E-11 -4.96875275E-14 -3.26622544E-14 -9.34451831E-01  7.91377250E-05
 -5.09362711E-11  7.53447454E-14 -1.00031982E-14  5.06368708E-01 -4.28838237E-05
 -6.30246816E-12  1.26692578E-09  7.22894923E-12  4.00827768E-11  9.96648160E-14
  1.63239314E-15  3.18558821E-11 -1.34809225E-13  5.41439787E-14 -6.90808533E-10
 -1.68251450E-14  1.11157143E-14 -7.67853659E-11  4.44004225E-11  1.06779159E-13
  1.58547496E-16  9.38174731E-01 -7.94530134E-05  1.91838485E-10 -2.74871380E-14
 -3.48653669E-14 -5.09765979E-01  4.31715349E-05  1.95142934E-11 -3.28975639E-11
  1.48594291E-11 -2.34712966E-12 -1.12692929E-14  1.65773271E-15 -6.90424101E-11
  8.86896329E-15 -8.25370441E-16  7.58646553E-11  3.99206043E-15  3.24968829E-15
 -2.28613168E-11 -1.53659896E-11 -8.40426180E-16  1.20428456E-14 -5.21790599E-02
  4.41898871E-06 -1.12705133E-11 -8.57398867E-15 -9.80034994E-15  4.60837032E-02
 -3.90277948E-06 -1.93613843E-14 -3.65848722E-13 -6.58929697E-13 -2.40013914E-14
 -2.19596136E-14 -2.37416302E-14 -1.75122134E-14  1.28827894E-13 -9.19803886E-14
 -9.58811163E-14  2.46069728E-14 -2.84293870E-14 -1.31811910E-13 -4.25005571E-15
  3.81727186E-14  5.71288032E-15 -7.91377250E-05 -9.34451831E-01 -6.94848357E-15
  4.19527290E-14 -6.54070622E-14  4.28838237E-05  5.06368708E-01 -7.16663788E-15
  2.88422477E-13  7.04949649E-13  9.96190761E-15  2.66883915E-14 -8.20428333E-14
  1.65583377E-14 -1.32216061E-13  1.64290189E-13 -1.99012385E-13 -2.24420989E-14
  1.20946514E-14 -2.02644077E-13  6.57937027E-15  4.62489416E-14 -8.60155803E-14
  7.94530134E-05  9.38174731E-01  8.07518708E-14  4.04081091E-14 -9.76096069E-15
 -4.31715349E-05 -5.09765979E-01  7.98565335E-15 -1.12578490E-14  8.25157262E-15
  2.19902782E-15  2.20004321E-14 -2.77146909E-15 -4.96483609E-14 -1.65911483E-14
  2.28011208E-15  4.76561438E-14  3.84932130E-15 -1.29225392E-15 -1.46688274E-14
 -1.26558099E-14 -4.54727270E-15  3.03607108E-15 -4.41898872E-06 -5.21790599E-02
 -5.35151315E-15  5.54363226E-15  6.54097874E-17  3.90277948E-06  4.60837032E-02
 -3.29968896E-14 -3.11289655E-13  5.23388755E-13  6.83844199E-15  4.61312007E-01
  1.54252485E-13 -2.19777573E-14  5.32881371E-01  2.41708036E-13 -8.20929054E-14
  3.84119914E-01  1.56192792E-13  1.13374022E-13 -2.00030431E-14 -2.24933181E-01
 -7.16830296E-14  1.19819607E-13  1.87830612E-14  8.49637731E-15  6.60660984E-01
  2.55950738E-13 -6.33178807E-14 -7.28623734E-15  8.19770696E-15  2.47065576E-13
 -4.46031882E-13 -2.00603592E-14  8.37879358E-01  3.09091711E-13  2.82638359E-14
 -1.41788456E+00 -5.57363497E-13 -1.96084909E-13 -2.03861832E-01 -9.36938339E-14
  1.49710046E-13  3.30199726E-14  9.19129958E-01  3.40324043E-13 -1.19477610E-13
 -1.57775281E-14  4.54750866E-14 -6.43083176E-02 -4.47963003E-15  6.32460725E-14
  7.44915785E-15 -2.07056482E-16  6.58059776E-15 -3.87179321E-14  4.27234348E-15
 -3.04218645E-02  2.43203956E-14 -2.73218204E-14  1.80894137E-02 -1.98292139E-14
  2.75571422E-14  3.85490940E-02  2.48285485E-14  1.52921541E-14  1.46237137E-15
  8.00437594E-02  3.23816071E-14  8.03125010E-15  1.56705489E-15 -8.03312235E-15
 -8.57029365E-02 -3.06253316E-14 -6.46130914E-15 -1.65376871E-15 -3.06229283E-14
  1.53744612E-13  7.59401675E-13  4.35541551E-14 -1.14831934E-13  4.61312007E-01
  6.87089744E-14 -4.19521092E-13  5.32881371E-01 -1.83149731E-13 -1.65786357E-13
  3.84119914E-01  1.42281089E-13 -7.75534366E-14 -1.62940469E-14 -2.24933180E-01
  1.76489816E-14 -7.95153131E-14 -2.05581143E-14 -2.87523663E-13  6.60660984E-01
 -8.82805907E-15  4.35737997E-14  8.33175759E-14  7.71073288E-14 -9.41853634E-13
 -2.66925319E-15 -3.32954516E-13  8.37879358E-01 -4.64562705E-14  7.24023938E-13
 -1.41788456E+00  1.13169804E-13  9.86105035E-14 -2.03861832E-01  2.42397624E-13
  6.98642505E-14 -3.93615163E-13  9.19129958E-01 -1.65000516E-14  8.22342678E-14
 -1.78788243E-13 -5.72653139E-14 -6.43083175E-02  8.60056289E-15 -4.37711954E-14
 -1.48598098E-14  7.55310268E-15  3.55786728E-14 -8.25355121E-15  9.64760111E-15
 -3.04218645E-02  1.08834592E-13 -4.20864274E-15  1.80894137E-02 -1.07153472E-13
 -8.80767014E-15  3.85490940E-02 -2.29609012E-15  4.86077648E-15 -2.08630201E-14
  8.00437594E-02  2.90349083E-15 -5.83903394E-15  3.54146986E-14  1.69437843E-14
 -8.57029365E-02 -1.30089438E-15  5.00844494E-15  1.66111155E-14 -2.11382626E-13
  1.82791978E-11  1.92141666E-13  7.56154945E-01 -1.34876695E-13  5.99836219E-14
 -3.12100418E+00  3.41937393E-13 -3.62361962E-13 -5.05287109E-01  2.06095216E-14
  3.68215524E-12 -1.60056560E-13 -1.19553429E+00  1.70699110E-13  1.39372203E-14
 -3.93604625E-14 -3.37824633E-14 -7.46111394E-01  3.26466503E-14 -7.17800133E-15
  2.01818497E-14  1.00688513E-13  6.60055997E-13 -1.80066391E-11 -9.70093250E-14
 -3.26889851E-01 -1.66116149E-14 -3.40538755E-15  2.79893377E+00 -2.35083350E-13
 -4.02646318E-14  5.36587699E-01 -3.38762052E-14  5.39894551E-12  1.38791851E-13
 -7.73505198E-01  2.06415387E-14 -1.11658303E-14  3.38994486E-14 -3.75646038E-13
 -1.11605144E+00  1.45707388E-13  6.13738236E-15 -1.83054354E-14 -6.23282937E-14
  1.48491097E-13 -6.19122042E-13 -4.60459104E-14 -1.26258039E-01 -1.43830079E-14
  1.50555829E-13  1.11867517E-01  9.01234733E-15 -1.43129431E-13  1.42145537E-02
 -1.72731051E-14  3.88479094E-13  6.33392785E-14  1.14946744E-01 -3.17556120E-14
  2.19284521E-15 -6.74808695E-15 -2.24623312E-14 -1.71790771E-01  3.64373856E-14
 -1.07029167E-15  4.08787052E-15 -2.98027547E-14 -6.81027247E-14 -9.69556871E-12
 -7.21593724E-14 -1.02189672E-13 -7.56154945E-01 -3.79992445E-14  4.21361806E-13
  3.12100418E+00  1.29958329E-13  7.85082027E-14  5.05287109E-01 -1.93419584E-12
  6.77293099E-14  1.67404629E-13  1.19553429E+00 -2.57541565E-14 -1.61138394E-14
  2.79851059E-14  1.01571556E-13  7.46111394E-01  1.38121553E-14  8.30308996E-15
 -4.33385370E-14 -2.05522188E-13  9.57585940E-12  1.96612445E-14  2.89208152E-14
  3.26889851E-01  1.50500739E-14 -3.69946191E-13 -2.79893377E+00 -9.02985120E-14
 -8.31980546E-14 -5.36587699E-01 -2.87278356E-12 -4.98336873E-14  9.59803846E-14
  7.73505198E-01  2.35780495E-14  1.58550380E-14  2.20292863E-13  1.56891396E-13
  1.11605144E+00 -1.33820236E-14 -8.42870803E-15  3.45247275E-14 -7.74954649E-14
  3.21129438E-13  2.66590718E-14  1.65483655E-14  1.26258039E-01 -6.82020406E-14
 -1.57064553E-14 -1.11867517E-01  6.67738396E-14 -1.27188885E-15 -1.42145537E-02
 -1.94242264E-13 -2.67190128E-14 -2.18459225E-14 -1.14946744E-01 -5.15660413E-15
 -6.96319367E-16  6.01846686E-15  2.58151241E-14  1.71790771E-01  2.84972932E-15
  7.17803238E-16 -7.36918546E-01 -2.37651668E+01 -1.44610709E+01 -6.63322932E-01
 -2.66800321E-14 -2.82481750E-13  1.20079370E-01  5.59493426E-13  1.46659307E-13
 -1.08312384E+01  1.51807752E-13 -7.92218620E-14 -3.47782477E+00 -1.26395456E+00
  2.86028891E-13 -1.31705901E-13  2.00413267E-11  4.85038111E-15 -1.44374725E+00
  1.29723734E-13 -2.15881066E-14 -1.50200696E-11  1.52360180E-14  6.81835739E-01
  2.32372849E+01  1.46904724E+01  6.14792628E-01 -6.56579585E-14  1.40892465E-13
  2.59754983E-01 -4.77716442E-13 -2.31212388E-14 -1.13191182E+01 -1.74823576E-13
  6.56691847E-14 -4.06511856E+00  1.20333839E+00  1.89317751E-13 -2.37339214E-13
 -1.86899947E-11 -5.81784863E-15  1.89034075E+00  2.37748182E-13  1.07362398E-13
  1.40411189E-11 -1.53237690E-14  1.02591432E-01 -1.95842403E-01  2.00515997E-01
 -2.52748497E-02  2.61444325E-14 -6.46816268E-14 -1.04051194E-01 -1.36646354E-14
  6.67044426E-14  2.50079190E-01 -1.62866608E-15 -6.23601330E-14 -1.12815498E-01
 -1.05470537E-01 -4.42487164E-14 -1.85089436E-14  1.41411255E-12 -5.10704135E-14
 -5.55678364E-02  3.87392649E-14  4.40092278E-14 -1.88297842E-12  2.12627307E-14
  1.75212146E-13  3.29801812E-12  9.48660685E-12  2.08604406E-13  1.10648025E+00
 -6.12662012E-14  3.47863214E-14 -2.73456425E-01 -1.10161710E-14  1.40387166E-12
 -5.32222362E-01  1.61890112E-14  2.01678655E-12  9.20214989E-14  1.21645909E+00
 -8.15009243E-14 -1.24160717E-15  2.48490245E-16  1.93464847E-13 -3.69593836E-01
  1.07658624E-14  3.64229817E-16  8.66527494E-16 -3.21523192E-14 -3.13434116E-12
 -9.36347553E-12 -1.81952041E-13 -1.10323171E+00  6.93438626E-14 -1.29189419E-14
  2.69773573E-01  4.78289912E-15  1.62344555E-12  5.43164910E-01 -1.38441849E-14
  2.75985765E-12 -1.89667074E-13  1.21325217E+00 -7.87423926E-14  1.89952641E-15
  1.84509796E-15 -3.79280606E-13 -3.60155680E-01  1.06815550E-14 -1.87080429E-16
 -2.26622203E-15 -3.13987092E-14  8.15450220E-14 -2.94152614E-13  1.83719567E-15
 -2.29955896E-02 -1.15287246E-15  1.58811651E-14  3.20416403E-02  5.23140953E-15
 -3.87782993E-14 -4.16624505E-02 -1.31191326E-15  1.64725065E-13  2.58094247E-14
 -9.86610681E-03  2.41162908E-15  1.84970232E-16 -1.79256762E-15 -5.86655033E-15
 -1.81007072E-03 -7.36353158E-16 -1.38603343E-15  4.83333790E-16  9.16137258E-14
  5.96250173E-12  4.94316881E-12  2.14882049E-13 -6.77992766E-14 -1.10648025E+00
 -6.00363903E-14  2.05267531E-14  2.73456425E-01  2.68324057E-12  2.65890594E-14
  5.32222362E-01  1.17438114E-12  2.58372085E-13 -6.33332592E-14 -1.21645909E+00
 -3.96573435E-15 -2.18690949E-15  4.01426048E-13  1.88635427E-14  3.69593836E-01
  1.01053969E-15  4.51445130E-15 -1.14724393E-13 -5.78706803E-12 -5.02047462E-12
 -1.96978610E-13  5.97576596E-14  1.10323171E+00 -8.57765282E-14 -1.59646527E-14
 -2.69773573E-01  2.78346573E-12 -2.73836010E-14 -5.43164910E-01  1.36622979E-12
 -2.07333738E-13 -6.82421193E-14 -1.21325217E+00  1.55223230E-15  7.53667888E-15
 -5.34742887E-13  2.06960000E-14  3.60155680E-01 -2.66320602E-16 -6.51547941E-15
 -3.06285180E-14  5.09052512E-14 -5.62828584E-14  8.98543644E-15  3.48799260E-15
  2.29955896E-02  2.97986471E-14 -2.25682446E-15 -3.20416403E-02 -7.19536355E-14
  1.28744305E-15  4.16624504E-02  2.58201387E-14  2.02049636E-14  1.31908622E-17
  9.86610681E-03  3.43424408E-15 -2.38274536E-15  3.23040870E-14  6.90909194E-16
  1.81007072E-03 -6.31619400E-16  1.66028241E-15 -1.40596357E+00 -1.91530317E+00
  9.57870332E+00 -1.08887823E-01  5.82393210E-14  2.09088114E-14 -2.58445191E-01
 -7.15177471E-14 -5.19451042E-14  3.33953720E-01 -3.71945288E-14 -2.54624299E-14
  1.75211918E+00  1.09857298E+00  3.80264335E-14  1.12039113E-14 -7.47249773E-13
 -1.12387688E-16  6.85532319E-02 -3.54258142E-14 -2.56169099E-14 -1.46578015E-12
  1.03712581E-15 -1.37601035E+00  2.57071625E+00 -8.71355270E+00  1.55493370E-01
 -6.28609212E-14 -2.81897973E-14  2.84242691E-01  7.37693658E-14  5.61724070E-14
 -2.29706425E+00  4.23143855E-14  2.34688823E-14  3.15071679E+00  1.21067828E+00
  4.38669002E-14  7.26821154E-15 -4.97146254E-13 -5.54647580E-16  5.60059647E-01
 -3.96422042E-14 -2.63422660E-14 -1.92457109E-12 -1.94312599E-15 -5.37427794E-03
  1.17494462E-01 -7.40597431E-01 -5.93491935E-02 -1.27966638E-15 -1.10812987E-14
 -7.15083400E-02 -1.78106111E-15  1.14908328E-14  1.29943839E-01 -2.29080765E-15
 -3.84257868E-15  4.60212135E-01  5.27218480E-02 -2.06245801E-15  1.52381423E-14
 -3.80940006E-14  1.27542759E-14 -1.87606458E-01  5.31221566E-16 -8.75756029E-15
 -4.75220172E-14 -3.54564068E-15  1.45607387E+00  6.90116955E+00 -1.57513712E+01
  3.87392587E-02 -3.05330606E-14 -3.44810199E-14  2.01174772E+00  6.97175554E-14
  9.58962925E-14  2.82372918E+00 -6.39318588E-15  8.43624567E-14 -3.28447650E+00
  1.16981734E+00 -2.24985828E-15 -2.51181040E-14 -3.65831403E-12  3.34419117E-16
  1.29199264E-01  1.97099572E-14  6.09307974E-14  8.40799701E-12 -2.42123962E-15
 -1.44277908E+00 -7.11215544E+00  1.57482088E+01 -7.52214459E-02  3.90173896E-14
  4.42957084E-14  2.01931275E+00 -7.62698625E-14 -1.03087429E-13  2.72010797E+00
  2.90104826E-15 -8.59414936E-14 -3.80762731E+00 -1.18868681E+00 -1.33820981E-14
 -1.63802721E-14  2.68382212E-12  5.36070165E-16  3.73515265E-02  2.92037247E-14
  5.33023353E-14 -1.95833592E-12  5.00297284E-15  1.23383697E-02 -1.23707863E-03
  1.52132006E-01 -9.20733783E-03 -4.27533574E-16  1.91342698E-14 -1.69300067E-02
  6.10308437E-15 -2.42995627E-14  2.13086248E-02 -5.11747525E-15  1.77416260E-14
 -3.39398705E-02 -1.71169557E-02  1.70475407E-15 -2.29340212E-14 -5.69799346E-14
 -1.26211274E-14 -1.94472149E-02  2.46606229E-15  1.02448218E-14  6.31599018E-13
  2.09035826E-15
Alpha Orbital Energies                     R   N=          69
  1.97499945E+00  1.00002822E+00  2.49723273E-02  0.00000000E+00  0.00000000E+00
  0.00000000E+00  0.00000000E+00  0.00000000E+00  0.00000000E+00  0.00000000E+00
  0.00000000E+00  0.00000000E+00  0.00000000E+00  0.00000000E+00  0.00000000E+00
  0.00000000E+00  0.00000000E+00  0.00000000E+00  0.00000000E+00  0.00000000E+00
  0.00000000E+00  0.00000000E+00  0.00000000E+00  0.00000000E+00  0.00000000E+00
  0.00000000E+00  0.00000000E+00  0.00000000E+00  0.00000000E+00  0.00000000E+00
  0.00000000E+00  0.00000000E+00  0.00000000E+00  0.00000000E+00  0.00000000E+00
  0.00000000E+00  0.00000000E+00  0.00000000E+00  0.00000000E+00  0.00000000E+00
  0.00000000E+00  0.00000000E+00  0.00000000E+00  0.00000000E+00  0.00000000E+00
  0.00000000E+00  0.00000000E+00  0.00000000E+00  0.00000000E+00  0.00000000E+00
  0.00000000E+00  0.00000000E+00  0.00000000E+00  0.00000000E+00  0.00000000E+00
  0.00000000E+00  0.00000000E+00  0.00000000E+00  0.00000000E+00  0.00000000E+00
  0.00000000E+00  0.00000000E+00  0.00000000E+00  0.00000000E+00  0.00000000E+00
  0.00000000E+00  0.00000000E+00  0.00000000E+00  0.00000000E+00
Beta Orbital Energies                      R   N=          69
  1.97499945E+00  1.00002822E+00  2.49723273E-02  0.00000000E+00  0.00000000E+00
  0.00000000E+00  0.00000000E+00  0.00000000E+00  0.00000000E+00  0.00000000E+00
  0.00000000E+00  0.00000000E+00  0.00000000E+00  0.00000000E+00  0.00000000E+00
  0.00000000E+00  0.00000000E+00  0.00000000E+00  0.00000000E+00  0.00000000E+00
  0.00000000E+00  0.00000000E+00  0.00000000E+00  0.00000000E+00  0.00000000E+00
  0.00000000E+00  0.00000000E+00  0.00000000E+00  0.00000000E+00  0.00000000E+00
  0.00000000E+00  0.00000000E+00  0.00000000E+00  0.00000000E+00  0.00000000E+00
  0.00000000E+00  0.00000000E+00  0.00000000E+00  0.00000000E+00  0.00000000E+00
  0.00000000E+00  0.00000000E+00  0.00000000E+00  0.00000000E+00  0.00000000E+00
  0.00000000E+00  0.00000000E+00  0.00000000E+00  0.00000000E+00  0.00000000E+00
  0.00000000E+00  0.00000000E+00  0.00000000E+00  0.00000000E+00  0.00000000E+00
  0.00000000E+00  0.00000000E+00  0.00000000E+00  0.00000000E+00  0.00000000E+00
  0.00000000E+00  0.00000000E+00  0.00000000E+00  0.00000000E+00  0.00000000E+00
  0.00000000E+00  0.00000000E+00  0.00000000E+00  0.00000000E+00
Total SCF Density                          R   N=        2415
  7.49211121E-02  1.14415164E-01  1.76091709E-01  1.66045727E-02  3.60091512E-02
  9.57265309E-02  3.76103775E-03  5.99748189E-03  2.38538138E-03  2.57093940E-04
 -5.92720181E-18 -6.43842489E-18  2.69762754E-17 -1.95240607E-19  1.24953496E-32
  8.71504000E-18  1.34376685E-17 -2.70525121E-18  7.36617061E-19 -5.46984855E-33
  4.62639730E-33  3.77877849E-03  6.12096799E-03  3.21552120E-03  2.72358890E-04
  5.33269538E-20  7.01048098E-19  2.95048774E-04  1.61738641E-16  2.29825391E-16
 -1.79153744E-16  8.86649062E-18 -1.17754260E-31  6.87995998E-32  7.02115377E-18
  1.30506519E-30 -1.15229929E-16 -1.77051892E-16  9.31753079E-18 -8.09720929E-18
  4.56214655E-32 -4.11350237E-32 -7.84227755E-18 -6.31163583E-31  3.90100222E-31
  3.11920221E-03  5.88317404E-03  8.39908536E-03  4.15730916E-04  9.73186584E-19
  1.13168405E-18  4.87019678E-04  2.13834464E-18 -1.07735824E-17  1.17153821E-03
  1.13458098E-16  1.52766044E-16 -2.60985936E-16  8.02495277E-18 -1.60531556E-31
  9.16767881E-32  5.55909427E-18  1.65563450E-30 -7.75330487E-31  2.70200558E-18
  2.27592097E-30 -4.20428063E-16 -6.45421645E-16 -1.09293952E-17 -2.70285121E-17
  1.23545471E-31 -1.18514595E-31 -2.64670392E-17 -1.85832339E-30  1.18101648E-30
 -3.30344172E-17 -2.13356063E-30  3.70110921E-30 -3.62920632E-03 -3.35641445E-03
  1.74234983E-02  1.68558211E-04  5.50303234E-18 -9.51340437E-19  3.31770547E-04
 -4.59028095E-17  9.49369335E-18  1.50848307E-03 -5.47823626E-17  2.91163425E-17
  3.83021774E-03 -1.15132115E-04  4.94873784E-05  1.51688526E-03  4.67848340E-05
  2.46948746E-19  1.46790453E-19  6.08828024E-05 -1.09478257E-18 -1.06746955E-18
  2.05823271E-04 -4.58905555E-19 -2.58437382E-18  3.38403230E-04  4.27688600E-05
  6.73304743E-20 -3.58264410E-20 -2.90422437E-18  6.71351988E-20 -1.90715642E-33
  1.16664434E-33  4.21426329E-20  1.86877300E-32 -8.98651717E-33  1.04825953E-19
  2.83588177E-32 -2.25881446E-32 -4.64853053E-19  2.22072435E-20  3.95580896E-34
 -7.39986388E-18 -1.11213546E-17 -2.75787400E-20 -3.48431593E-19  1.11783770E-33
 -9.79103196E-34 -3.35754419E-19 -2.01709558E-32  1.22769336E-32 -1.85763945E-19
 -1.69219422E-32  4.36848278E-32  6.73488165E-19  3.57785098E-20 -6.88966224E-35
  7.59528657E-34  8.85288853E-13  1.41938138E-12  6.89329497E-13  5.86292367E-14
  2.92830017E-29  1.30747064E-28  6.33272194E-14  1.36892729E-27 -1.57926255E-27
  9.61657516E-14  8.05175695E-28 -5.54649245E-27  6.08258372E-14  1.06062761E-14
  9.08749662E-31 -7.93781785E-29  1.39217190E-23 -2.95677614E-18 -4.51787014E-18
 -1.48970120E-18 -1.09117635E-19 -4.97239147E-34  1.76163267E-34 -1.16743283E-19
  1.10563055E-33  5.56604328E-34 -2.92607512E-20  7.18013628E-33  6.58453227E-33
  3.30322998E-20  2.42172305E-20  1.66949516E-34  2.72170754E-34 -3.19652043E-29
  1.91891395E-34 -4.60914532E-04 -5.25598451E-04  1.06573205E-03  2.10205752E-05
  1.77802115E-19  1.06698795E-19  3.16528898E-05 -1.18356037E-18 -5.33450894E-19
  1.53650219E-04 -1.73547635E-19 -6.15656557E-19  2.78830802E-04  3.57055896E-05
  2.81641914E-20  6.35760689E-20  4.22230230E-15  3.86079311E-20  3.18659197E-05
  1.29654526E-16  1.85892556E-16 -1.40485221E-16  7.89526871E-18 -9.99685780E-32
  6.15755980E-32  6.45184932E-18  1.11513202E-30 -5.55366817E-31  4.22997673E-18
  1.44225792E-30 -1.61439962E-30 -3.54195686E-17 -3.61844860E-19  1.68520068E-32
 -1.61870845E-32  1.21660609E-27  1.78908074E-33 -4.82236934E-19  9.62122902E-31
 -1.73002694E-16 -2.63916562E-16  1.24056491E-17 -1.09997672E-17  5.74801302E-32
 -5.10766539E-32 -1.06187241E-17 -8.21054141E-31  5.03582545E-31 -1.26770378E-17
 -9.58118158E-31  1.56631553E-30  1.51606242E-17 -8.82807100E-19 -1.02672713E-32
  1.82880514E-32 -2.21447091E-27  2.35006191E-33 -1.33390436E-19 -7.11763383E-31
  6.66092392E-31 -1.78530480E-11 -2.75539209E-11 -6.96130910E-12 -9.14030534E-13
  1.96850499E-28 -1.63118646E-27 -9.44880020E-13 -2.81140592E-26  2.40591377E-26
 -8.94138384E-13 -1.21186817E-26  9.18001534E-26  3.03683315E-13 -2.20251064E-15
  1.67325903E-28  1.70745962E-27 -2.22473181E-22  7.73431014E-28  9.07883904E-14
 -2.20662567E-26  3.70963804E-26  4.37791244E-21  8.07819369E-18  1.12278397E-17
 -8.16460986E-18  2.62242377E-19 -3.91700609E-33  1.66102145E-33  1.75059084E-19
  4.32393814E-32 -1.78842717E-32 -4.21994482E-19  4.73475355E-32 -5.84868191E-32
 -2.33736267E-18 -1.63748186E-19  3.88803948E-34 -9.74674414E-34  4.55451825E-29
 -1.97458451E-34 -1.61745759E-19  3.47517380E-32 -2.59897610E-32 -1.58087123E-27
  1.96196207E-33  6.80432618E-02  1.07760777E-01  4.06463277E-02  4.35196437E-03
 -2.01802627E-18  1.11514598E-17  4.60289513E-03  1.39600600E-16 -1.29749610E-16
  6.52300961E-03  1.09348175E-16 -4.46641810E-16  2.28764981E-03  6.42346211E-04
  6.05031635E-19 -6.32237200E-18  1.01142353E-12 -2.27699113E-18  1.99198802E-04
  1.21589400E-16 -1.81045954E-16 -1.66547598E-11  4.86599211E-18  7.49555949E-02
  1.02371582E-01  1.61033471E-01  5.33454014E-02  6.30819245E-03 -4.47747553E-18
  1.62057689E-17  6.61450295E-03  2.17084491E-16 -1.90747823E-16  8.82970726E-03
  1.70489200E-16 -6.60256869E-16  1.78462401E-03  7.67657725E-04  8.68942261E-19
 -9.63822351E-18  1.46484417E-12 -3.49150086E-18  1.38055757E-04  1.86442193E-16
 -2.68580193E-16 -2.48863705E-11  8.10250093E-18  1.09310724E-01  1.60190186E-01
  8.01554046E-02  1.14567680E-01 -5.37565540E-02  3.06500780E-03 -3.05194739E-17
  1.51388585E-17  2.44462485E-03  3.65728922E-16 -1.67368661E-16 -1.89439165E-03
  3.85653327E-16 -5.56567388E-16 -1.77913096E-02 -1.16590865E-03  3.00260818E-18
 -9.19401937E-18  5.98415469E-13 -2.20203554E-18 -1.25710900E-03  2.95055982E-16
 -2.43110842E-16 -1.65731501E-11  1.65216287E-17  5.58938166E-02  8.95272826E-02
  1.42776381E-01 -6.05095142E-03 -9.50220124E-03 -2.61304076E-03 -3.90065093E-04
  6.64600346E-19 -1.22070456E-18 -4.03600600E-04 -1.68230673E-17  1.32903678E-17
 -5.57360891E-04 -1.62232016E-17  4.40736258E-17 -2.56585745E-05 -5.29110714E-05
 -1.39036568E-19  5.81741687E-19 -8.73584090E-14  1.68144301E-19 -1.65878747E-05
 -1.46605776E-17  1.81529038E-17  1.43283510E-12 -5.52662357E-19 -6.62656714E-03
 -9.69593680E-03 -5.86565247E-03  6.06146857E-04 -2.79503279E-17 -4.58459877E-17
 -3.03036061E-17 -2.02056843E-18 -3.32207382E-33 -3.92655038E-33 -2.24581887E-18
 -2.59233303E-32  4.83853868E-32 -3.82962587E-18 -3.21165315E-33  1.71915548E-31
 -3.63791838E-18 -4.94073117E-19  1.73639545E-34  2.35903711E-33 -4.88850876E-28
  1.05424943E-33 -2.56501845E-19 -2.52813669E-32  6.71296151E-32  7.28276708E-27
 -5.29215611E-34 -3.46110319E-17 -4.94879821E-17 -1.24071956E-17  2.91542870E-18
  1.77987981E-32  1.49160857E-17  2.40916036E-17  1.63201711E-17  8.58495834E-19
  3.79542872E-33  9.69901150E-35  9.77685333E-19 -9.58283111E-33 -1.04603234E-32
  1.37435132E-18 -3.64952382E-32 -5.30390729E-32  1.74155836E-18  1.25990193E-19
 -6.93513545E-34 -1.23447389E-33  2.30678537E-28 -8.45646590E-34  9.64293247E-21
 -9.15300841E-33 -1.90114863E-32 -4.06472454E-27  1.36840189E-34  1.58460220E-17
  2.30171669E-17  5.20266790E-18 -1.21562309E-18 -8.42392817E-33  5.09541491E-33
 -4.57091659E-03 -6.87317151E-03 -3.27974755E-04 -2.02032555E-04  4.30966320E-19
 -4.24010465E-19 -1.96798001E-04 -9.82001391E-18  6.19644438E-18 -8.42406124E-05
 -6.35554573E-18  2.35073453E-17  3.73450803E-04  2.85143503E-05  1.67441365E-20
  4.61902892E-19 -4.81271797E-14  1.94300697E-19  4.60346163E-05 -7.57175623E-18
  9.73755007E-18  1.07922758E-12 -5.57686332E-19 -3.77062523E-03 -5.77164834E-03
 -5.32946952E-03  3.35253385E-04  1.44628129E-18 -8.54512446E-19  2.89953294E-04
 -1.19431911E-16 -1.63323280E-16  1.95041579E-16 -5.98612436E-18  1.10656575E-31
 -5.84136745E-32 -4.06548806E-18 -1.16181989E-30  5.24031671E-31  2.15191573E-18
 -1.50198129E-30  1.51450540E-30  4.58098226E-17  1.54667545E-18 -1.71217606E-32
  1.60428307E-32 -7.43948864E-28 -2.01474725E-33  1.38158406E-18 -9.88798420E-31
  6.78273203E-31  1.83244931E-26 -3.90050611E-32 -9.16130878E-17 -1.47093462E-16
 -3.21733729E-16  1.23203560E-17  5.19514399E-33  1.72420547E-32  7.53112821E-18
  1.05285549E-30  1.41757782E-16  2.15339101E-16 -2.64956924E-17  9.29182100E-18
 -5.70446148E-32  4.76360622E-32  8.83886647E-18  7.68404016E-31 -4.56956621E-31
  1.07190047E-17  9.29908667E-31 -1.39414770E-30 -1.50852762E-17  7.98994847E-19
  1.04164167E-32 -1.53257157E-32  1.80428459E-27 -1.07565476E-33  2.23862748E-19
  6.68988492E-31 -5.96490508E-31 -2.94316420E-26  2.33849212E-32  1.50455533E-16
  2.23212138E-16  2.15141212E-16 -1.55016968E-17 -5.35031073E-32  1.18263919E-32
 -7.89166458E-18 -6.44059806E-31  5.40484961E-31 -4.35635446E-03 -5.68930414E-03
  5.74194928E-03  6.29285971E-07  1.46136550E-18  1.06831983E-19  6.09261375E-05
 -1.40463678E-17  1.92611818E-18  7.06112601E-04 -9.40841138E-18  1.20061741E-17
  1.64882655E-03  1.86070023E-04  6.82521918E-20  5.37322057E-19 -7.28712210E-16
  2.45734050E-19  1.73609327E-04 -9.17876211E-18  5.76180005E-18  9.01969947E-13
 -1.13322229E-18 -8.19501304E-04 -2.07357302E-03 -9.24958052E-03  9.55780671E-05
 -6.63736500E-19 -1.95599691E-19  3.55740866E-04  1.36919680E-17 -4.51420757E-18
  1.00998020E-03  2.56143665E-17  7.58457742E-17  4.47571924E-16  5.63460338E-19
  2.06464879E-31 -9.24728050E-32  4.44961469E-18 -1.82499402E-30  6.90578060E-31
  1.30059572E-17 -2.72255529E-30  1.66914862E-30  7.78405300E-17  2.21277165E-18
 -3.59064825E-32  6.01475801E-33  1.53052832E-27 -1.53719287E-32  7.02387795E-19
 -1.59050182E-30  7.99556635E-31 -2.69000980E-26 -4.97923157E-32  4.80006309E-17
  5.56378845E-17 -3.63869929E-16  4.40768164E-18 -8.43649682E-32  8.88602835E-32
 -1.35402659E-18  1.74524558E-30 -8.41019751E-31  1.01025439E-17  3.71558281E-30
  4.25773231E-16  6.53745223E-16  1.44158504E-18  2.79086551E-17 -1.34289496E-31
  1.26764884E-31  2.72610181E-17  1.97695757E-30 -1.24778757E-30  3.47914611E-17
  2.30927120E-30 -3.87801982E-30 -3.06723479E-17  2.89651042E-18  2.50545789E-32
 -4.44775833E-32  5.66287410E-27 -5.69550966E-33  9.07232186E-19  1.72294848E-30
 -1.64413096E-30 -9.21081611E-26  6.06787874E-32  4.58026226E-16  6.76265067E-16
  5.75220755E-16 -4.55768826E-17 -1.75079896E-31  5.05325052E-32 -2.36144768E-17
 -1.61872037E-30  1.47021426E-30 -1.10980639E-17 -1.87215005E-30  4.07142935E-30
 -1.32023439E-02 -1.76153042E-02  2.07920690E-02 -3.75264428E-04  9.33343145E-18
 -3.73694654E-18 -1.66685034E-04 -9.55632249E-17  3.70234814E-17  1.09180413E-03
 -1.12803660E-16  1.14778643E-16  5.22051036E-03  3.46874959E-04 -1.06540451E-18
  1.73051416E-18 -4.46057750E-14  1.63637965E-19  3.16883791E-04 -7.77601243E-17
  5.20200284E-17  2.28417783E-12 -4.05414259E-18 -6.75016944E-03 -1.18800113E-02
 -3.32128042E-02  9.11542699E-04 -7.24129039E-19  1.01764631E-18  9.39641644E-04
  8.80606005E-17 -4.83107259E-17  2.21261328E-03  1.31151583E-16 -1.20582566E-16
  8.73778626E-03  5.50716913E-04  6.25316267E-04 -1.38425359E-03 -2.12314698E-05
 -2.97693021E-19 -7.03689511E-20 -3.48697854E-05  2.27029398E-18  1.99257167E-19
 -1.75224623E-04  1.52907734E-18 -3.61870244E-19 -3.49181223E-04 -4.08924470E-05
 -1.47050729E-20 -7.84711448E-20 -4.83666171E-15 -3.78340711E-20 -3.61392533E-05
  1.35909793E-18 -3.34811510E-19 -1.00371407E-13  2.08604498E-19 -1.99807493E-04
 -1.12790048E-04  1.62192945E-03  1.24926566E-05  3.06699194E-19 -4.21827554E-20
 -5.36603468E-05 -2.42640087E-18  2.32795911E-19 -2.01003982E-04 -2.48777894E-18
  1.34482706E-19 -4.22543644E-04  4.17876045E-05  9.58177871E-18  1.47510952E-17
  1.73309433E-18  5.67193933E-19 -1.70308487E-33  1.96512440E-33  5.66938076E-19
  3.12249477E-32 -2.12718389E-32  6.50743412E-19  3.14771499E-32 -7.02154607E-32
 -4.45816025E-19  3.72240997E-20  2.69775877E-34 -9.62344377E-34  1.24064775E-28
 -2.57054564E-34 -1.00165014E-20  2.66358740E-32 -2.93231512E-32 -2.19817276E-27
  1.12942905E-33  9.70618180E-18  1.43988677E-17  1.10985579E-17 -9.11309863E-19
 -3.93700193E-33  1.61084327E-33 -5.52522341E-19 -2.44175409E-32  2.53165151E-32
 -3.51644167E-19 -1.65959520E-32  7.26879115E-32 -2.03655998E-18  2.51098469E-20
  1.43138756E-33 -7.45385296E-18 -9.66984651E-18  1.51298065E-17 -2.21009404E-19
  6.90138033E-33 -2.87450210E-33 -7.35124379E-20 -6.87554436E-32  2.67520722E-32
  6.97003079E-19 -8.54874688E-32  7.93378253E-32  3.55055004E-18  2.10854403E-19
 -8.86865491E-34  1.04294497E-33 -1.62633107E-29 -2.23707900E-35  1.83417594E-19
 -5.68092043E-32  3.62298048E-32  1.12722666E-27 -2.69428353E-33 -3.66435950E-18
 -6.60461119E-18 -2.17750213E-17  5.69879624E-19 -9.64867054E-34  1.22665811E-33
  5.30753771E-19  6.37413957E-32 -3.43701928E-32  1.32908906E-18  1.03188656E-31
 -8.42540094E-32  5.98385819E-18 -2.57091753E-19 -1.31022169E-33  4.20085819E-33
  9.62531359E-13  1.43361518E-12 -2.06231880E-13  4.81911719E-14 -2.66862804E-28
  1.95303341E-28  4.47265611E-14  3.77868269E-27 -2.11743647E-27  2.62416250E-14
  3.94119788E-27 -6.98139226E-27 -1.22547785E-13 -4.13046194E-15  3.27959713E-29
 -1.03100668E-28  1.00942886E-23 -2.53825416E-29 -7.21062697E-15  3.13599504E-27
 -2.97665967E-27 -2.10252248E-22  1.53205748E-28  8.40924767E-13  1.28299988E-12
  1.39649971E-12 -8.26342707E-14 -2.83982267E-28  1.14223732E-28 -5.92286186E-14
 -3.15820087E-27  2.60483312E-27 -6.90251965E-14 -3.03249485E-27  7.22924342E-27
 -2.96250098E-13  1.00695659E-14  1.40174846E-28 -1.93646790E-28  1.54233614E-23
 -6.63363042E-19 -1.90829705E-18 -7.38074393E-18 -1.88247862E-19 -1.87735751E-33
 -8.25234023E-36 -2.53683355E-19  1.20403609E-32  5.52424018E-34 -7.34538323E-19
  1.58796975E-32  2.98337954E-33 -1.43436802E-18 -1.40995581E-19  1.40340312E-34
 -5.79533619E-35 -5.11923519E-29  4.99487085E-35 -1.06863148E-19  8.83044391E-33
  2.67085112E-35  3.68472867E-28  6.91585432E-34 -3.00727075E-18 -3.82652271E-18
  4.71753976E-18  2.04335906E-19  2.30739912E-33 -1.06892358E-33 -2.58007869E-20
 -1.34332115E-32  8.27650905E-34 -5.71749371E-19 -2.85540892E-32 -2.81204066E-33
 -1.65904636E-18  1.31891354E-19 -1.26805671E-34 -1.15122734E-33  1.90100980E-29
  6.00193277E-34 -3.77617773E-04 -9.49116661E-04 -3.25388213E-03 -7.55722670E-05
 -9.16282588E-19  8.73885044E-20 -1.04150760E-04  6.26077610E-18 -4.01520035E-19
 -2.90905434E-04  8.74476680E-18 -1.63859371E-19 -6.12763774E-04 -5.45398291E-05
  9.17017149E-20 -1.79256779E-20 -2.18877189E-14  3.96251016E-20 -3.97407974E-05
  4.85575434E-18 -6.37345763E-19  1.90993680E-13  3.00298235E-19 -1.26147823E-03
 -1.62090583E-03  2.04069577E-03  7.91858109E-05  9.87091917E-19 -5.15158066E-19
 -1.75047672E-06 -6.74692766E-18  1.04301148E-18 -2.17046534E-04 -1.47337523E-17
  4.44933679E-19 -7.41883090E-04  5.08696960E-05 -4.18236993E-20 -5.30655419E-19
  9.07617292E-15  2.54963350E-19  1.11326837E-04  8.61297482E-17  1.21199398E-16
 -1.08779454E-16  4.70012414E-18 -6.86322011E-32  3.91383458E-32  3.59953274E-18
  7.47393264E-31 -3.55220132E-31  6.44332336E-19  9.57885664E-31 -1.03695252E-30
 -2.68827856E-17 -6.78508002E-19  1.09229378E-32 -1.09958971E-32  6.85774434E-28
  9.68524981E-34 -6.81491534E-19  6.38955655E-31 -4.59959774E-31 -1.43757410E-26
  2.45915119E-32  7.30719310E-17  1.14306624E-16  2.06348758E-16 -9.08796068E-18
 -1.13232079E-32 -7.52552540E-33 -5.25205601E-18 -6.68925711E-31  4.32873214E-31
 -7.94025952E-18 -1.07564354E-30  1.10551310E-30 -5.48805207E-17  1.31415940E-18
  1.71340493E-32 -3.96809393E-32  2.10684244E-27  7.30318401E-33  3.77934572E-18
  4.28848611E-31 -9.00110050E-17 -1.38859253E-16 -4.13056432E-18 -6.08418082E-18
  2.82775933E-32 -2.76774950E-32 -5.98287089E-18 -4.21418970E-31  2.70576712E-31
 -8.04236268E-18 -4.96613511E-31  8.37174523E-31  5.60335514E-18 -7.51869514E-19
 -5.49614493E-33  9.34757240E-33 -1.23434151E-27  1.08716878E-33 -3.09817639E-19
 -3.69246721E-31  3.54473065E-31  1.95038257E-26 -1.24838044E-32 -9.93265833E-17
 -1.46092932E-16 -1.19333791E-16  9.87227791E-18  3.86141631E-32 -1.09122876E-32
  4.91868146E-18  3.43578221E-31 -3.17355258E-31  1.76574326E-18  4.00623113E-31
 -8.79867098E-31  2.48251614E-17  1.00857557E-19 -1.56138640E-32  1.74827345E-32
 -1.53058932E-27  9.88827592E-34  4.67020503E-20 -2.35587720E-31  1.90554722E-31
 -1.59881722E-11 -2.49433288E-11 -5.32054296E-12 -1.01492220E-12  2.34037813E-27
 -3.40345520E-27 -1.03658641E-12 -4.92888068E-26  3.64716347E-26 -1.37371548E-12
 -4.96520741E-26  1.19772723E-25  2.34525473E-13 -1.20182752E-13 -4.47018743E-28
  1.56593443E-27 -2.23868304E-22  4.16022025E-28 -3.01068120E-14 -4.27527771E-26
  4.96635457E-26  3.72566724E-21 -1.63795829E-27 -1.72007590E-11 -2.52615407E-11
 -1.67935086E-11  1.59660203E-12  7.34343610E-27 -2.95949004E-27  8.93478287E-13
  3.73350804E-26 -4.27768055E-26  3.40285516E-13  2.13779467E-26 -1.24134541E-25
  2.84589755E-12  1.32062101E-14 -2.43879480E-27  1.82831348E-27 -2.27368841E-22
  4.24034208E-28  1.55507172E-13 -2.68723247E-26  2.68344632E-26  4.23554642E-21
 -8.63464901E-18 -1.47044705E-17 -1.46901004E-17 -6.71351104E-19 -3.04362603E-33
 -5.62242804E-34 -7.88314378E-19  8.86829247E-33  9.99058177E-33 -1.49833791E-18
  2.28210624E-32  4.09403718E-32 -2.13502145E-18 -2.15003177E-19  3.37115908E-34
  6.31232991E-34 -1.73613306E-28  4.28086975E-34 -1.22050291E-19  6.28232803E-33
  1.45873005E-32  2.45707330E-27  4.37670496E-34 -1.16603580E-17 -1.64018856E-17
  5.57657409E-19  9.08557633E-19  6.68035745E-33 -3.46695274E-33  4.23230755E-19
 -1.49932768E-32 -9.98179616E-33 -4.85668439E-19 -5.99257028E-32 -4.04977290E-32
 -1.71059902E-18  1.58148487E-19 -1.09962749E-33 -1.40104914E-33 -5.64038083E-29
  1.09813682E-33  4.85247633E-19  6.47026965E-33  9.15636538E-33  2.18666510E-27
  2.78056954E-33 -2.11588951E-03 -6.62089710E-03 -4.76007718E-02  2.70237831E-04
 -2.47326135E-17  1.26161804E-17 -1.40943663E-04  2.27053314E-16 -9.52166539E-17
 -4.43294088E-04  3.42156569E-16 -2.33437589E-16 -8.02347441E-03 -4.81844116E-05
  4.63318269E-18 -7.31821156E-19 -1.14215588E-13  1.99461258E-18  9.51996731E-05
  2.00837895E-16 -1.09236271E-16  2.95576131E-12  5.55168233E-18 -9.69777588E-04
 -4.56467800E-04  4.12244183E-02 -9.80869221E-04  7.26874728E-18 -1.01347224E-17
  2.19676248E-04 -2.13602690E-16  1.13269169E-16 -3.58303029E-04 -4.54170474E-16
  2.60760456E-16 -1.48956633E-02  1.02977760E-04  2.50824429E-18 -1.19894241E-17
  3.80719446E-13  2.80559723E-18  1.54585146E-03  1.33431395E-16 -5.64926773E-17
 -3.70765275E-12  6.16072466E-18  5.67466913E-02 -5.43942057E-03 -1.55284117E-02
 -1.01495201E-01  5.22879412E-04 -5.25078706E-17  2.66906735E-17 -3.52330762E-04
  4.80583650E-16 -2.00814471E-16 -9.97934231E-04  7.25773517E-16 -4.90576822E-16
 -1.70326537E-02 -1.04307444E-04  9.84420843E-18 -1.46414913E-18 -2.54819063E-13
  4.27476106E-18  2.05371521E-04  4.25218408E-16 -2.29890802E-16  6.50875643E-12
  1.17091547E-17 -2.97583948E-03 -2.33079559E-03  8.66870456E-02 -2.00360256E-03
  1.58420045E-17 -2.17384926E-17  5.22688505E-04 -4.52570221E-16  2.38865295E-16
 -7.20798816E-04 -9.65738845E-16  5.48553119E-16 -3.15170516E-02  2.15078409E-04
  5.20608906E-18 -2.54027945E-17  7.97234644E-13  5.98219703E-18  3.29445398E-03
  2.82538466E-16 -1.18860326E-16 -7.66727029E-12  1.32198525E-17  1.20633275E-01
  2.56456783E-01 -3.16946870E-03 -1.04030864E-02 -7.76110579E-02  4.37183055E-04
 -4.02204186E-17  2.04585117E-17 -2.33896390E-04  3.69243496E-16 -1.54568558E-16
 -7.66773355E-04  5.55695318E-16 -3.79383721E-16 -1.31247953E-02 -9.04106866E-05
  7.51230157E-18 -1.22036859E-18 -1.85538019E-13  3.22077681E-18  1.43146951E-04
  3.26401093E-16 -1.77548315E-16  4.74162474E-12  9.07914886E-18 -1.54112476E-03
 -6.36624967E-04  6.74664694E-02 -1.59571535E-03  1.18454838E-17 -1.64343456E-17
  3.34400729E-04 -3.47411542E-16  1.84018973E-16 -6.46531028E-04 -7.37515856E-16
  4.23650428E-16 -2.43082786E-02  1.80152196E-04  4.08947047E-18 -1.95367915E-17
  6.21919476E-13  4.58969759E-18  2.52241079E-03  2.16973785E-16 -9.17407090E-17
 -6.03257362E-12  1.00298986E-17  9.20895292E-02  1.95763406E-01  1.49448716E-01
  1.40202658E-03  2.06582934E-03 -1.16246229E-03  9.95545033E-05 -1.04400529E-18
  7.21011496E-19  8.72338615E-05  1.20727911E-17 -6.43256670E-18  1.00650680E-04
  1.58736378E-17 -1.85554608E-17 -3.03959114E-04  7.21206950E-06  1.92814343E-19
 -1.69594739E-19  1.62052310E-14  2.64591606E-20  4.05347834E-06  1.05699516E-17
 -8.11457656E-18 -2.43891118E-13  3.41972510E-19  1.51179606E-03  2.26132763E-03
  2.96133211E-03 -1.76033781E-04 -4.07701637E-19 -6.98084461E-20 -7.61455351E-05
 -1.05560813E-17  7.62064713E-18 -5.26727359E-05 -1.70706120E-17  1.98413613E-17
 -7.70736139E-04  4.30832893E-06  3.04496648E-19 -5.74428832E-19  3.36316607E-14
  6.10630511E-20  3.96091967E-05  6.90468022E-18 -4.28671633E-18 -5.04540422E-13
  1.40660078E-20  2.21611192E-03  4.69148302E-03  3.59842067E-03  1.19058359E-04
 -4.17185872E-17 -6.30603605E-17  3.24521420E-18 -2.33500672E-18  1.11532369E-32
 -9.52416382E-33 -2.23753356E-18 -1.66076430E-31  9.99661802E-32 -2.07505967E-18
 -1.78643161E-31  3.23581753E-31  4.02911552E-18 -1.11349366E-20 -1.64392663E-33
  4.38369392E-33 -4.88969962E-28  9.61320652E-34  1.52995607E-19 -1.40579951E-31
  1.37188432E-31  9.18153521E-27 -6.11216527E-33 -3.98314154E-17 -5.98318321E-17
 -5.69852349E-17  3.89165982E-18  1.45525160E-32 -5.36436447E-33  2.46810282E-18
  1.36472936E-31 -1.20562774E-31  2.19784914E-18  1.33258684E-31 -3.36488715E-31
  1.17740980E-17 -2.59496356E-19 -6.38235462E-33  7.81803989E-33 -6.67315563E-28
 -2.58814028E-34 -1.85991767E-19 -9.24405001E-32  7.18981271E-32  1.06152335E-26
  3.31519303E-33 -1.77639005E-17 -3.72224930E-17 -2.89515549E-17 -1.55924243E-18
  2.97606766E-32 -1.20326352E-17 -1.94203880E-17 -4.92272384E-18 -1.08667438E-18
  4.21246271E-33 -5.26791568E-33 -1.11447103E-18 -6.68470333E-32  4.82613959E-32
 -2.05341487E-18 -8.67036576E-32  1.42651602E-31 -3.22307523E-19 -2.99628969E-19
 -1.13152827E-33  1.19265370E-33 -2.16260545E-28 -6.80386531E-35 -2.12838332E-19
 -6.14188444E-32  6.00030861E-32  2.59425142E-27 -1.31250240E-33 -1.68860884E-17
 -2.40767786E-17 -1.37271661E-17  1.68753169E-18  7.30670650E-33 -1.55676689E-33
  5.49747970E-19  5.30667115E-32 -5.46125744E-32 -5.85937204E-19  7.13055695E-32
 -1.51604401E-31  2.72503179E-18  1.96297778E-19 -2.50840196E-33  2.15521293E-33
 -2.17604986E-28  6.32021645E-34  1.71788954E-19 -3.74228943E-32  3.34063335E-32
  4.53586349E-27  1.93726591E-33 -1.08641738E-17 -2.29130071E-17 -1.75834080E-17
 -7.59071687E-19  1.11572390E-32  6.68002812E-33 -6.01933651E-05 -8.70693686E-05
  2.98018774E-05 -2.37263628E-06  1.87177179E-20 -9.87617772E-21 -2.00047142E-06
 -2.38838886E-19  1.14304463E-19  8.66544365E-07 -2.38556984E-19  3.89914298E-19
  1.13784967E-05  7.66073208E-07 -1.63221701E-21  6.70867211E-21 -4.91047655E-16
  1.88527206E-21  8.72232387E-07 -1.91358919E-19  1.68671372E-19  1.28742660E-14
 -1.12017351E-20 -4.36233418E-05 -6.90907253E-05 -9.83797987E-05  4.38581729E-06
  1.15480566E-20 -5.68023268E-21  3.96396969E-06  2.06698809E-19 -1.46892224E-19
  6.44638532E-06  2.01723265E-19 -4.00682091E-19  2.19325846E-05 -1.10483503E-06
 -8.05363055E-21  1.40953542E-20 -9.82872087E-16 -2.79619610E-21 -1.17659997E-06
 -1.33835806E-19  8.31357033E-20  1.23511673E-14  9.90734010E-22 -2.25668111E-05
 -4.72565028E-05 -3.70180655E-05 -1.91726463E-06  4.02109557E-20  9.43605433E-21
  6.87271185E-08  9.90251094E-17  1.45090396E-16 -4.65482902E-17  4.83236582E-18
 -3.79216996E-32  2.40693152E-32  4.25174093E-18  4.79210579E-31 -2.48192968E-31
  1.50330794E-18  5.35413407E-31 -7.93199129E-31 -1.73130923E-17 -6.59300119E-19
  4.98598029E-33 -1.10803795E-32  9.44835032E-28 -1.99965845E-33 -8.88092645E-19
  3.99544834E-31 -3.42897918E-31 -2.05687614E-26  1.86771102E-32  8.30942395E-17
  1.28226838E-16  1.65122254E-16 -8.61561275E-18 -2.40915198E-32  7.38456953E-33
 -6.16831798E-18 -4.12538014E-31  3.06482846E-31 -8.18680012E-18 -4.92086374E-31
  8.27302030E-31 -3.78097139E-17  1.28241583E-18  1.51926559E-32 -2.54694223E-32
  1.75192778E-27  3.71033369E-33  1.78351012E-18  2.70065118E-31 -1.74934933E-31
 -2.42078316E-26 -2.44773032E-33  6.05209671E-17  1.27418087E-16  9.86968239E-17
  4.25201920E-18 -7.53213103E-32 -2.49485982E-32 -1.13550813E-19  2.06360559E-31
 -9.50287569E-17 -1.46368248E-16 -4.35278256E-17 -4.38115805E-18 -6.21745778E-33
 -3.04351948E-33 -4.59720647E-18 -7.29609836E-32  8.47703171E-32 -3.48212770E-18
  5.63487371E-32  3.79919988E-31  9.46092166E-19  2.53811088E-19  2.68675205E-33
  8.91677072E-33 -1.13615450E-27  4.92719914E-33  7.45669853E-19 -4.58538035E-32
  1.49241416E-31  2.39767470E-26 -7.36883884E-33 -8.33350334E-17 -1.25436928E-16
 -7.97075906E-17  6.80283194E-18  3.74893599E-32 -2.40959795E-32  5.91994513E-18
  2.95026261E-32 -1.08201981E-31  5.82524497E-18 -2.89344694E-31 -3.69659826E-31
  8.90769705E-18 -7.58983239E-19 -1.03666587E-32  2.99257582E-33 -9.91824903E-28
  2.00551171E-33  1.19497467E-18 -3.18692969E-32  7.69011361E-32  1.73882386E-26
  1.36604828E-32  3.55383409E-17  7.67159791E-17  5.73032480E-17 -4.34036386E-19
  4.16378252E-32  7.70673071E-33  6.43909114E-20 -9.03585545E-32  1.40019779E-31
 -5.63626632E-04 -8.95539245E-04 -2.98249028E-04 -3.95794101E-05  6.56905151E-20
 -1.31731510E-19 -4.13570846E-05 -1.67979722E-18  1.37699874E-18 -6.36288925E-05
 -1.73479383E-18  4.45908632E-18 -1.56459247E-05 -7.31122213E-06 -1.74361668E-20
  5.34547679E-20 -8.75469614E-15  1.32179650E-20 -3.58937928E-06 -1.49835345E-18
  1.83535185E-18  1.33444520E-13 -4.68991018E-20 -6.60315109E-04 -9.57357421E-04
 -5.17355854E-04  6.07927555E-05  2.97556799E-19 -1.14941990E-19  2.99446228E-05
  1.22086383E-18 -1.58310276E-18 -9.48231160E-07  5.97546804E-19 -4.63637723E-18
  7.69652962E-05  3.35523371E-06 -8.97648858E-20  5.02315931E-20 -7.82980947E-15
  2.51619362E-20  9.43971123E-06 -9.09844235E-19  1.01111005E-18  1.59825659E-13
  9.34823304E-20 -1.27806568E-04 -2.63890629E-04 -2.07108656E-04 -1.84951522E-05
  3.79921128E-19  1.83031366E-19  3.87128512E-07 -8.17687620E-19  6.04728363E-19
  6.22677289E-06 -1.25817628E-16 -1.95478726E-16 -6.32807344E-17 -6.48243778E-18
 -4.75218263E-33 -8.99815242E-33 -6.82539788E-18 -1.44274306E-31  1.50477709E-31
 -6.88233071E-18 -7.42831774E-33  5.99738275E-31 -4.71047010E-19 -1.28445199E-19
  2.16352622E-33  1.17644706E-32 -1.61631874E-27  5.83158631E-33  5.74888699E-19
 -1.09351122E-31  2.38625032E-31  3.14721947E-26 -9.48705977E-33 -1.18938136E-16
 -1.77041701E-16 -1.04581333E-16  9.98809796E-18  5.40534734E-32 -3.11743991E-32
  7.57485936E-18  7.73305135E-32 -1.83589503E-31  5.82172246E-18 -2.96429636E-31
 -5.96522429E-31  1.19024914E-17 -5.85478684E-19 -1.49931304E-32  4.73863730E-33
 -1.38412189E-27  3.55867391E-33  1.82085845E-18 -6.96019279E-32  1.26357572E-31
  2.56700138E-26  1.91838248E-32  3.36407022E-17  7.31041046E-17  5.42346474E-17
 -1.23622342E-18  6.06454746E-32  1.65324713E-32  8.36949354E-20 -1.29577013E-31
  1.76070765E-31  9.27738808E-19  2.29297653E-31  6.60258971E-17  1.05241058E-16
  8.35967062E-17  2.45191724E-18  3.39827592E-32 -1.39319194E-32  3.06516746E-18
 -2.28726572E-31  6.39970692E-32  2.31249954E-18 -4.58282137E-31  4.25220234E-32
  8.37020006E-18 -2.22755880E-19 -7.55874058E-33 -5.11404476E-33  8.67249345E-28
 -5.79708910E-33 -7.07515409E-19 -2.16337245E-31  3.79847104E-32 -1.95636099E-26
 -1.51965649E-33  5.48335047E-17  8.18277707E-17  5.17881330E-18 -3.16728096E-18
 -3.25510620E-32  2.81697566E-32 -4.27826599E-18  2.39794674E-31 -6.99917839E-32
 -3.92101017E-18  7.46536623E-31 -8.38703773E-32  1.15377180E-17  4.85669528E-19
  3.69159753E-33  1.22423376E-32  2.00008568E-28 -4.41820902E-33 -2.55562759E-18
 -1.41631470E-31  2.06152040E-32 -6.65472903E-27 -1.61006311E-32 -9.34753741E-17
 -1.99482458E-16 -1.51415968E-16 -2.46467728E-18 -5.70935228E-33  9.07985785E-33
 -1.69602066E-20 -1.28977398E-32 -1.37502964E-31 -2.24521980E-19 -1.58088354E-31
  2.07219303E-31 -1.57100571E-03 -2.32066298E-03  9.89558340E-04 -9.96020893E-05
  9.20419752E-19 -6.37846110E-19 -8.84240282E-05 -1.10088026E-17  5.90321611E-18
 -8.61549969E-05 -1.38883914E-17  1.75228031E-17  2.96372980E-04 -2.46407503E-06
 -1.59926588E-19  1.82857631E-19 -1.74330215E-14 -4.98061505E-21  1.49327495E-06
 -9.53465574E-18  7.62336800E-18  2.96936376E-13 -3.39296296E-19 -1.57435030E-03
 -2.37136631E-03 -2.97402145E-03  1.75049476E-04  4.52532591E-19 -1.08980585E-20
  8.94866672E-05  9.55165935E-18 -7.05316912E-18  7.96582040E-05  1.42831872E-17
 -1.86036034E-17  7.37017474E-04 -9.30857921E-06 -3.01928170E-19  5.33530335E-19
 -3.34179695E-14 -5.73163622E-20 -3.48986166E-05 -6.26648972E-18  4.00023984E-18
  4.96817497E-13  1.84876370E-20 -1.84401833E-03 -3.89890715E-03 -2.99646591E-03
 -1.06310479E-04  1.52011899E-18  6.76406166E-19  1.96962214E-06 -4.11603756E-18
  8.76851753E-19  1.78935514E-05  1.68158278E-18  1.69897298E-18  9.68703256E-05
  1.09597284E-05  2.09741261E-05  3.29499306E-05  1.46475240E-06  4.95600601E-21
  3.31996248E-21  1.74552999E-06 -6.11695971E-21 -3.28383115E-20  4.23885254E-06
 -1.03554444E-20 -1.03637792E-19  5.92557896E-06  7.46795443E-07  1.14604972E-22
 -5.87164161E-22  3.48791053E-16 -2.02337663E-22  5.52166208E-07  3.11201522E-21
 -3.85865355E-20 -3.29597908E-15 -1.88606412E-21  2.32276499E-05  3.13343328E-05
 -9.64434904E-06 -1.92281968E-06 -1.40863535E-20  5.45562934E-21 -2.90730105E-07
  2.06063667E-20  3.14629322E-20  2.59555382E-06  7.26713713E-20  1.08398838E-19
  4.86614933E-06 -6.41876818E-07  2.15308621E-21  3.24209491E-21  6.76358315E-17
 -2.80888409E-21 -1.13650745E-06 -5.75545265E-21 -2.53206091E-20 -4.65960585E-15
 -5.71310330E-21 -4.81789789E-06 -1.04373356E-05 -7.99123126E-06  2.29452983E-07
 -6.24641194E-21 -6.72988885E-21  4.75665168E-09  1.42213000E-21 -1.40577512E-20
 -2.19334551E-07 -2.60553768E-20  1.32950067E-20 -1.97306586E-07  1.55217212E-08
 -3.81306123E-17 -5.95632751E-17 -1.08909324E-17 -2.55093374E-18  7.56371284E-33
 -9.64712100E-33 -2.58815935E-18 -1.38431235E-31  9.87290907E-32 -3.61859163E-18
 -1.51299407E-31  3.15145705E-31  7.49681852E-19 -3.57837017E-19 -1.55416503E-33
  3.78194531E-33 -5.46688188E-28  7.72213259E-34 -1.42347354E-19 -1.21443791E-31
  1.31532590E-31  8.70141973E-27 -4.19455445E-33 -4.24505544E-17 -6.21367905E-17
 -4.23908984E-17  4.03041085E-18  1.78476458E-32 -6.38535625E-33  2.08368238E-18
  1.07581881E-31 -1.15177038E-31  5.37249631E-19  9.07988534E-32 -3.28777679E-31
  7.67936258E-18  9.16650730E-20 -6.17794302E-33  5.18330374E-33 -5.76954392E-28
  9.95856217E-34  3.21032827E-19 -7.62478697E-32  7.12983605E-32  1.07625187E-26
  5.05125676E-33 -1.42313568E-17 -2.97331480E-17 -2.31120069E-17 -1.43814271E-18
  2.72825890E-32  1.24699920E-32  3.05980956E-20 -6.29487854E-32  3.81002796E-32
  4.09695300E-19  5.88876129E-32 -6.79653528E-33  1.37618080E-18 -1.20428158E-20
  2.78927812E-32  4.90554741E-17  7.71023800E-17  2.26309173E-17  3.12993090E-18
 -4.43864741E-33  9.31523670E-33  3.25205119E-18  1.27117303E-31 -1.03291319E-31
  4.46568375E-18  1.17389560E-31 -3.46168892E-31  4.36016991E-19  4.17420225E-19
  9.29124239E-34 -4.68529392E-33  7.08059300E-28 -1.44817528E-33  1.19876595E-19
  1.10483772E-31 -1.42098341E-31 -1.17075635E-26  4.29092672E-33  5.34434204E-17
  7.82088628E-17  4.60963385E-17 -4.84669682E-18 -2.37303112E-32  1.02074735E-32
 -2.72854110E-18 -9.13823946E-32  1.20517321E-31 -8.12528225E-19 -1.77792926E-32
  3.57121662E-31 -6.86575999E-18 -9.33247999E-20  7.25694862E-33 -4.18149203E-33
  6.53971329E-28 -1.72582679E-33 -6.87526383E-19  6.82559989E-32 -7.73184557E-32
 -1.27260613E-26 -7.53626671E-33  5.63371673E-18  1.13173047E-17  9.17794310E-18
  1.33121061E-18 -3.07456715E-32 -1.31175132E-32 -3.47725514E-20  6.74020683E-32
 -5.65387359E-32 -4.84310412E-19 -8.21102445E-32  2.94893747E-32 -1.33979813E-18
  1.55293476E-20 -3.19108422E-32  3.88454490E-32  1.31108211E-13  1.17406156E-13
 -1.16457078E-12  1.78335740E-14 -6.56251707E-28  3.56380083E-28  7.48216661E-15
  6.32721129E-27 -2.81373750E-27  1.73204792E-15  9.23665018E-27 -7.24642178E-27
 -2.10372031E-13 -4.20864310E-16  1.22110040E-28 -3.69445287E-29 -4.70586699E-25
  4.54022073E-29  2.27265129E-15  5.57880501E-27 -3.32223221E-27  3.21842523E-23
  1.61513450E-28  1.63781351E-13  2.67406406E-13  1.25169163E-12 -4.24028069E-14
  1.06575298E-28 -2.24368215E-28 -5.05720137E-15 -5.85589821E-27  3.34658173E-27
 -1.54806380E-14 -1.17721596E-26  7.98384859E-27 -4.14366355E-13  3.00786788E-15
  9.09264002E-29 -3.27302686E-28  1.22979067E-23  6.80717598E-29  3.80890233E-14
  3.69478636E-27 -1.72731545E-27 -1.40748189E-22  1.33819009E-28  1.47967111E-12
  3.14308326E-12  2.40158144E-12  6.17826516E-14 -5.71126524E-28 -3.22933520E-28
 -7.23091039E-16  1.81826550E-27  6.97080648E-28 -4.96725545E-15  5.59349696E-28
 -2.28712362E-27 -5.23386816E-14 -7.86830529E-17 -4.78704362E-28  2.82737601E-28
  3.90759306E-23  7.86382469E-18  1.35213505E-17  1.38506780E-17  6.61889344E-19
  2.53890401E-33  8.69026711E-34  7.73096875E-19 -4.76704482E-33 -1.18468704E-32
  1.53448587E-18 -1.50321145E-32 -4.42405083E-32  2.08172627E-18  2.30522597E-19
 -2.07984560E-34 -5.70795192E-34  1.66571093E-28 -3.40280789E-34  1.41836258E-19
 -2.31080992E-33 -1.62245191E-32 -2.21998617E-27 -4.24869240E-34  1.12603176E-17
  1.57531339E-17 -6.25343948E-19 -8.99429142E-19 -6.42055302E-33  3.11347831E-33
 -3.65912600E-19  1.10313510E-32  1.19745903E-32  5.83914859E-19  4.85946660E-32
  4.45816561E-32  1.56610400E-18 -1.75451600E-19  1.09308263E-33  1.23108348E-33
  5.62264053E-29 -1.07049109E-33 -4.61382504E-19 -3.99294658E-33 -1.01069620E-32
 -2.18459796E-27 -2.62055512E-33 -4.67063195E-18 -1.00444183E-17 -7.61862171E-18
  3.41402704E-20 -3.41065440E-33 -2.22456838E-33 -7.60068022E-22  2.90339364E-33
 -1.17811040E-32 -9.44655771E-20 -1.72184641E-32  1.29731185E-32 -5.36653500E-20
  5.76326818E-21 -5.21393480E-33  7.39719140E-33 -9.63302233E-29  2.51227372E-33
  5.96006237E-04  9.43196608E-04  2.53176994E-04  4.27378016E-05 -1.05776429E-19
  1.59748084E-19  4.40796696E-05  2.12224032E-18 -1.61276558E-18  6.80046658E-05
  2.35611403E-18 -5.10630423E-18  6.21966471E-06  7.90782702E-06  2.55951786E-20
 -5.78055102E-20  9.19396110E-15 -1.09636598E-20  4.12926886E-06  1.89335836E-18
 -2.12059530E-18 -1.37572752E-13  5.74477472E-20  7.04155354E-04  1.02157350E-03
  6.06747690E-04 -6.64023568E-05 -3.08041470E-19  1.07715386E-19 -3.13992014E-05
 -1.61165911E-18  1.85784128E-18  1.34524824E-06 -1.30556908E-18  5.33732846E-18
 -1.02573041E-04 -3.60768307E-06  9.94432678E-20 -7.04134652E-20  8.88191241E-15
 -2.32329357E-20 -7.98499042E-06  1.16473756E-18 -1.16397791E-18 -1.76175293E-13
 -9.12505169E-20  2.20744775E-04  4.60952137E-04  3.57854020E-04  2.30319437E-05
 -4.30901577E-19 -2.12425880E-19 -4.42117047E-07  9.57583439E-19 -5.89037349E-19
 -6.85116035E-06 -9.37364796E-19  9.78689444E-20 -2.18123214E-05  2.29666564E-07
 -4.58918423E-19  5.25715180E-19  7.49920842E-15  9.46010100E-20  7.65750487E-06
  1.79613312E-17  2.83896053E-17  1.89380591E-17  7.16616666E-19  7.06422277E-33
 -2.57982919E-33  8.50506757E-19 -4.15356514E-32  8.13949349E-33  6.59405081E-19
 -9.35350281E-32 -1.15643573E-32  1.64111886E-18 -5.26212752E-20 -1.63065010E-33
 -1.46900386E-33  2.31404913E-28 -1.39842787E-33 -1.74665835E-19 -4.04142525E-32
 -3.23094986E-34 -5.10916268E-27  6.41922239E-35  1.52240594E-17  2.27542513E-17
  5.03071112E-18 -9.84160780E-19 -8.42851946E-33  6.82926906E-33 -1.14927795E-18
  4.60236176E-32 -8.13823474E-33 -1.05698742E-18  1.62763319E-31  2.89455417E-33
  1.85531286E-18  1.30962399E-19  1.27082779E-33  2.28666839E-33  9.04945838E-29
 -9.92092361E-34 -5.72789396E-19 -2.64095239E-32  7.89041669E-36 -2.22918334E-27
 -3.91275665E-33 -2.03197276E-17 -4.34091096E-17 -3.29025444E-17 -4.63802631E-19
 -3.28766497E-33  1.36298205E-33 -6.60762503E-21  2.06446044E-33 -3.44038214E-32
 -7.64933135E-20 -4.03812275E-32  4.80539774E-32  2.90038003E-19  3.43554361E-21
 -3.35608026E-33  8.80268659E-33 -4.88156398E-28  3.19893920E-33  5.07144528E-20
  1.12740361E-32 -1.18045409E-17 -1.83966841E-17 -1.93545663E-18 -8.35381449E-19
  3.40436239E-33 -3.68469399E-33 -8.34753020E-19 -5.34616074E-32  3.59189848E-32
 -1.21427665E-18 -6.31683622E-32  1.10970426E-31  4.44447248E-19 -1.30767508E-19
 -7.14058075E-34  1.20285110E-33 -1.71293211E-28  1.37509179E-34 -6.64297484E-20
 -4.72687223E-32  4.67706193E-32  2.59244131E-27 -1.49460056E-33 -1.35808852E-17
 -1.98399583E-17 -1.46490454E-17  1.33547589E-18  5.49910516E-33 -1.59177766E-33
  6.29424396E-19  4.29400484E-32 -4.17881037E-32  9.47752281E-20  4.85590630E-32
 -1.16670335E-31  2.93384148E-18  4.38227390E-20 -2.07254202E-33  2.08170634E-33
 -1.96680470E-28  2.50153323E-34  5.51781488E-20 -2.97998695E-32  2.53585368E-32
  3.60660377E-27  1.40173359E-33 -7.08346228E-18 -1.48941171E-17 -1.14945976E-17
 -5.57788256E-19  9.38965304E-33  4.56269532E-33  1.02755812E-20 -2.22417609E-32
  1.01707167E-32  1.38000628E-19  1.69644726E-32  2.33099757E-33  5.18714456E-19
 -3.91548538E-21  9.58494270E-33 -1.04735901E-32 -2.18861160E-28 -1.52970939E-33
 -1.58057925E-19 -8.04532492E-35  3.39967533E-33 -6.03255963E-14  1.51667084E-12
  2.26158384E-11 -1.94355750E-13  1.20540096E-26 -6.27731044E-27  2.69643737E-15
 -1.12435612E-25  4.80997076E-26  1.35578371E-13 -1.67704738E-25  1.19954760E-25
  3.89349890E-12  1.81169297E-14 -2.25385320E-27  4.58703609E-28  4.06455129E-23
 -9.28599584E-28 -4.52329682E-14 -9.93547787E-26  5.57286675E-26 -1.17093412E-21
 -2.78771306E-27 -6.38693063E-13 -1.41521477E-12 -2.10063550E-11  5.74152789E-13
 -3.03541580E-27  4.67923162E-27 -4.38005426E-14  1.05207438E-25 -5.72114580E-26
  2.07924050E-13  2.19743738E-25 -1.33348824E-25  7.36966590E-12 -5.14549229E-14
 -1.36521443E-27  5.89609536E-27 -1.98364247E-22 -1.32922367E-27 -7.35982823E-13
 -6.59371069E-26  2.88768092E-26  2.05560857E-21 -2.82823935E-27 -2.75093007E-11
 -5.84656260E-11 -4.46444867E-11 -1.09771820E-12  9.24154476E-27  5.50068959E-27
  1.17192288E-14 -3.07353592E-26 -1.58907340E-26  7.15601787E-14 -1.44525327E-26
  4.44401950E-26  9.18801477E-13  2.05528889E-15  7.53018741E-27 -3.52738762E-27
 -7.20192445E-22  2.11370599E-27 -1.17253625E-13  9.60783397E-27  3.63438876E-27
  1.33526756E-20 -4.86154091E-17 -7.35441928E-17 -2.02689879E-18 -2.47104019E-18
  8.11780954E-33 -7.69014574E-33 -2.40591467E-18 -1.43858065E-31  9.03402439E-32
 -1.83749232E-18 -1.31043216E-31  3.11517281E-31  3.90366236E-18  1.09046151E-19
 -7.98509612E-34  4.97242783E-33 -5.52412505E-28  1.61374188E-33  3.06668166E-19
 -1.18128932E-31  1.30480846E-31  1.11602806E-26 -6.29165557E-33 -4.38575939E-17
 -6.62707134E-17 -5.98526709E-17  4.07961133E-18  1.67371153E-32 -7.97845824E-33
  2.96402034E-18  1.14291278E-31 -1.10808535E-31  3.01528173E-18  5.99102365E-32
 -3.19345787E-31  1.12957687E-17 -4.01271151E-19 -6.64665809E-33  6.97989516E-33
 -6.93798345E-28 -1.17584801E-34 -4.28549908E-20 -7.87411832E-32  6.76535445E-32
  1.09762612E-26  4.48376308E-33 -8.05497825E-18 -1.65101678E-17 -1.32516130E-17
 -1.27800197E-18  3.01650506E-32  9.47228685E-33  4.34895676E-20 -7.50594581E-32
  5.62821543E-32  3.84599466E-19  7.64590530E-32 -2.77309542E-32  1.32948106E-18
 -5.90151234E-21  2.70277128E-32 -3.26963869E-32 -3.31100843E-28 -4.21829558E-33
 -4.20776092E-19 -8.38581523E-33  8.79904435E-33  4.61046436E-27  3.31296013E-32
Spin SCF Density                           R   N=        2415
  0.00000000E+00  0.00000000E+00  0.00000000E+00  0.00000000E+00  0.00000000E+00
  0.00000000E+00  0.00000000E+00  0.00000000E+00  0.00000000E+00  0.00000000E+00
  0.00000000E+00  0.00000000E+00  0.00000000E+00  0.00000000E+00  0.00000000E+00
  0.00000000E+00  0.00000000E+00  0.00000000E+00  0.00000000E+00  0.00000000E+00
  0.00000000E+00  0.00000000E+00  0.00000000E+00  0.00000000E+00  0.00000000E+00
  0.00000000E+00  0.00000000E+00  0.00000000E+00  0.00000000E+00  0.00000000E+00
  0.00000000E+00  0.00000000E+00  0.00000000E+00  0.00000000E+00  0.00000000E+00
  0.00000000E+00  0.00000000E+00  0.00000000E+00  0.00000000E+00  0.00000000E+00
  0.00000000E+00  0.00000000E+00  0.00000000E+00  0.00000000E+00  0.00000000E+00
  0.00000000E+00  0.00000000E+00  0.00000000E+00  0.00000000E+00  0.00000000E+00
  0.00000000E+00  0.00000000E+00  0.00000000E+00  0.00000000E+00  0.00000000E+00
  0.00000000E+00  0.00000000E+00  0.00000000E+00  0.00000000E+00  0.00000000E+00
  0.00000000E+00  0.00000000E+00  0.00000000E+00  0.00000000E+00  0.00000000E+00
  0.00000000E+00  0.00000000E+00  0.00000000E+00  0.00000000E+00  0.00000000E+00
  0.00000000E+00  0.00000000E+00  0.00000000E+00  0.00000000E+00  0.00000000E+00
  0.00000000E+00  0.00000000E+00  0.00000000E+00  0.00000000E+00  0.00000000E+00
  0.00000000E+00  0.00000000E+00  0.00000000E+00  0.00000000E+00  0.00000000E+00
  0.00000000E+00  0.00000000E+00  0.00000000E+00  0.00000000E+00  0.00000000E+00
  0.00000000E+00  0.00000000E+00  0.00000000E+00  0.00000000E+00  0.00000000E+00
  0.00000000E+00  0.00000000E+00  0.00000000E+00  0.00000000E+00  0.00000000E+00
  0.00000000E+00  0.00000000E+00  0.00000000E+00  0.00000000E+00  0.00000000E+00
  0.00000000E+00  0.00000000E+00  0.00000000E+00  0.00000000E+00  0.00000000E+00
  0.00000000E+00  0.00000000E+00  0.00000000E+00  0.00000000E+00  0.00000000E+00
  0.00000000E+00  0.00000000E+00  0.00000000E+00  0.00000000E+00  0.00000000E+00
  0.00000000E+00  0.00000000E+00  0.00000000E+00  0.00000000E+00  0.00000000E+00
  0.00000000E+00  0.00000000E+00  0.00000000E+00  0.00000000E+00  0.00000000E+00
  0.00000000E+00  0.00000000E+00  0.00000000E+00  0.00000000E+00  0.00000000E+00
  0.00000000E+00  0.00000000E+00  0.00000000E+00  0.00000000E+00  0.00000000E+00
  0.00000000E+00  0.00000000E+00  0.00000000E+00  0.00000000E+00  0.00000000E+00
  0.00000000E+00  0.00000000E+00  0.00000000E+00  0.00000000E+00  0.00000000E+00
  0.00000000E+00  0.00000000E+00  0.00000000E+00  0.00000000E+00  0.00000000E+00
  0.00000000E+00  0.00000000E+00  0.00000000E+00  0.00000000E+00  0.00000000E+00
  0.00000000E+00  0.00000000E+00  0.00000000E+00  0.00000000E+00  0.00000000E+00
  0.00000000E+00  0.00000000E+00  0.00000000E+00  0.00000000E+00  0.00000000E+00
  0.00000000E+00  0.00000000E+00  0.00000000E+00  0.00000000E+00  0.00000000E+00
  0.00000000E+00  0.00000000E+00  0.00000000E+00  0.00000000E+00  0.00000000E+00
  0.00000000E+00  0.00000000E+00  0.00000000E+00  0.00000000E+00  0.00000000E+00
  0.00000000E+00  0.00000000E+00  0.00000000E+00  0.00000000E+00  0.00000000E+00
  0.00000000E+00  0.00000000E+00  0.00000000E+00  0.00000000E+00  0.00000000E+00
  0.00000000E+00  0.00000000E+00  0.00000000E+00  0.00000000E+00  0.00000000E+00
  0.00000000E+00  0.00000000E+00  0.00000000E+00  0.00000000E+00  0.00000000E+00
  0.00000000E+00  0.00000000E+00  0.00000000E+00  0.00000000E+00  0.00000000E+00
  0.00000000E+00  0.00000000E+00  0.00000000E+00  0.00000000E+00  0.00000000E+00
  0.00000000E+00  0.00000000E+00  0.00000000E+00  0.00000000E+00  0.00000000E+00
  0.00000000E+00  0.00000000E+00  0.00000000E+00  0.00000000E+00  0.00000000E+00
  0.00000000E+00  0.00000000E+00  0.00000000E+00  0.00000000E+00  0.00000000E+00
  0.00000000E+00  0.00000000E+00  0.00000000E+00  0.00000000E+00  0.00000000E+00
  0.00000000E+00  0.00000000E+00  0.00000000E+00  0.00000000E+00  0.00000000E+00
  0.00000000E+00  0.00000000E+00  0.00000000E+00  0.00000000E+00  0.00000000E+00
  0.00000000E+00  0.00000000E+00  0.00000000E+00  0.00000000E+00  0.00000000E+00
  0.00000000E+00  0.00000000E+00  0.00000000E+00  0.00000000E+00  0.00000000E+00
  0.00000000E+00  0.00000000E+00  0.00000000E+00  0.00000000E+00  0.00000000E+00
  0.00000000E+00  0.00000000E+00  0.00000000E+00  0.00000000E+00  0.00000000E+00
  0.00000000E+00  0.00000000E+00  0.00000000E+00  0.00000000E+00  0.00000000E+00
  0.00000000E+00  0.00000000E+00  0.00000000E+00  0.00000000E+00  0.00000000E+00
  0.00000000E+00  0.00000000E+00  0.00000000E+00  0.00000000E+00  0.00000000E+00
  0.00000000E+00  0.00000000E+00  0.00000000E+00  0.00000000E+00  0.00000000E+00
  0.00000000E+00  0.00000000E+00  0.00000000E+00  0.00000000E+00  0.00000000E+00
  0.00000000E+00  0.00000000E+00  0.00000000E+00  0.00000000E+00  0.00000000E+00
  0.00000000E+00  0.00000000E+00  0.00000000E+00  0.00000000E+00  0.00000000E+00
  0.00000000E+00  0.00000000E+00  0.00000000E+00  0.00000000E+00  0.00000000E+00
  0.00000000E+00  0.00000000E+00  0.00000000E+00  0.00000000E+00  0.00000000E+00
  0.00000000E+00  0.00000000E+00  0.00000000E+00  0.00000000E+00  0.00000000E+00
  0.00000000E+00  0.00000000E+00  0.00000000E+00  0.00000000E+00  0.00000000E+00
  0.00000000E+00  0.00000000E+00  0.00000000E+00  0.00000000E+00  0.00000000E+00
  0.00000000E+00  0.00000000E+00  0.00000000E+00  0.00000000E+00  0.00000000E+00
  0.00000000E+00  0.00000000E+00  0.00000000E+00  0.00000000E+00  0.00000000E+00
  0.00000000E+00  0.00000000E+00  0.00000000E+00  0.00000000E+00  0.00000000E+00
  0.00000000E+00  0.00000000E+00  0.00000000E+00  0.00000000E+00  0.00000000E+00
  0.00000000E+00  0.00000000E+00  0.00000000E+00  0.00000000E+00  0.00000000E+00
  0.00000000E+00  0.00000000E+00  0.00000000E+00  0.00000000E+00  0.00000000E+00
  0.00000000E+00  0.00000000E+00  0.00000000E+00  0.00000000E+00  0.00000000E+00
  0.00000000E+00  0.00000000E+00  0.00000000E+00  0.00000000E+00  0.00000000E+00
  0.00000000E+00  0.00000000E+00  0.00000000E+00  0.00000000E+00  0.00000000E+00
  0.00000000E+00  0.00000000E+00  0.00000000E+00  0.00000000E+00  0.00000000E+00
  0.00000000E+00  0.00000000E+00  0.00000000E+00  0.00000000E+00  0.00000000E+00
  0.00000000E+00  0.00000000E+00  0.00000000E+00  0.00000000E+00  0.00000000E+00
  0.00000000E+00  0.00000000E+00  0.00000000E+00  0.00000000E+00  0.00000000E+00
  0.00000000E+00  0.00000000E+00  0.00000000E+00  0.00000000E+00  0.00000000E+00
  0.00000000E+00  0.00000000E+00  0.00000000E+00  0.00000000E+00  0.00000000E+00
  0.00000000E+00  0.00000000E+00  0.00000000E+00  0.00000000E+00  0.00000000E+00
  0.00000000E+00  0.00000000E+00  0.00000000E+00  0.00000000E+00  0.00000000E+00
  0.00000000E+00  0.00000000E+00  0.00000000E+00  0.00000000E+00  0.00000000E+00
  0.00000000E+00  0.00000000E+00  0.00000000E+00  0.00000000E+00  0.00000000E+00
  0.00000000E+00  0.00000000E+00  0.00000000E+00  0.00000000E+00  0.00000000E+00
  0.00000000E+00  0.00000000E+00  0.00000000E+00  0.00000000E+00  0.00000000E+00
  0.00000000E+00  0.00000000E+00  0.00000000E+00  0.00000000E+00  0.00000000E+00
  0.00000000E+00  0.00000000E+00  0.00000000E+00  0.00000000E+00  0.00000000E+00
  0.00000000E+00  0.00000000E+00  0.00000000E+00  0.00000000E+00  0.00000000E+00
  0.00000000E+00  0.00000000E+00  0.00000000E+00  0.00000000E+00  0.00000000E+00
  0.00000000E+00  0.00000000E+00  0.00000000E+00  0.00000000E+00  0.00000000E+00
  0.00000000E+00  0.00000000E+00  0.00000000E+00  0.00000000E+00  0.00000000E+00
  0.00000000E+00  0.00000000E+00  0.00000000E+00  0.00000000E+00  0.00000000E+00
  0.00000000E+00  0.00000000E+00  0.00000000E+00  0.00000000E+00  0.00000000E+00
  0.00000000E+00  0.00000000E+00  0.00000000E+00  0.00000000E+00  0.00000000E+00
  0.00000000E+00  0.00000000E+00  0.00000000E+00  0.00000000E+00  0.00000000E+00
  0.00000000E+00  0.00000000E+00  0.00000000E+00  0.00000000E+00  0.00000000E+00
  0.00000000E+00  0.00000000E+00  0.00000000E+00  0.00000000E+00  0.00000000E+00
  0.00000000E+00  0.00000000E+00  0.00000000E+00  0.00000000E+00  0.00000000E+00
  0.00000000E+00  0.00000000E+00  0.00000000E+00  0.00000000E+00  0.00000000E+00
  0.00000000E+00  0.00000000E+00  0.00000000E+00  0.00000000E+00  0.00000000E+00
  0.00000000E+00  0.00000000E+00  0.00000000E+00  0.00000000E+00  0.00000000E+00
  0.00000000E+00  0.00000000E+00  0.00000000E+00  0.00000000E+00  0.00000000E+00
  0.00000000E+00  0.00000000E+00  0.00000000E+00  0.00000000E+00  0.00000000E+00
  0.00000000E+00  0.00000000E+00  0.00000000E+00  0.00000000E+00  0.00000000E+00
  0.00000000E+00  0.00000000E+00  0.00000000E+00  0.00000000E+00  0.00000000E+00
  0.00000000E+00  0.00000000E+00  0.00000000E+00  0.00000000E+00  0.00000000E+00
  0.00000000E+00  0.00000000E+00  0.00000000E+00  0.00000000E+00  0.00000000E+00
  0.00000000E+00  0.00000000E+00  0.00000000E+00  0.00000000E+00  0.00000000E+00
  0.00000000E+00  0.00000000E+00  0.00000000E+00  0.00000000E+00  0.00000000E+00
  0.00000000E+00  0.00000000E+00  0.00000000E+00  0.00000000E+00  0.00000000E+00
  0.00000000E+00  0.00000000E+00  0.00000000E+00  0.00000000E+00  0.00000000E+00
  0.00000000E+00  0.00000000E+00  0.00000000E+00  0.00000000E+00  0.00000000E+00
  0.00000000E+00  0.00000000E+00  0.00000000E+00  0.00000000E+00  0.00000000E+00
  0.00000000E+00  0.00000000E+00  0.00000000E+00  0.00000000E+00  0.00000000E+00
  0.00000000E+00  0.00000000E+00  0.00000000E+00  0.00000000E+00  0.00000000E+00
  0.00000000E+00  0.00000000E+00  0.00000000E+00  0.00000000E+00  0.00000000E+00
  0.00000000E+00  0.00000000E+00  0.00000000E+00  0.00000000E+00  0.00000000E+00
  0.00000000E+00  0.00000000E+00  0.00000000E+00  0.00000000E+00  0.00000000E+00
  0.00000000E+00  0.00000000E+00  0.00000000E+00  0.00000000E+00  0.00000000E+00
  0.00000000E+00  0.00000000E+00  0.00000000E+00  0.00000000E+00  0.00000000E+00
  0.00000000E+00  0.00000000E+00  0.00000000E+00  0.00000000E+00  0.00000000E+00
  0.00000000E+00  0.00000000E+00  0.00000000E+00  0.00000000E+00  0.00000000E+00
  0.00000000E+00  0.00000000E+00  0.00000000E+00  0.00000000E+00  0.00000000E+00
  0.00000000E+00  0.00000000E+00  0.00000000E+00  0.00000000E+00  0.00000000E+00
  0.00000000E+00  0.00000000E+00  0.00000000E+00  0.00000000E+00  0.00000000E+00
  0.00000000E+00  0.00000000E+00  0.00000000E+00  0.00000000E+00  0.00000000E+00
  0.00000000E+00  0.00000000E+00  0.00000000E+00  0.00000000E+00  0.00000000E+00
  0.00000000E+00  0.00000000E+00  0.00000000E+00  0.00000000E+00  0.00000000E+00
  0.00000000E+00  0.00000000E+00  0.00000000E+00  0.00000000E+00  0.00000000E+00
  0.00000000E+00  0.00000000E+00  0.00000000E+00  0.00000000E+00  0.00000000E+00
  0.00000000E+00  0.00000000E+00  0.00000000E+00  0.00000000E+00  0.00000000E+00
  0.00000000E+00  0.00000000E+00  0.00000000E+00  0.00000000E+00  0.00000000E+00
  0.00000000E+00  0.00000000E+00  0.00000000E+00  0.00000000E+00  0.00000000E+00
  0.00000000E+00  0.00000000E+00  0.00000000E+00  0.00000000E+00  0.00000000E+00
  0.00000000E+00  0.00000000E+00  0.00000000E+00  0.00000000E+00  0.00000000E+00
  0.00000000E+00  0.00000000E+00  0.00000000E+00  0.00000000E+00  0.00000000E+00
  0.00000000E+00  0.00000000E+00  0.00000000E+00  0.00000000E+00  0.00000000E+00
  0.00000000E+00  0.00000000E+00  0.00000000E+00  0.00000000E+00  0.00000000E+00
  0.00000000E+00  0.00000000E+00  0.00000000E+00  0.00000000E+00  0.00000000E+00
  0.00000000E+00  0.00000000E+00  0.00000000E+00  0.00000000E+00  0.00000000E+00
  0.00000000E+00  0.00000000E+00  0.00000000E+00  0.00000000E+00  0.00000000E+00
  0.00000000E+00  0.00000000E+00  0.00000000E+00  0.00000000E+00  0.00000000E+00
  0.00000000E+00  0.00000000E+00  0.00000000E+00  0.00000000E+00  0.00000000E+00
  0.00000000E+00  0.00000000E+00  0.00000000E+00  0.00000000E+00  0.00000000E+00
  0.00000000E+00  0.00000000E+00  0.00000000E+00  0.00000000E+00  0.00000000E+00
  0.00000000E+00  0.00000000E+00  0.00000000E+00  0.00000000E+00  0.00000000E+00
  0.00000000E+00  0.00000000E+00  0.00000000E+00  0.00000000E+00  0.00000000E+00
  0.00000000E+00  0.00000000E+00  0.00000000E+00  0.00000000E+00  0.00000000E+00
  0.00000000E+00  0.00000000E+00  0.00000000E+00  0.00000000E+00  0.00000000E+00
  0.00000000E+00  0.00000000E+00  0.00000000E+00  0.00000000E+00  0.00000000E+00
  0.00000000E+00  0.00000000E+00  0.00000000E+00  0.00000000E+00  0.00000000E+00
  0.00000000E+00  0.00000000E+00  0.00000000E+00  0.00000000E+00  0.00000000E+00
  0.00000000E+00  0.00000000E+00  0.00000000E+00  0.00000000E+00  0.00000000E+00
  0.00000000E+00  0.00000000E+00  0.00000000E+00  0.00000000E+00  0.00000000E+00
  0.00000000E+00  0.00000000E+00  0.00000000E+00  0.00000000E+00  0.00000000E+00
  0.00000000E+00  0.00000000E+00  0.00000000E+00  0.00000000E+00  0.00000000E+00
  0.00000000E+00  0.00000000E+00  0.00000000E+00  0.00000000E+00  0.00000000E+00
  0.00000000E+00  0.00000000E+00  0.00000000E+00  0.00000000E+00  0.00000000E+00
  0.00000000E+00  0.00000000E+00  0.00000000E+00  0.00000000E+00  0.00000000E+00
  0.00000000E+00  0.00000000E+00  0.00000000E+00  0.00000000E+00  0.00000000E+00
  0.00000000E+00  0.00000000E+00  0.00000000E+00  0.00000000E+00  0.00000000E+00
  0.00000000E+00  0.00000000E+00  0.00000000E+00  0.00000000E+00  0.00000000E+00
  0.00000000E+00  0.00000000E+00  0.00000000E+00  0.00000000E+00  0.00000000E+00
  0.00000000E+00  0.00000000E+00  0.00000000E+00  0.00000000E+00  0.00000000E+00
  0.00000000E+00  0.00000000E+00  0.00000000E+00  0.00000000E+00  0.00000000E+00
  0.00000000E+00  0.00000000E+00  0.00000000E+00  0.00000000E+00  0.00000000E+00
  0.00000000E+00  0.00000000E+00  0.00000000E+00  0.00000000E+00  0.00000000E+00
  0.00000000E+00  0.00000000E+00  0.00000000E+00  0.00000000E+00  0.00000000E+00
  0.00000000E+00  0.00000000E+00  0.00000000E+00  0.00000000E+00  0.00000000E+00
  0.00000000E+00  0.00000000E+00  0.00000000E+00  0.00000000E+00  0.00000000E+00
  0.00000000E+00  0.00000000E+00  0.00000000E+00  0.00000000E+00  0.00000000E+00
  0.00000000E+00  0.00000000E+00  0.00000000E+00  0.00000000E+00  0.00000000E+00
  0.00000000E+00  0.00000000E+00  0.00000000E+00  0.00000000E+00  0.00000000E+00
  0.00000000E+00  0.00000000E+00  0.00000000E+00  0.00000000E+00  0.00000000E+00
  0.00000000E+00  0.00000000E+00  0.00000000E+00  0.00000000E+00  0.00000000E+00
  0.00000000E+00  0.00000000E+00  0.00000000E+00  0.00000000E+00  0.00000000E+00
  0.00000000E+00  0.00000000E+00  0.00000000E+00  0.00000000E+00  0.00000000E+00
  0.00000000E+00  0.00000000E+00  0.00000000E+00  0.00000000E+00  0.00000000E+00
  0.00000000E+00  0.00000000E+00  0.00000000E+00  0.00000000E+00  0.00000000E+00
  0.00000000E+00  0.00000000E+00  0.00000000E+00  0.00000000E+00  0.00000000E+00
  0.00000000E+00  0.00000000E+00  0.00000000E+00  0.00000000E+00  0.00000000E+00
  0.00000000E+00  0.00000000E+00  0.00000000E+00  0.00000000E+00  0.00000000E+00
  0.00000000E+00  0.00000000E+00  0.00000000E+00  0.00000000E+00  0.00000000E+00
  0.00000000E+00  0.00000000E+00  0.00000000E+00  0.00000000E+00  0.00000000E+00
  0.00000000E+00  0.00000000E+00  0.00000000E+00  0.00000000E+00  0.00000000E+00
  0.00000000E+00  0.00000000E+00  0.00000000E+00  0.00000000E+00  0.00000000E+00
  0.00000000E+00  0.00000000E+00  0.00000000E+00  0.00000000E+00  0.00000000E+00
  0.00000000E+00  0.00000000E+00  0.00000000E+00  0.00000000E+00  0.00000000E+00
  0.00000000E+00  0.00000000E+00  0.00000000E+00  0.00000000E+00  0.00000000E+00
  0.00000000E+00  0.00000000E+00  0.00000000E+00  0.00000000E+00  0.00000000E+00
  0.00000000E+00  0.00000000E+00  0.00000000E+00  0.00000000E+00  0.00000000E+00
  0.00000000E+00  0.00000000E+00  0.00000000E+00  0.00000000E+00  0.00000000E+00
  0.00000000E+00  0.00000000E+00  0.00000000E+00  0.00000000E+00  0.00000000E+00
  0.00000000E+00  0.00000000E+00  0.00000000E+00  0.00000000E+00  0.00000000E+00
  0.00000000E+00  0.00000000E+00  0.00000000E+00  0.00000000E+00  0.00000000E+00
  0.00000000E+00  0.00000000E+00  0.00000000E+00  0.00000000E+00  0.00000000E+00
  0.00000000E+00  0.00000000E+00  0.00000000E+00  0.00000000E+00  0.00000000E+00
  0.00000000E+00  0.00000000E+00  0.00000000E+00  0.00000000E+00  0.00000000E+00
  0.00000000E+00  0.00000000E+00  0.00000000E+00  0.00000000E+00  0.00000000E+00
  0.00000000E+00  0.00000000E+00  0.00000000E+00  0.00000000E+00  0.00000000E+00
  0.00000000E+00  0.00000000E+00  0.00000000E+00  0.00000000E+00  0.00000000E+00
  0.00000000E+00  0.00000000E+00  0.00000000E+00  0.00000000E+00  0.00000000E+00
  0.00000000E+00  0.00000000E+00  0.00000000E+00  0.00000000E+00  0.00000000E+00
  0.00000000E+00  0.00000000E+00  0.00000000E+00  0.00000000E+00  0.00000000E+00
  0.00000000E+00  0.00000000E+00  0.00000000E+00  0.00000000E+00  0.00000000E+00
  0.00000000E+00  0.00000000E+00  0.00000000E+00  0.00000000E+00  0.00000000E+00
  0.00000000E+00  0.00000000E+00  0.00000000E+00  0.00000000E+00  0.00000000E+00
  0.00000000E+00  0.00000000E+00  0.00000000E+00  0.00000000E+00  0.00000000E+00
  0.00000000E+00  0.00000000E+00  0.00000000E+00  0.00000000E+00  0.00000000E+00
  0.00000000E+00  0.00000000E+00  0.00000000E+00  0.00000000E+00  0.00000000E+00
  0.00000000E+00  0.00000000E+00  0.00000000E+00  0.00000000E+00  0.00000000E+00
  0.00000000E+00  0.00000000E+00  0.00000000E+00  0.00000000E+00  0.00000000E+00
  0.00000000E+00  0.00000000E+00  0.00000000E+00  0.00000000E+00  0.00000000E+00
  0.00000000E+00  0.00000000E+00  0.00000000E+00  0.00000000E+00  0.00000000E+00
  0.00000000E+00  0.00000000E+00  0.00000000E+00  0.00000000E+00  0.00000000E+00
  0.00000000E+00  0.00000000E+00  0.00000000E+00  0.00000000E+00  0.00000000E+00
  0.00000000E+00  0.00000000E+00  0.00000000E+00  0.00000000E+00  0.00000000E+00
  0.00000000E+00  0.00000000E+00  0.00000000E+00  0.00000000E+00  0.00000000E+00
  0.00000000E+00  0.00000000E+00  0.00000000E+00  0.00000000E+00  0.00000000E+00
  0.00000000E+00  0.00000000E+00  0.00000000E+00  0.00000000E+00  0.00000000E+00
  0.00000000E+00  0.00000000E+00  0.00000000E+00  0.00000000E+00  0.00000000E+00
  0.00000000E+00  0.00000000E+00  0.00000000E+00  0.00000000E+00  0.00000000E+00
  0.00000000E+00  0.00000000E+00  0.00000000E+00  0.00000000E+00  0.00000000E+00
  0.00000000E+00  0.00000000E+00  0.00000000E+00  0.00000000E+00  0.00000000E+00
  0.00000000E+00  0.00000000E+00  0.00000000E+00  0.00000000E+00  0.00000000E+00
  0.00000000E+00  0.00000000E+00  0.00000000E+00  0.00000000E+00  0.00000000E+00
  0.00000000E+00  0.00000000E+00  0.00000000E+00  0.00000000E+00  0.00000000E+00
  0.00000000E+00  0.00000000E+00  0.00000000E+00  0.00000000E+00  0.00000000E+00
  0.00000000E+00  0.00000000E+00  0.00000000E+00  0.00000000E+00  0.00000000E+00
  0.00000000E+00  0.00000000E+00  0.00000000E+00  0.00000000E+00  0.00000000E+00
  0.00000000E+00  0.00000000E+00  0.00000000E+00  0.00000000E+00  0.00000000E+00
  0.00000000E+00  0.00000000E+00  0.00000000E+00  0.00000000E+00  0.00000000E+00
  0.00000000E+00  0.00000000E+00  0.00000000E+00  0.00000000E+00  0.00000000E+00
  0.00000000E+00  0.00000000E+00  0.00000000E+00  0.00000000E+00  0.00000000E+00
  0.00000000E+00  0.00000000E+00  0.00000000E+00  0.00000000E+00  0.00000000E+00
  0.00000000E+00  0.00000000E+00  0.00000000E+00  0.00000000E+00  0.00000000E+00
  0.00000000E+00  0.00000000E+00  0.00000000E+00  0.00000000E+00  0.00000000E+00
  0.00000000E+00  0.00000000E+00  0.00000000E+00  0.00000000E+00  0.00000000E+00
  0.00000000E+00  0.00000000E+00  0.00000000E+00  0.00000000E+00  0.00000000E+00
  0.00000000E+00  0.00000000E+00  0.00000000E+00  0.00000000E+00  0.00000000E+00
  0.00000000E+00  0.00000000E+00  0.00000000E+00  0.00000000E+00  0.00000000E+00
  0.00000000E+00  0.00000000E+00  0.00000000E+00  0.00000000E+00  0.00000000E+00
  0.00000000E+00  0.00000000E+00  0.00000000E+00  0.00000000E+00  0.00000000E+00
  0.00000000E+00  0.00000000E+00  0.00000000E+00  0.00000000E+00  0.00000000E+00
  0.00000000E+00  0.00000000E+00  0.00000000E+00  0.00000000E+00  0.00000000E+00
  0.00000000E+00  0.00000000E+00  0.00000000E+00  0.00000000E+00  0.00000000E+00
  0.00000000E+00  0.00000000E+00  0.00000000E+00  0.00000000E+00  0.00000000E+00
  0.00000000E+00  0.00000000E+00  0.00000000E+00  0.00000000E+00  0.00000000E+00
  0.00000000E+00  0.00000000E+00  0.00000000E+00  0.00000000E+00  0.00000000E+00
  0.00000000E+00  0.00000000E+00  0.00000000E+00  0.00000000E+00  0.00000000E+00
  0.00000000E+00  0.00000000E+00  0.00000000E+00  0.00000000E+00  0.00000000E+00
  0.00000000E+00  0.00000000E+00  0.00000000E+00  0.00000000E+00  0.00000000E+00
  0.00000000E+00  0.00000000E+00  0.00000000E+00  0.00000000E+00  0.00000000E+00
  0.00000000E+00  0.00000000E+00  0.00000000E+00  0.00000000E+00  0.00000000E+00
  0.00000000E+00  0.00000000E+00  0.00000000E+00  0.00000000E+00  0.00000000E+00
  0.00000000E+00  0.00000000E+00  0.00000000E+00  0.00000000E+00  0.00000000E+00
  0.00000000E+00  0.00000000E+00  0.00000000E+00  0.00000000E+00  0.00000000E+00
  0.00000000E+00  0.00000000E+00  0.00000000E+00  0.00000000E+00  0.00000000E+00
  0.00000000E+00  0.00000000E+00  0.00000000E+00  0.00000000E+00  0.00000000E+00
  0.00000000E+00  0.00000000E+00  0.00000000E+00  0.00000000E+00  0.00000000E+00
  0.00000000E+00  0.00000000E+00  0.00000000E+00  0.00000000E+00  0.00000000E+00
  0.00000000E+00  0.00000000E+00  0.00000000E+00  0.00000000E+00  0.00000000E+00
  0.00000000E+00  0.00000000E+00  0.00000000E+00  0.00000000E+00  0.00000000E+00
  0.00000000E+00  0.00000000E+00  0.00000000E+00  0.00000000E+00  0.00000000E+00
  0.00000000E+00  0.00000000E+00  0.00000000E+00  0.00000000E+00  0.00000000E+00
  0.00000000E+00  0.00000000E+00  0.00000000E+00  0.00000000E+00  0.00000000E+00
  0.00000000E+00  0.00000000E+00  0.00000000E+00  0.00000000E+00  0.00000000E+00
  0.00000000E+00  0.00000000E+00  0.00000000E+00  0.00000000E+00  0.00000000E+00
  0.00000000E+00  0.00000000E+00  0.00000000E+00  0.00000000E+00  0.00000000E+00
  0.00000000E+00  0.00000000E+00  0.00000000E+00  0.00000000E+00  0.00000000E+00
  0.00000000E+00  0.00000000E+00  0.00000000E+00  0.00000000E+00  0.00000000E+00
  0.00000000E+00  0.00000000E+00  0.00000000E+00  0.00000000E+00  0.00000000E+00
  0.00000000E+00  0.00000000E+00  0.00000000E+00  0.00000000E+00  0.00000000E+00
  0.00000000E+00  0.00000000E+00  0.00000000E+00  0.00000000E+00  0.00000000E+00
  0.00000000E+00  0.00000000E+00  0.00000000E+00  0.00000000E+00  0.00000000E+00
  0.00000000E+00  0.00000000E+00  0.00000000E+00  0.00000000E+00  0.00000000E+00
  0.00000000E+00  0.00000000E+00  0.00000000E+00  0.00000000E+00  0.00000000E+00
  0.00000000E+00  0.00000000E+00  0.00000000E+00  0.00000000E+00  0.00000000E+00
  0.00000000E+00  0.00000000E+00  0.00000000E+00  0.00000000E+00  0.00000000E+00
  0.00000000E+00  0.00000000E+00  0.00000000E+00  0.00000000E+00  0.00000000E+00
  0.00000000E+00  0.00000000E+00  0.00000000E+00  0.00000000E+00  0.00000000E+00
  0.00000000E+00  0.00000000E+00  0.00000000E+00  0.00000000E+00  0.00000000E+00
  0.00000000E+00  0.00000000E+00  0.00000000E+00  0.00000000E+00  0.00000000E+00
  0.00000000E+00  0.00000000E+00  0.00000000E+00  0.00000000E+00  0.00000000E+00
  0.00000000E+00  0.00000000E+00  0.00000000E+00  0.00000000E+00  0.00000000E+00
  0.00000000E+00  0.00000000E+00  0.00000000E+00  0.00000000E+00  0.00000000E+00
  0.00000000E+00  0.00000000E+00  0.00000000E+00  0.00000000E+00  0.00000000E+00
  0.00000000E+00  0.00000000E+00  0.00000000E+00  0.00000000E+00  0.00000000E+00
  0.00000000E+00  0.00000000E+00  0.00000000E+00  0.00000000E+00  0.00000000E+00
  0.00000000E+00  0.00000000E+00  0.00000000E+00  0.00000000E+00  0.00000000E+00
  0.00000000E+00  0.00000000E+00  0.00000000E+00  0.00000000E+00  0.00000000E+00
  0.00000000E+00  0.00000000E+00  0.00000000E+00  0.00000000E+00  0.00000000E+00
  0.00000000E+00  0.00000000E+00  0.00000000E+00  0.00000000E+00  0.00000000E+00
  0.00000000E+00  0.00000000E+00  0.00000000E+00  0.00000000E+00  0.00000000E+00
  0.00000000E+00  0.00000000E+00  0.00000000E+00  0.00000000E+00  0.00000000E+00
  0.00000000E+00  0.00000000E+00  0.00000000E+00  0.00000000E+00  0.00000000E+00
  0.00000000E+00  0.00000000E+00  0.00000000E+00  0.00000000E+00  0.00000000E+00
  0.00000000E+00  0.00000000E+00  0.00000000E+00  0.00000000E+00  0.00000000E+00
  0.00000000E+00  0.00000000E+00  0.00000000E+00  0.00000000E+00  0.00000000E+00
  0.00000000E+00  0.00000000E+00  0.00000000E+00  0.00000000E+00  0.00000000E+00
  0.00000000E+00  0.00000000E+00  0.00000000E+00  0.00000000E+00  0.00000000E+00
  0.00000000E+00  0.00000000E+00  0.00000000E+00  0.00000000E+00  0.00000000E+00
  0.00000000E+00  0.00000000E+00  0.00000000E+00  0.00000000E+00  0.00000000E+00
  0.00000000E+00  0.00000000E+00  0.00000000E+00  0.00000000E+00  0.00000000E+00
  0.00000000E+00  0.00000000E+00  0.00000000E+00  0.00000000E+00  0.00000000E+00
  0.00000000E+00  0.00000000E+00  0.00000000E+00  0.00000000E+00  0.00000000E+00
  0.00000000E+00  0.00000000E+00  0.00000000E+00  0.00000000E+00  0.00000000E+00
  0.00000000E+00  0.00000000E+00  0.00000000E+00  0.00000000E+00  0.00000000E+00
  0.00000000E+00  0.00000000E+00  0.00000000E+00  0.00000000E+00  0.00000000E+00
  0.00000000E+00  0.00000000E+00  0.00000000E+00  0.00000000E+00  0.00000000E+00
  0.00000000E+00  0.00000000E+00  0.00000000E+00  0.00000000E+00  0.00000000E+00
  0.00000000E+00  0.00000000E+00  0.00000000E+00  0.00000000E+00  0.00000000E+00
  0.00000000E+00  0.00000000E+00  0.00000000E+00  0.00000000E+00  0.00000000E+00
  0.00000000E+00  0.00000000E+00  0.00000000E+00  0.00000000E+00  0.00000000E+00
  0.00000000E+00  0.00000000E+00  0.00000000E+00  0.00000000E+00  0.00000000E+00
  0.00000000E+00  0.00000000E+00  0.00000000E+00  0.00000000E+00  0.00000000E+00
  0.00000000E+00  0.00000000E+00  0.00000000E+00  0.00000000E+00  0.00000000E+00
  0.00000000E+00  0.00000000E+00  0.00000000E+00  0.00000000E+00  0.00000000E+00
  0.00000000E+00  0.00000000E+00  0.00000000E+00  0.00000000E+00  0.00000000E+00
  0.00000000E+00  0.00000000E+00  0.00000000E+00  0.00000000E+00  0.00000000E+00
  0.00000000E+00  0.00000000E+00  0.00000000E+00  0.00000000E+00  0.00000000E+00
  0.00000000E+00  0.00000000E+00  0.00000000E+00  0.00000000E+00  0.00000000E+00
  0.00000000E+00  0.00000000E+00  0.00000000E+00  0.00000000E+00  0.00000000E+00
  0.00000000E+00  0.00000000E+00  0.00000000E+00  0.00000000E+00  0.00000000E+00
  0.00000000E+00  0.00000000E+00  0.00000000E+00  0.00000000E+00  0.00000000E+00
  0.00000000E+00  0.00000000E+00  0.00000000E+00  0.00000000E+00  0.00000000E+00
  0.00000000E+00  0.00000000E+00  0.00000000E+00  0.00000000E+00  0.00000000E+00
  0.00000000E+00  0.00000000E+00  0.00000000E+00  0.00000000E+00  0.00000000E+00
  0.00000000E+00  0.00000000E+00  0.00000000E+00  0.00000000E+00  0.00000000E+00
  0.00000000E+00  0.00000000E+00  0.00000000E+00  0.00000000E+00  0.00000000E+00
  0.00000000E+00  0.00000000E+00  0.00000000E+00  0.00000000E+00  0.00000000E+00
  0.00000000E+00  0.00000000E+00  0.00000000E+00  0.00000000E+00  0.00000000E+00
  0.00000000E+00  0.00000000E+00  0.00000000E+00  0.00000000E+00  0.00000000E+00
  0.00000000E+00  0.00000000E+00  0.00000000E+00  0.00000000E+00  0.00000000E+00
  0.00000000E+00  0.00000000E+00  0.00000000E+00  0.00000000E+00  0.00000000E+00
  0.00000000E+00  0.00000000E+00  0.00000000E+00  0.00000000E+00  0.00000000E+00
  0.00000000E+00  0.00000000E+00  0.00000000E+00  0.00000000E+00  0.00000000E+00
  0.00000000E+00  0.00000000E+00  0.00000000E+00  0.00000000E+00  0.00000000E+00
  0.00000000E+00  0.00000000E+00  0.00000000E+00  0.00000000E+00  0.00000000E+00
  0.00000000E+00  0.00000000E+00  0.00000000E+00  0.00000000E+00  0.00000000E+00
  0.00000000E+00  0.00000000E+00  0.00000000E+00  0.00000000E+00  0.00000000E+00
  0.00000000E+00  0.00000000E+00  0.00000000E+00  0.00000000E+00  0.00000000E+00
  0.00000000E+00  0.00000000E+00  0.00000000E+00  0.00000000E+00  0.00000000E+00
  0.00000000E+00  0.00000000E+00  0.00000000E+00  0.00000000E+00  0.00000000E+00
  0.00000000E+00  0.00000000E+00  0.00000000E+00  0.00000000E+00  0.00000000E+00
  0.00000000E+00  0.00000000E+00  0.00000000E+00  0.00000000E+00  0.00000000E+00
  0.00000000E+00  0.00000000E+00  0.00000000E+00  0.00000000E+00  0.00000000E+00
  0.00000000E+00  0.00000000E+00  0.00000000E+00  0.00000000E+00  0.00000000E+00
  0.00000000E+00  0.00000000E+00  0.00000000E+00  0.00000000E+00  0.00000000E+00
  0.00000000E+00  0.00000000E+00  0.00000000E+00  0.00000000E+00  0.00000000E+00
  0.00000000E+00  0.00000000E+00  0.00000000E+00  0.00000000E+00  0.00000000E+00
  0.00000000E+00  0.00000000E+00  0.00000000E+00  0.00000000E+00  0.00000000E+00
  0.00000000E+00  0.00000000E+00  0.00000000E+00  0.00000000E+00  0.00000000E+00
  0.00000000E+00  0.00000000E+00  0.00000000E+00  0.00000000E+00  0.00000000E+00
  0.00000000E+00  0.00000000E+00  0.00000000E+00  0.00000000E+00  0.00000000E+00
  0.00000000E+00  0.00000000E+00  0.00000000E+00  0.00000000E+00  0.00000000E+00
  0.00000000E+00  0.00000000E+00  0.00000000E+00  0.00000000E+00  0.00000000E+00
  0.00000000E+00  0.00000000E+00  0.00000000E+00  0.00000000E+00  0.00000000E+00
  0.00000000E+00  0.00000000E+00  0.00000000E+00  0.00000000E+00  0.00000000E+00
  0.00000000E+00  0.00000000E+00  0.00000000E+00  0.00000000E+00  0.00000000E+00
  0.00000000E+00  0.00000000E+00  0.00000000E+00  0.00000000E+00  0.00000000E+00
  0.00000000E+00  0.00000000E+00  0.00000000E+00  0.00000000E+00  0.00000000E+00
  0.00000000E+00  0.00000000E+00  0.00000000E+00  0.00000000E+00  0.00000000E+00
  0.00000000E+00  0.00000000E+00  0.00000000E+00  0.00000000E+00  0.00000000E+00
  0.00000000E+00  0.00000000E+00  0.00000000E+00  0.00000000E+00  0.00000000E+00
  0.00000000E+00  0.00000000E+00  0.00000000E+00  0.00000000E+00  0.00000000E+00
  0.00000000E+00  0.00000000E+00  0.00000000E+00  0.00000000E+00  0.00000000E+00
  0.00000000E+00  0.00000000E+00  0.00000000E+00  0.00000000E+00  0.00000000E+00
  0.00000000E+00  0.00000000E+00  0.00000000E+00  0.00000000E+00  0.00000000E+00
  0.00000000E+00  0.00000000E+00  0.00000000E+00  0.00000000E+00  0.00000000E+00
  0.00000000E+00  0.00000000E+00  0.00000000E+00  0.00000000E+00  0.00000000E+00
  0.00000000E+00  0.00000000E+00  0.00000000E+00  0.00000000E+00  0.00000000E+00
  0.00000000E+00  0.00000000E+00  0.00000000E+00  0.00000000E+00  0.00000000E+00
  0.00000000E+00  0.00000000E+00  0.00000000E+00  0.00000000E+00  0.00000000E+00
  0.00000000E+00  0.00000000E+00  0.00000000E+00  0.00000000E+00  0.00000000E+00
  0.00000000E+00  0.00000000E+00  0.00000000E+00  0.00000000E+00  0.00000000E+00
  0.00000000E+00  0.00000000E+00  0.00000000E+00  0.00000000E+00  0.00000000E+00
  0.00000000E+00  0.00000000E+00  0.00000000E+00  0.00000000E+00  0.00000000E+00
  0.00000000E+00  0.00000000E+00  0.00000000E+00  0.00000000E+00  0.00000000E+00
  0.00000000E+00  0.00000000E+00  0.00000000E+00  0.00000000E+00  0.00000000E+00
  0.00000000E+00  0.00000000E+00  0.00000000E+00  0.00000000E+00  0.00000000E+00
  0.00000000E+00  0.00000000E+00  0.00000000E+00  0.00000000E+00  0.00000000E+00
  0.00000000E+00  0.00000000E+00  0.00000000E+00  0.00000000E+00  0.00000000E+00
  0.00000000E+00  0.00000000E+00  0.00000000E+00  0.00000000E+00  0.00000000E+00
  0.00000000E+00  0.00000000E+00  0.00000000E+00  0.00000000E+00  0.00000000E+00
  0.00000000E+00  0.00000000E+00  0.00000000E+00  0.00000000E+00  0.00000000E+00
  0.00000000E+00  0.00000000E+00  0.00000000E+00  0.00000000E+00  0.00000000E+00
  0.00000000E+00  0.00000000E+00  0.00000000E+00  0.00000000E+00  0.00000000E+00
  0.00000000E+00  0.00000000E+00  0.00000000E+00  0.00000000E+00  0.00000000E+00
  0.00000000E+00  0.00000000E+00  0.00000000E+00  0.00000000E+00  0.00000000E+00
  0.00000000E+00  0.00000000E+00  0.00000000E+00  0.00000000E+00  0.00000000E+00
  0.00000000E+00  0.00000000E+00  0.00000000E+00  0.00000000E+00  0.00000000E+00
  0.00000000E+00  0.00000000E+00  0.00000000E+00  0.00000000E+00  0.00000000E+00
  0.00000000E+00  0.00000000E+00  0.00000000E+00  0.00000000E+00  0.00000000E+00
  0.00000000E+00  0.00000000E+00  0.00000000E+00  0.00000000E+00  0.00000000E+00
  0.00000000E+00  0.00000000E+00  0.00000000E+00  0.00000000E+00  0.00000000E+00
  0.00000000E+00  0.00000000E+00  0.00000000E+00  0.00000000E+00  0.00000000E+00
  0.00000000E+00  0.00000000E+00  0.00000000E+00  0.00000000E+00  0.00000000E+00
  0.00000000E+00  0.00000000E+00  0.00000000E+00  0.00000000E+00  0.00000000E+00
  0.00000000E+00  0.00000000E+00  0.00000000E+00  0.00000000E+00  0.00000000E+00
  0.00000000E+00  0.00000000E+00  0.00000000E+00  0.00000000E+00  0.00000000E+00
  0.00000000E+00  0.00000000E+00  0.00000000E+00  0.00000000E+00  0.00000000E+00
  0.00000000E+00  0.00000000E+00  0.00000000E+00  0.00000000E+00  0.00000000E+00
  0.00000000E+00  0.00000000E+00  0.00000000E+00  0.00000000E+00  0.00000000E+00
  0.00000000E+00  0.00000000E+00  0.00000000E+00  0.00000000E+00  0.00000000E+00
  0.00000000E+00  0.00000000E+00  0.00000000E+00  0.00000000E+00  0.00000000E+00
  0.00000000E+00  0.00000000E+00  0.00000000E+00  0.00000000E+00  0.00000000E+00
  0.00000000E+00  0.00000000E+00  0.00000000E+00  0.00000000E+00  0.00000000E+00
  0.00000000E+00  0.00000000E+00  0.00000000E+00  0.00000000E+00  0.00000000E+00
  0.00000000E+00  0.00000000E+00  0.00000000E+00  0.00000000E+00  0.00000000E+00
  0.00000000E+00  0.00000000E+00  0.00000000E+00  0.00000000E+00  0.00000000E+00
  0.00000000E+00  0.00000000E+00  0.00000000E+00  0.00000000E+00  0.00000000E+00
  0.00000000E+00  0.00000000E+00  0.00000000E+00  0.00000000E+00  0.00000000E+00
  0.00000000E+00  0.00000000E+00  0.00000000E+00  0.00000000E+00  0.00000000E+00
  0.00000000E+00  0.00000000E+00  0.00000000E+00  0.00000000E+00  0.00000000E+00
  0.00000000E+00  0.00000000E+00  0.00000000E+00  0.00000000E+00  0.00000000E+00
  0.00000000E+00  0.00000000E+00  0.00000000E+00  0.00000000E+00  0.00000000E+00
  0.00000000E+00  0.00000000E+00  0.00000000E+00  0.00000000E+00  0.00000000E+00
  0.00000000E+00  0.00000000E+00  0.00000000E+00  0.00000000E+00  0.00000000E+00
  0.00000000E+00  0.00000000E+00  0.00000000E+00  0.00000000E+00  0.00000000E+00
  0.00000000E+00  0.00000000E+00  0.00000000E+00  0.00000000E+00  0.00000000E+00
  0.00000000E+00  0.00000000E+00  0.00000000E+00  0.00000000E+00  0.00000000E+00
  0.00000000E+00  0.00000000E+00  0.00000000E+00  0.00000000E+00  0.00000000E+00
  0.00000000E+00  0.00000000E+00  0.00000000E+00  0.00000000E+00  0.00000000E+00
  0.00000000E+00  0.00000000E+00  0.00000000E+00  0.00000000E+00  0.00000000E+00
  0.00000000E+00  0.00000000E+00  0.00000000E+00  0.00000000E+00  0.00000000E+00
  0.00000000E+00  0.00000000E+00  0.00000000E+00  0.00000000E+00  0.00000000E+00
  0.00000000E+00  0.00000000E+00  0.00000000E+00  0.00000000E+00  0.00000000E+00
  0.00000000E+00  0.00000000E+00  0.00000000E+00  0.00000000E+00  0.00000000E+00
  0.00000000E+00  0.00000000E+00  0.00000000E+00  0.00000000E+00  0.00000000E+00
  0.00000000E+00  0.00000000E+00  0.00000000E+00  0.00000000E+00  0.00000000E+00
  0.00000000E+00  0.00000000E+00  0.00000000E+00  0.00000000E+00  0.00000000E+00
  0.00000000E+00  0.00000000E+00  0.00000000E+00  0.00000000E+00  0.00000000E+00
  0.00000000E+00  0.00000000E+00  0.00000000E+00  0.00000000E+00  0.00000000E+00
  0.00000000E+00  0.00000000E+00  0.00000000E+00  0.00000000E+00  0.00000000E+00
  0.00000000E+00  0.00000000E+00  0.00000000E+00  0.00000000E+00  0.00000000E+00
  0.00000000E+00  0.00000000E+00  0.00000000E+00  0.00000000E+00  0.00000000E+00
  0.00000000E+00  0.00000000E+00  0.00000000E+00  0.00000000E+00  0.00000000E+00
  0.00000000E+00  0.00000000E+00  0.00000000E+00  0.00000000E+00  0.00000000E+00
  0.00000000E+00  0.00000000E+00  0.00000000E+00  0.00000000E+00  0.00000000E+00
  0.00000000E+00  0.00000000E+00  0.00000000E+00  0.00000000E+00  0.00000000E+00
  0.00000000E+00  0.00000000E+00  0.00000000E+00  0.00000000E+00  0.00000000E+00
  0.00000000E+00  0.00000000E+00  0.00000000E+00  0.00000000E+00  0.00000000E+00
  0.00000000E+00  0.00000000E+00  0.00000000E+00  0.00000000E+00  0.00000000E+00
  0.00000000E+00  0.00000000E+00  0.00000000E+00  0.00000000E+00  0.00000000E+00
  0.00000000E+00  0.00000000E+00  0.00000000E+00  0.00000000E+00  0.00000000E+00
  0.00000000E+00  0.00000000E+00  0.00000000E+00  0.00000000E+00  0.00000000E+00
  0.00000000E+00  0.00000000E+00  0.00000000E+00  0.00000000E+00  0.00000000E+00
  0.00000000E+00  0.00000000E+00  0.00000000E+00  0.00000000E+00  0.00000000E+00
  0.00000000E+00  0.00000000E+00  0.00000000E+00  0.00000000E+00  0.00000000E+00
  0.00000000E+00  0.00000000E+00  0.00000000E+00  0.00000000E+00  0.00000000E+00
  0.00000000E+00  0.00000000E+00  0.00000000E+00  0.00000000E+00  0.00000000E+00
  0.00000000E+00  0.00000000E+00  0.00000000E+00  0.00000000E+00  0.00000000E+00
  0.00000000E+00  0.00000000E+00  0.00000000E+00  0.00000000E+00  0.00000000E+00
  0.00000000E+00  0.00000000E+00  0.00000000E+00  0.00000000E+00  0.00000000E+00
  0.00000000E+00  0.00000000E+00  0.00000000E+00  0.00000000E+00  0.00000000E+00
  0.00000000E+00  0.00000000E+00  0.00000000E+00  0.00000000E+00  0.00000000E+00
  0.00000000E+00  0.00000000E+00  0.00000000E+00  0.00000000E+00  0.00000000E+00
  0.00000000E+00  0.00000000E+00  0.00000000E+00  0.00000000E+00  0.00000000E+00
  0.00000000E+00  0.00000000E+00  0.00000000E+00  0.00000000E+00  0.00000000E+00
  0.00000000E+00  0.00000000E+00  0.00000000E+00  0.00000000E+00  0.00000000E+00
  0.00000000E+00  0.00000000E+00  0.00000000E+00  0.00000000E+00  0.00000000E+00
  0.00000000E+00  0.00000000E+00  0.00000000E+00  0.00000000E+00  0.00000000E+00
  0.00000000E+00  0.00000000E+00  0.00000000E+00  0.00000000E+00  0.00000000E+00
  0.00000000E+00  0.00000000E+00  0.00000000E+00  0.00000000E+00  0.00000000E+00
  0.00000000E+00  0.00000000E+00  0.00000000E+00  0.00000000E+00  0.00000000E+00
  0.00000000E+00  0.00000000E+00  0.00000000E+00  0.00000000E+00  0.00000000E+00
  0.00000000E+00  0.00000000E+00  0.00000000E+00  0.00000000E+00  0.00000000E+00
  0.00000000E+00  0.00000000E+00  0.00000000E+00  0.00000000E+00  0.00000000E+00
  0.00000000E+00  0.00000000E+00  0.00000000E+00  0.00000000E+00  0.00000000E+00
  0.00000000E+00  0.00000000E+00  0.00000000E+00  0.00000000E+00  0.00000000E+00
  0.00000000E+00  0.00000000E+00  0.00000000E+00  0.00000000E+00  0.00000000E+00
  0.00000000E+00  0.00000000E+00  0.00000000E+00  0.00000000E+00  0.00000000E+00
  0.00000000E+00  0.00000000E+00  0.00000000E+00  0.00000000E+00  0.00000000E+00
  0.00000000E+00  0.00000000E+00  0.00000000E+00  0.00000000E+00  0.00000000E+00
  0.00000000E+00  0.00000000E+00  0.00000000E+00  0.00000000E+00  0.00000000E+00
  0.00000000E+00  0.00000000E+00  0.00000000E+00  0.00000000E+00  0.00000000E+00
  0.00000000E+00  0.00000000E+00  0.00000000E+00  0.00000000E+00  0.00000000E+00
  0.00000000E+00  0.00000000E+00  0.00000000E+00  0.00000000E+00  0.00000000E+00
  0.00000000E+00  0.00000000E+00  0.00000000E+00  0.00000000E+00  0.00000000E+00
  0.00000000E+00  0.00000000E+00  0.00000000E+00  0.00000000E+00  0.00000000E+00
  0.00000000E+00  0.00000000E+00  0.00000000E+00  0.00000000E+00  0.00000000E+00
Pure Switching                             I                1
Dipole_Data                                R   N=           3
 -3.89296424E-15  1.52664750E-16  6.53730472E-03
Quadrupole_Data                            R   N=           6
 -3.38730555E+00  2.07031319E-16 -3.38730556E+00 -1.06131093E-15  1.54221682E-15
 -2.81256811E+00
Octapole_Data                              R   N=          10
 -4.05090108E-15  3.25019419E-16 -1.35030036E-15  9.75058258E-16 -2.56985705E+00
  3.56012757E-16 -2.56985706E+00 -6.39208640E-15  6.76838874E-15 -8.40892993E+00
Hexadecapole_Data                          R   N=          15
 -3.67358212E+00  1.80013944E-16 -1.22452737E+00  1.80013944E-16 -3.67358212E+00
  7.46986630E-16  7.90782920E-16  2.48995543E-16  2.37234876E-15 -1.00391078E+01
  8.21762373E-16 -1.00391078E+01 -1.38693911E-14  2.11512667E-14 -5.58598698E+01
