Jobname.Temp
SP        U                             aug-cc-pVTZ         
Number of atoms                            I                3
Charge                                     I                0
Multiplicity                               I                2
Number of electrons                        I                3
Number of alpha electrons                  I                2
Number of beta electrons                   I                1
Atomic numbers                             I   N=           3
           1           1           1
Current cartesian coordinates              R   N=           9
  0.00000000E+00  0.00000000E+00 -1.45068177E+00  0.00000000E+00  0.00000000E+00
  0.00000000E+00  0.00000000E+00  0.00000000E+00  2.79903959E+00
Nuclear charges                            R   N=           3
  1.00000000E+00  1.00000000E+00  1.00000000E+00
Number of basis functions                  I               69
Number of contracted shells                I               27
Number of primitive shells                 I               33
Highest angular momentum                   I                2
Largest degree of contraction              I                3
Shell types                                I   N=          27
           0           0           0           0           1           1
           1          -2          -2           0           0           0
           0           1           1           1          -2          -2
           0           0           0           0           1           1
           1          -2          -2
Number of primitives per shell             I   N=          27
           3           1           1           1           1           1
           1           1           1           3           1           1
           1           1           1           1           1           1
           3           1           1           1           1           1
           1           1           1
Shell to atom map                          I   N=          27
           1           1           1           1           1           1
           1           1           1           2           2           2
           2           2           2           2           2           2
           3           3           3           3           3           3
           3           3           3
Primitive exponents                        R   N=          33
  3.38700000E+01  5.09500000E+00  1.15900000E+00  3.25800000E-01  1.02700000E-01
  2.52600000E-02  1.40700000E+00  3.88000000E-01  1.02000000E-01  1.05700000E+00
  2.47000000E-01  3.38700000E+01  5.09500000E+00  1.15900000E+00  3.25800000E-01
  1.02700000E-01  2.52600000E-02  1.40700000E+00  3.88000000E-01  1.02000000E-01
  1.05700000E+00  2.47000000E-01  3.38700000E+01  5.09500000E+00  1.15900000E+00
  3.25800000E-01  1.02700000E-01  2.52600000E-02  1.40700000E+00  3.88000000E-01
  1.02000000E-01  1.05700000E+00  2.47000000E-01
Contraction coefficients                   R   N=          33
  2.54948632E-02  1.90362766E-01  8.52162022E-01  1.00000000E+00  1.00000000E+00
  1.00000000E+00  1.00000000E+00  1.00000000E+00  1.00000000E+00  1.00000000E+00
  1.00000000E+00  2.54948632E-02  1.90362766E-01  8.52162022E-01  1.00000000E+00
  1.00000000E+00  1.00000000E+00  1.00000000E+00  1.00000000E+00  1.00000000E+00
  1.00000000E+00  1.00000000E+00  2.54948632E-02  1.90362766E-01  8.52162022E-01
  1.00000000E+00  1.00000000E+00  1.00000000E+00  1.00000000E+00  1.00000000E+00
  1.00000000E+00  1.00000000E+00  1.00000000E+00
Coordinates of each shell                  R   N=          81
  0.00000000E+00  0.00000000E+00 -1.45068177E+00  0.00000000E+00  0.00000000E+00
 -1.45068177E+00  0.00000000E+00  0.00000000E+00 -1.45068177E+00  0.00000000E+00
  0.00000000E+00 -1.45068177E+00  0.00000000E+00  0.00000000E+00 -1.45068177E+00
  0.00000000E+00  0.00000000E+00 -1.45068177E+00  0.00000000E+00  0.00000000E+00
 -1.45068177E+00  0.00000000E+00  0.00000000E+00 -1.45068177E+00  0.00000000E+00
  0.00000000E+00 -1.45068177E+00  0.00000000E+00  0.00000000E+00  0.00000000E+00
  0.00000000E+00  0.00000000E+00  0.00000000E+00  0.00000000E+00  0.00000000E+00
  0.00000000E+00  0.00000000E+00  0.00000000E+00  0.00000000E+00  0.00000000E+00
  0.00000000E+00  0.00000000E+00  0.00000000E+00  0.00000000E+00  0.00000000E+00
  0.00000000E+00  0.00000000E+00  0.00000000E+00  0.00000000E+00  0.00000000E+00
  0.00000000E+00  0.00000000E+00  0.00000000E+00  0.00000000E+00  0.00000000E+00
  0.00000000E+00  2.79903959E+00  0.00000000E+00  0.00000000E+00  2.79903959E+00
  0.00000000E+00  0.00000000E+00  2.79903959E+00  0.00000000E+00  0.00000000E+00
  2.79903959E+00  0.00000000E+00  0.00000000E+00  2.79903959E+00  0.00000000E+00
  0.00000000E+00  2.79903959E+00  0.00000000E+00  0.00000000E+00  2.79903959E+00
  0.00000000E+00  0.00000000E+00  2.79903959E+00  0.00000000E+00  0.00000000E+00
  2.79903959E+00
Orthonormalization Matrix                  R   N=        2415
  3.30308351E-13  2.39021100E-01  6.42125422E-02  1.44681083E-03  5.62402267E-15
 -6.74590455E-16 -3.40985652E-16 -4.00830504E-15  9.59704913E-16  4.57518118E-02
  1.80521176E-15 -4.54344467E-15 -3.76499159E-01 -7.20403155E-13  8.27300909E-17
 -3.85112805E-02  2.84794955E-02  2.36736312E-02  4.05694524E-16 -3.30431631E-01
  1.53912689E-13 -7.67267449E-17  1.26256011E-15  1.37493869E+00 -1.40834846E-15
 -2.37955939E-14  2.96069220E-15 -3.85112805E-02  2.21917737E-17  4.73916712E-15
  4.02906147E-14  6.20417667E-15 -4.30440429E-02 -8.25801452E-16 -9.26826941E-17
  5.78635475E-17  1.78733323E-15 -2.47000482E-12 -7.65034028E-01 -7.87948326E-14
  2.07416973E-02 -7.57412328E-15  1.29938643E-14  1.10488265E-15  1.14884399E-12
  3.47670069E-17  6.68287992E-02 -1.45834544E-02  1.08770377E-15 -1.44443846E-15
 -2.26163164E-13  4.01773854E+00 -4.88931877E-15 -7.50556940E-15  7.48801815E-01
 -4.31793823E-13 -3.29554749E-15  1.82157368E-13 -4.23661713E-14  2.24261716E-16
  7.29420394E-02 -7.72102296E-15  1.81960717E+00  2.47168247E-16  2.30924509E-02
  4.96149468E-01 -4.44124961E-16  8.43426327E-01 -8.07378635E-13 -1.62994170E-01
  2.89215855E-15 -1.16253150E-16 -1.70132521E-14 -1.40098599E-13 -6.10533239E-13
 -1.27780158E+01 -6.77847532E-15  2.47300056E+00 -1.12242550E-16  4.36959912E-16
  7.94999251E-02 -1.28457165E-14  4.40800252E-16  1.58174499E-16  1.91089347E-15
  2.72599685E-15  9.03807218E-17  1.71068985E-14  2.68886955E-16 -3.19212826E-02
  8.65602896E-15 -1.61104114E-17  2.57537375E-16 -1.62759489E-01 -2.01494735E-16
  2.95071980E-01 -4.41932813E-16 -1.02253736E-15 -1.98644738E-16  8.17385890E-16
 -1.36413625E-17 -1.55939930E-16  4.33939844E-03 -3.53034084E-16  7.01170391E-02
  3.37372097E-15  1.63044797E-01  1.30270323E-15  7.16508574E-16  1.14698027E-16
  5.95787579E-14  2.79570777E-02  3.03338630E-14  6.45672647E-01  4.34340777E+00
  3.74857807E-14  4.15132073E+00 -7.11065949E-01  1.84110243E-15 -3.48556192E+00
  2.61692491E-16  1.02476812E+01  3.04537790E-14  2.54741042E-16  6.22719365E-15
  1.78733323E-15 -1.42312618E-16 -9.02621658E-13  1.88408695E-15 -1.96363668E-17
 -2.43559032E-02 -1.70990114E-16 -1.38173130E+00  1.73416940E+00  4.17331881E-15
  1.83502877E-13 -6.29315874E-15  2.89257785E-16  2.63582279E-01 -9.82972289E-15
  5.95771812E-02  4.10817525E-15 -2.07452084E-02  6.65353613E-15 -3.53032102E-16
 -4.67835051E-02 -5.12410719E-16  4.10377113E-14 -3.83805325E-15  2.58460660E+00
 -4.47259460E-02 -1.77342943E-13 -9.65352586E-17 -2.44499604E-02 -4.81129619E-15
 -3.25130951E-15 -9.15292424E-16 -1.45545267E-15 -2.89688901E-17 -4.30803087E-14
 -4.54344467E-15 -5.80739140E-17 -1.85281655E-16 -7.55381002E-18 -1.45820663E-15
  2.62764619E-15  2.88366690E-15 -1.19863651E-16  5.03473878E-17 -1.17710296E-14
  2.21715781E-15  2.00947618E-16  2.37803422E-17  4.27899767E-16 -2.04614490E-16
  1.57690919E+00  2.49107185E-15  4.54442024E-02  8.58257157E-02 -1.24094336E-18
  5.95771812E-02 -2.69341797E-16  3.18330970E-16 -4.23046152E-01 -8.60618101E-16
  2.63114983E-14 -8.50399641E-03  3.62468601E-15  4.63345812E-18  1.69162166E-01
 -1.97574668E-16 -2.57159032E-14  2.90250222E-16 -4.16441965E-01  1.74865891E-01
  1.36880238E-12  1.89695123E-14 -2.61627990E-13  2.03390646E-14 -2.00936191E-13
 -2.57159032E-14  3.61462551E-16  4.56166810E-13 -4.65918866E-14  3.02701853E-13
 -2.60189745E-15 -4.10874112E-16  7.03194919E-01 -1.36348780E-01  1.00631919E-01
  1.63044797E-01 -1.38316447E-13 -1.01748622E-02 -2.99269300E-04 -8.37266438E-15
 -3.55876225E-02 -9.51888766E-17  8.43414501E-14 -3.69683037E-16 -4.47628512E-13
  4.53913588E-13  2.04659747E+00 -2.74709549E-15 -5.17036682E-15 -1.23841740E-14
 -6.44814728E-14 -1.12154725E+00 -5.64005684E-01 -1.35301801E-14  1.84349299E-15
 -2.16619766E-15  3.79050959E-15  6.70097329E-01  9.12855851E-01 -1.09802535E-15
 -2.06477262E-14  8.41338171E-17  4.24973362E-16  2.58460660E+00 -8.94087258E-16
 -1.45020641E-01 -1.96138698E-02 -2.09555274E-16  2.30924509E-02 -5.54127087E-14
  3.04825806E-15 -4.30803087E-14 -5.83699328E-15  1.98521890E-15  1.67383762E-01
  1.26280938E-13  1.14884399E-12 -2.95476446E-14 -1.08557611E-01 -1.37057993E-01
 -7.92130775E-16  4.65012402E-14  2.51066376E-16  4.24922840E-16 -4.47117445E-16
 -8.76530392E-17  1.47282993E-17 -4.00481751E-16  4.57325288E-17 -1.06695693E-16
  8.99789806E-16 -3.79913053E-15 -8.01143312E-16 -5.65596652E-02  6.34859018E-16
 -2.07452084E-02 -9.22297098E-15 -2.88811359E-15  2.15680120E-17 -1.27782131E-14
 -5.56684636E-16 -3.14784332E-14 -3.57638572E-03 -1.20993186E-15  8.15017728E-02
 -1.11590778E-15  2.62593999E-16  7.16135966E-16 -2.89065179E-16 -6.35369503E-01
  6.18362138E-15 -7.42578976E-16 -2.01010312E-18 -1.99324439E-01 -5.97012119E-02
 -6.85644888E-16  2.28973926E-02  1.42908238E-16  1.05918771E-01 -1.09802535E-15
  1.00631919E-01  6.18965503E-02  1.51868454E-17  4.18448318E-03  2.12565704E-14
  8.17276966E-02 -1.88813488E-01 -1.37057993E-01 -8.54883963E-03  4.56055409E-01
  1.24390031E-01 -1.33578822E-14 -1.48661128E-14 -9.51229705E-16 -4.65918866E-14
  1.84401762E-13 -1.74975611E-12  4.15584171E-01 -1.43894126E-16 -2.10472457E-15
 -1.99171600E-15 -3.80351939E-16 -2.54170920E-16  1.85128159E-16  1.29938643E-14
 -2.64319634E-14 -6.07921112E-17 -1.85226943E-01 -2.61426610E-02  7.19537769E-02
 -3.88249614E-16  5.20269828E-15  2.72599685E-15  4.33939844E-03 -2.15822691E-14
 -6.07481227E-16  1.84316961E-15  1.43536424E+01  9.55261224E-13  1.77226361E-14
  1.04826699E-13  2.16757279E-12  3.91742287E-14  5.19242178E-02  2.59235972E-14
 -1.01439431E-13  8.65602896E-15  3.81090722E+01  1.96108767E-16 -1.63297815E-16
  2.75572284E-01 -1.12715043E-15  1.15950724E-13  2.27018148E-16 -4.59754166E-16
 -6.65717919E-16 -8.41425986E-17 -5.67694778E-15  1.54696725E-16 -1.10807060E-15
  3.81090722E+01 -1.20165921E+00 -4.24988638E-16 -5.63085427E-01  4.90417859E-01
 -8.55850139E-02  5.76998692E-03  1.07339994E+01 -3.04093855E-14  3.23045578E-17
 -4.24064098E-14 -2.96388027E-16 -8.60651430E-18 -2.48601578E+00 -6.21846431E-15
 -4.56389834E-15 -3.25993239E-16  3.24812265E-17  1.17507081E+00  1.72035024E-02
  7.07698193E-01 -2.16188896E-01  3.85787583E-16  1.17823987E-02 -7.78530082E+00
 -1.29480440E-01  2.30999288E-12  1.60899775E-15  4.04484559E-15  1.76600529E-16
  2.39028161E-15  1.29957681E-15  1.84424361E-15  7.22506113E-02  3.87534828E-13
  1.35480030E-14  3.63862547E-16 -2.75235222E+01 -3.25771914E-17  1.62905927E+00
  3.07471828E-02 -2.17956893E-16  3.02701853E-13  1.93205700E-15  1.74895102E+00
  4.72659736E-17  1.00232594E-15 -2.10323994E-14  2.40000731E-01  2.22622145E+00
 -2.91043740E-14 -7.42194477E-14  1.25536109E-14  6.72083989E-13 -4.63607860E-02
 -5.35420495E-17 -1.16813591E-15  6.70097329E-01  4.54944498E+00  9.56158580E-15
  1.72472388E-01 -1.12930297E-15  3.06001056E-16  3.45955218E-14  1.29741610E-16
  6.91578274E-01 -1.41681251E-15  1.19606230E-01 -2.22605745E-17 -1.90899752E-16
 -9.02621658E-13  8.03594592E-16  4.29508777E-15 -5.26873587E-16 -5.32715454E-15
  1.39219841E-13  6.28479830E-15 -6.00543724E-15 -6.25078571E-15 -2.57039800E+00
  3.39072967E-01  2.48531392E+00 -3.85112805E-02 -5.40491365E-14  4.11426958E-15
  8.94144053E-16  4.37884438E-13 -5.32715454E-15  2.77576750E-02  5.45891811E-15
  1.88408695E-15  1.43657641E-15 -4.20762011E-15  1.01656721E-15  2.64789439E-14
 -1.59322789E-02 -5.83724261E-16 -1.03603670E-15 -2.70289190E-02 -1.58562985E-14
  3.93286882E-13  1.37339929E+00  1.84401762E-13 -1.77342943E-13  8.46531494E-16
  9.22468621E-15  1.25889319E-01  8.17574531E-04  2.93449557E-15  1.84316961E-15
  6.93097683E-17  1.18235380E+01 -3.22859264E-13 -2.04530685E-15  2.26533568E-15
 -2.09021794E-01  7.52662537E-15  6.18098491E-01 -5.26477024E-02  4.89922843E-17
 -5.46781240E-01 -1.34717590E-15 -2.57039800E+00  1.38437182E-15 -4.55843034E-01
  2.91914985E-15 -4.03218064E-14 -3.19651233E-16  1.54696725E-16  3.04737321E+01
 -8.26873035E-17 -3.35760535E+00 -2.57588092E-17 -9.14903313E-18 -5.66061878E-14
 -1.55002361E-15 -3.82559893E-16 -2.53655030E-16  1.54992297E-16  5.14061580E-01
 -3.71073859E-16 -2.52944095E-15 -4.47628512E-13 -1.49449802E+00 -1.40098599E-13
 -7.01645483E-15 -1.62230126E-15  1.29625345E-14  6.34159260E-01 -6.11298794E-14
  7.10004854E-14  5.83170897E-15  1.38083216E-01 -6.82143147E-15  4.16724986E-17
 -8.47789911E-15  1.16378057E+00 -2.26928930E-16  1.61568236E-16 -5.60808357E-16
 -1.62602763E+00  8.37501356E-15 -3.66880802E-02  8.40481009E-16 -8.55850139E-02
  1.12108249E-12 -3.36910569E+01 -1.13962420E-04  1.37457544E-15  4.15889482E-01
 -2.96388027E-16  8.28304261E-14 -7.90944231E-01 -1.35301801E-14 -6.43276124E-15
  1.25895995E-01 -2.46963134E-15 -3.85112805E-02 -5.76853754E-18 -1.98291377E-12
  2.11035313E-15  1.91716387E-16 -7.43519728E-16 -6.89855107E-15  4.23293220E-14
 -2.61627990E-13 -9.14942077E-17 -1.08331641E-14 -2.04678477E-01  4.85610236E-16
  1.82474071E-15  6.36438831E-16  1.95741439E-15 -2.40720953E-15  4.24922840E-16
  3.04754835E-16 -8.26372389E-16 -1.09520239E-15 -1.21850862E-16 -3.77638394E-16
  3.17793347E-02 -3.10245168E-14  2.93535994E-14  4.75952762E-01 -2.81460578E-14
 -7.68128166E-16 -2.57373007E-16 -1.48195828E-15  2.32193018E-01 -6.16152982E-15
  8.81412347E-03  2.12565704E-14  5.31619312E-16  5.83170897E-15 -2.01049713E-15
  3.14455953E-15 -2.13772266E-01  1.86804987E-01  2.49107185E-15  9.66524844E-17
 -9.69677426E-14  6.79704818E-03 -6.57652324E-14 -2.79343349E-17 -9.51229705E-16
  1.40853637E+00  1.38184997E-14  2.22541030E-14  1.33446867E-16 -3.14784332E-14
  7.30813031E-02  1.02731520E-15 -6.83803333E-14 -2.19774844E-01  1.14235577E-15
  3.36207530E-16 -8.42838855E-16  6.29181355E-16  1.23404110E-13 -4.41495779E-17
  4.22636993E-16  5.35203782E-13  1.16778880E-13  2.61469107E-13  7.69785078E-16
 -1.65175856E-14  1.83476813E-02 -6.35369503E-01 -2.61788686E-15 -7.11065949E-01
  8.23825414E-17 -1.64423563E-14  1.50546546E+00 -1.29762587E-16 -3.80413268E-02
 -6.99007279E-16 -1.73549102E-01 -2.19034772E-14 -3.41831579E-16 -1.98291377E-12
  4.75990007E-01 -7.10419466E-14  2.89215855E-15 -3.01751343E-14  3.39309198E-01
 -6.26211006E-13  4.96156193E-13 -8.76530392E-17  1.26984971E-15 -6.09763123E-02
  2.67530480E-12  3.70969189E-14 -8.31239047E-01 -6.64720476E-15 -2.85910523E-15
  1.13517491E-15 -1.21259976E-13  3.38277980E-14 -6.65717919E-16  1.48944724E-14
  5.99190700E-16  5.77859990E-16 -7.20403155E-13 -2.98890411E-15 -3.80900956E-16
 -8.30688613E-15 -1.27787734E-15  4.57325288E-17 -1.72192122E-17  4.87957561E-02
  1.94591121E+00 -3.08891522E-14  1.51969538E-16 -1.93817529E-16 -3.91375737E-13
 -2.57588092E-17  1.15391884E-15  5.22960809E-18 -7.11436255E-03  2.51315121E-16
 -4.79215476E-14  1.18048980E-15  3.05176754E-15 -9.49084528E-16  8.63326744E-13
 -3.77889617E-16  8.93143845E-01  1.60953651E-14 -2.88111014E-15 -3.23373403E-15
 -5.97012119E-02 -1.12985769E-14  5.80499717E-16  1.78482290E-16 -1.15108122E-16
 -8.73609695E-17 -1.89294032E-16 -6.31121220E-01  6.79704818E-03  1.98992627E-15
 -1.74375890E-01 -3.46643161E-16  2.15976803E-16  2.66084815E-15  1.64467762E-14
 -1.32251054E-01  1.84424361E-15  2.64966035E-14 -7.87811460E-15  1.05311814E-14
 -1.81870996E-14  6.99143650E-01 -3.39810726E-15 -8.03543193E-03 -3.07429635E-15
 -4.47117445E-16  8.56128919E-15  1.34554634E-16  1.16664527E-14 -2.22390696E-16
  7.53552762E-16  6.26187434E-14  6.86098459E-16 -2.51290803E-16  1.02287092E-17
  1.49592439E-01 -1.48938458E-15  3.01518929E-15 -3.44812349E-01 -1.04489983E-16
 -5.22995149E-14  1.48630008E-15 -5.91440360E-01  2.24283023E-14  1.02055353E-13
  1.88267675E-14  4.95353712E-15 -6.67968992E-13 -6.08366291E-01 -5.22995149E-14
  2.04972561E-16 -8.25100915E-16 -3.87774891E-16 -2.00325414E-14  1.45721890E-02
  6.86098459E-16 -5.67694778E-15 -2.04882831E-14 -1.21285700E-13 -2.34854145E-01
 -3.66880802E-02 -4.16441965E-01  4.36959912E-16  5.27782187E-17 -2.28585588E-16
  3.79245857E-16 -2.19331602E-01  8.62591022E-15 -1.20165921E+00 -7.70205920E-14
 -1.75301531E-12  1.08941315E+00 -3.39059037E-01  2.35207834E-13  3.08236937E-14
 -3.10245168E-14  2.48740540E-16 -5.83699328E-15  2.43778192E-01 -6.73819591E-16
  7.33550365E-15 -2.19774844E-01  9.48542920E-16  4.04389208E-14  1.60953651E-14
 -7.41284485E-15 -2.75748949E-15 -1.46283083E+00 -3.29656451E-15  2.12854254E-16
  4.27899767E-16  1.86225639E-16  7.03194919E-01 -8.66165748E-15 -5.43034691E-16
 -1.92434964E-15  1.44919712E-16  7.61518997E-16 -9.69677426E-14  4.25988769E-17
 -4.81852024E-13  4.48513139E-14 -2.89361332E-16  1.94591121E+00 -2.46963134E-15
  1.02523078E-01 -1.57636090E-13  1.50546546E+00  1.28171874E-16 -3.38765614E-16
  4.60519083E-15  1.12277700E-16  1.43536424E+01 -3.27701956E-15  2.80926186E-14
 -4.45739185E-17  2.14490513E-02  4.40800252E-16 -8.50399641E-03  1.40853637E+00
 -6.82143147E-15 -3.41299694E-17 -6.99598944E-02 -4.24376580E-17  4.52969153E-17
 -5.66346837E-14  2.09126009E-16  7.61725311E-16 -7.69870864E-13 -1.67738606E-01
 -2.26163164E-13 -4.24988638E-16 -1.09211998E-13 -1.10920533E-14  5.84287566E-14
  2.14295661E-01 -1.44179241E-15 -9.05877992E-17 -8.89638526E-15  1.75160698E-14
 -7.04531177E-16  3.95075657E-15 -9.15097924E-17  2.30924509E-02 -4.39193500E-16
 -1.22017208E-14 -2.82418756E-14  1.95159640E-15  9.86723129E-16 -4.23364373E-15
  1.64467762E-14 -5.56718460E+01  2.13384864E-03 -5.40491365E-14  2.96683034E-13
  4.57050414E-15  2.77576750E-02  1.28954539E+00 -1.06942835E-01 -8.18024481E-16
  2.00071877E-17  6.35326759E-02  1.41442634E-14 -5.67131318E-18 -8.01601691E-01
  5.14697971E-16  3.39589359E-15  1.91552955E-16 -2.41145916E-02 -4.67335708E-02
 -1.23432592E-15  1.77966690E-15  1.45417899E-16  9.91585745E-16  2.70583934E-16
  1.72472388E-01  2.96359077E-14  1.65448878E-02 -1.23397261E-16 -1.47236657E-14
 -2.16446346E-02 -8.66104038E-14  2.49889193E-17 -1.70510653E-16 -4.27794283E-15
  1.26028906E-17  1.78456382E-17 -1.16642727E-15  4.97821032E-15 -2.32712458E-16
 -8.55850139E-02  5.79362107E-14  1.00631919E-01 -2.90380905E-16 -8.83379673E-16
 -4.02316274E-16  2.90250222E-16  7.53552762E-16 -3.53032102E-16  4.43767677E-16
  6.66792813E-16 -1.24714132E-02  1.57782637E-01 -3.57405019E-17  1.86561938E-16
  1.56278250E-02  4.73916712E-15  8.32199812E-16 -6.59239740E-17  9.97489619E+00
 -2.35136509E-14  1.29149296E-13  6.18362138E-15  1.36618914E-15 -8.11067867E-15
 -8.58266515E-01  1.16946114E-01 -4.00830504E-15  1.23352942E-01 -1.53160532E-01
  5.41039715E-16 -2.90380905E-16 -1.45663986E-17 -4.21327938E-16 -3.17184569E-01
 -3.25044219E-16  8.41079585E-17  6.35326759E-02 -3.39059037E-01 -1.78461038E-14
 -9.85970904E-16  7.61725311E-16  3.06178326E-01 -7.54067193E-15  1.87426308E-14
 -4.86696673E-14 -1.09242492E-15 -2.17598861E+00 -8.85143307E-15  5.14061580E-01
  9.69677631E-15  1.87426308E-14  7.23308154E-16  8.88657257E-14 -1.03155522E+01
 -1.98043131E-01 -2.13143758E-12 -6.26326180E-15  4.15132073E+00  6.91563867E-13
  4.04154121E-14  2.97782352E-16 -2.25625116E-14  9.81759384E-15  5.90484400E-15
  2.04368902E-14 -1.83166732E-16 -1.00692746E-14 -3.35426445E-14 -2.38803168E-15
 -1.11380074E+00  5.35477585E-01 -1.02253736E-15  9.58714786E-16  5.03473878E-17
  4.41915475E-15 -4.81002524E-13 -5.86674561E-02 -2.91309440E-15 -6.44286702E-15
 -4.30767659E-01  1.85128159E-16 -5.89090010E-14 -1.55279674E-01 -2.47000482E-12
 -6.87714800E-18 -4.57323723E-03  1.12845633E-14 -3.79913053E-15 -1.54556656E-15
  6.42328800E-16 -4.14289847E-16  4.38065457E-02  3.63232865E-13  8.50405293E-16
 -1.98487422E-02 -3.80014908E-15  4.81925246E-14 -8.22142982E-15 -6.50644429E-02
  1.30270323E-15 -4.49624382E-16 -6.41949770E-15 -1.53160532E-01  4.70731332E-15
  4.72659736E-17 -1.12154725E+00  8.26720947E-15 -1.61945527E-15 -1.61668846E-15
 -2.88823432E-13 -4.27795368E-01  3.97666623E-14  2.90013118E-15 -1.27857584E-14
 -1.03509308E-13  2.65540323E-15  9.54608371E-16 -4.80660300E-15 -1.00592307E-15
 -4.08198988E-16 -1.38173130E+00 -2.85349215E-15 -5.66061878E-14 -1.11380074E+00
  6.22719365E-15 -8.55850139E-02 -5.03183703E-17 -6.41949770E-15  9.40806987E-15
  1.52502985E-15 -4.03218064E-14 -1.14075860E-14 -4.36293989E-16  1.52280021E-15
  1.79893306E-02  1.24461259E-16 -2.28508082E-15 -1.74190573E-16 -6.89604553E-14
  2.65604818E-15  1.19415066E-15  8.20562142E-01 -8.11067867E-15 -1.49578722E-17
 -5.60488668E+00 -6.10090930E-15  1.18263686E-01  3.97152873E+01 -2.18886620E-13
  5.35990233E-14  8.53917695E-16 -5.20624572E-16  1.83502877E-13  7.66874742E-14
 -4.72990249E-01  6.06667132E-16 -1.63928156E+00  1.60660803E-15  9.49277302E-15
  4.57518118E-02  1.45637342E+00  4.37321446E-16 -9.23521450E-16 -1.25282928E-16
  4.58217022E-14  2.91914985E-15  5.64249921E-16  1.45903870E-14  1.72248516E-16
 -9.09415569E-16 -8.54709078E-02 -1.98685541E-14  4.97821032E-15  1.91089347E-15
  6.67946807E-01  6.34814447E-14 -1.33069907E+00  2.28108808E-13 -1.55002361E-15
  2.16304234E-02  1.10975487E-14  6.05052933E-01  4.44570684E-13  2.15680120E-17
  3.24812265E-17  3.68003574E-15 -3.69683037E-16 -1.18211094E-15 -1.24714132E-02
 -2.66967242E-01  1.76600529E-16  3.93696498E-16  1.88426649E+00  9.28442459E-16
  7.00385390E-16  5.35203782E-13  1.78770367E-15 -6.08366291E-01  2.30159179E-16
  4.66750896E-02  7.08479778E-02 -9.08513318E-03 -8.98439885E-16 -3.61529530E-16
  5.34676948E-02 -1.11615640E-01 -1.61920853E-16 -4.91520270E-16  1.95860974E-13
 -9.26826941E-17  5.13333337E-17 -8.87543653E-17  8.48824434E-17 -2.66599950E-18
 -9.29206260E-16 -8.51293771E-01 -3.24394172E-15  3.40176841E-15  3.27874093E-15
 -5.44035149E-16  9.38981002E-16 -2.01157700E-14 -4.16441965E-01  7.37413815E-15
 -2.54619798E-15  3.39309198E-01  4.08553753E+00  7.19537769E-02 -9.52239439E-16
 -7.78233517E-16  3.46040830E-14 -7.11436255E-03 -8.42838855E-16  9.81817245E-02
 -1.42698739E-15  4.96307479E-18  1.88267675E-14  1.25764349E-14  1.89695123E-14
  1.82642968E-01 -4.20850597E-15  2.14490513E-02 -4.91534033E-16 -1.21501280E-15
 -2.48656679E-17 -2.10323994E-14  7.44969923E-16  1.46324129E-02 -3.04093855E-14
  1.02028094E-15  2.17368212E-15 -3.51647112E-17  9.47563545E-16 -5.30144200E-17
  4.15698369E-02  1.07576783E-15 -3.46643161E-16 -5.80776266E-15 -9.83302860E-17
 -7.04531177E-16  5.32089327E-16  2.48289081E-14 -3.58694602E-15 -9.77557016E-16
  6.65755779E-17  2.72032285E-15 -3.03338217E-17  7.65215089E-15 -2.79616531E-17
 -6.93733742E-02  1.03866967E-15  6.18098491E-01  3.23155629E+01 -6.35501007E-16
 -3.60507421E-01  3.45913727E-17 -4.49605370E-02  7.79580075E-02 -1.99324439E-01
  3.87534828E-13 -1.95584483E-14 -1.84244979E-15 -3.30586876E-13 -8.29317897E-02
 -6.69285204E-01  9.04350251E-14  1.99535357E-15 -8.99309257E-20  6.59851906E-18
  6.99143650E-01 -1.75037916E-16  5.35477585E-01  1.12897353E-13 -1.55939930E-16
  2.99734244E-15  3.87801646E-16  4.23466396E-16  4.85610236E-16 -1.25826907E-15
  4.75904374E-16  1.09910159E-14  7.64678246E-16  3.65925680E-14 -3.06851613E-14
 -5.67458677E-03  1.28954539E+00 -3.16490618E+00  6.06667132E-16 -5.72337007E-16
  9.38121172E-16  1.82864589E-14 -5.86674561E-02  2.52368434E-15  1.17092869E-15
 -5.97012119E-02  2.33158831E-14  3.07471828E-02  1.42103866E-14 -6.85452201E-17
  2.01400971E+00  1.96466594E-17  3.77606471E-15  1.98388292E-16  1.33293247E-16
  2.85619573E-15 -3.75438041E-15 -5.49905073E-16 -1.58036364E-01  9.22468621E-15
  1.63044797E-01 -2.75235222E+01 -2.95476446E-14  1.88255291E+00  3.85787583E-16
 -6.93733742E-02 -4.46492852E-16 -1.92462821E-15  1.09016373E-13 -6.48364463E-16
 -3.44812349E-01  1.65619735E+00 -4.46492852E-16 -2.08376042E-14 -1.41390212E-01
  4.37321446E-16  1.26028906E-17  4.87957561E-02  4.08553753E+00 -1.05325912E-15
  8.28910420E-14 -3.52941534E-14  1.80600548E-13  1.53659387E-16  3.41755583E-14
 -4.29203453E-01 -1.97284856E-02  2.24310735E-16  3.36974229E-16 -5.47500890E-17
 -9.15042366E-01 -6.01627214E-02  6.33376410E-16 -5.56341909E-16 -3.91395935E+00
  2.20159353E-02  2.65431451E-16  6.68439351E-16  4.96149468E-01 -7.20479156E-02
 -3.84653567E-02 -8.07428418E-17  3.83498900E-01 -5.91440360E-01 -1.11955030E-13
  2.96359077E-14  1.30337966E-15 -4.31793823E-13 -3.19651233E-16 -1.23432592E-15
  6.59487560E-15 -2.75104403E-15 -6.87741097E-16  1.71226932E-16 -4.77763692E-16
  1.11568235E+00  1.37311208E-15  2.29913401E-14  2.64416764E-15 -4.03894835E-15
  2.51315121E-16  4.44946250E-16  1.95860974E-13 -3.24670501E-17 -6.66577744E-01
 -2.49599688E-01 -1.36002154E-16  9.04350251E-14 -1.03155522E+01  1.17709912E-15
  8.43426327E-01  2.20159353E-02 -1.45020641E-01  1.02134434E-13 -5.59142695E-13
  3.82171992E-16  1.24244554E-16 -5.10841664E-17 -5.52656013E-16  2.14295661E-01
 -1.56307927E+00 -3.97910818E-16  5.35990233E-14  7.67371701E-14 -1.91845043E-01
  4.37884438E-13  8.60310057E-16 -5.17036682E-15  3.68003574E-15 -5.47500890E-17
  6.01475452E-17  1.10686924E-12  1.55517058E-01  1.41442634E-14  1.16946114E-01
 -7.01645483E-15 -7.01889534E-01 -5.07820159E-15  4.54944498E+00  2.37761843E-15
  6.45179026E-16 -6.35369503E-01 -4.93049691E-14 -9.15097924E-17 -1.33300802E-14
 -4.49605370E-02 -4.44124961E-16  9.85809852E-18 -3.25771914E-17  2.49020650E+00
  6.51848294E-16  5.92761491E-14 -1.62759489E-01  1.74314830E-14  7.40070551E-14
  6.42125422E-02  1.82864589E-14  7.30564066E-01 -2.52944095E-15  1.38083216E-01
 -1.04489983E-16 -4.30448741E-17  2.28108808E-13 -3.17184569E-01 -1.83075568E-17
  2.47300056E+00 -2.66967242E-01 -2.50919383E-15  1.03074064E-15  7.51861237E-14
  1.45309591E-16  7.69785078E-16 -1.17413729E+01  5.99571819E-15 -3.31275501E-14
 -4.89012201E-17  4.15698369E-02  9.12855851E-01  1.58919082E+00  2.67530480E-12
  1.17823987E-02 -2.81703726E-15  8.14125903E-14  7.22693878E-15  4.66750896E-02
  7.00385390E-16 -7.62061444E-15  4.82582543E-15  2.30924509E-02 -1.28457165E-14
  1.89366742E-01 -2.13143758E-12  1.18235380E+01  4.65607083E-02 -3.80900956E-16
 -5.56718460E+01  9.53388763E-16  3.50656214E-16 -1.53521679E-15  7.64678246E-16
 -1.08207088E-13  5.85655932E-02  4.26207182E-17  8.88657257E-14 -1.45020641E-01
 -6.89855107E-15  1.84949817E+00 -2.35103695E+00  2.35207834E-13  2.22622145E+00
 -3.81640603E-01  7.48801815E-01  2.03121765E-14  5.40026084E+00 -1.72123635E-15
  6.34159260E-01  2.91555270E-15 -3.79148598E-02  1.62905927E+00  4.05823604E-02
 -9.08513318E-03 -2.51290803E-16  2.90295993E-16 -1.23586863E-14  1.36359424E-01
  9.97120903E-16 -5.56341909E-16 -7.62061444E-15 -1.63709763E-13 -5.57584051E-14
  4.07866837E-01 -4.46314578E-15 -1.10521988E-14  8.05068615E-15  4.46501156E-15
  3.39072967E-01  3.90715369E-16  5.14434829E-15  2.30999288E-12  2.50953459E-14
  6.91563867E-13  2.96506836E-13 -1.43237159E-16 -2.17956893E-16 -2.16446346E-02
 -5.32841261E-14 -2.72969759E-16 -4.27800501E-01  1.47410772E-15 -1.77013782E-15
  1.40721104E-17 -3.05851121E-02  1.17092869E-15 -2.04882831E-14 -1.73549102E-01
  1.48944724E-14 -3.43531178E-16  3.59710797E-16  3.03338630E-14  6.34419730E-16
  3.93055372E-16  2.46794861E-17 -1.40484655E-14  3.40379610E-14 -1.85226943E-01
  3.40176841E-15  8.48824434E-17  5.34676948E-02 -6.32614041E-15  8.48963693E-18
  5.45891811E-15 -2.40380551E-14  6.34814447E-14  9.90637837E-01  3.72462835E-01
 -4.29203453E-01 -9.14942077E-17  6.65353613E-15  3.37757853E-17  1.25889319E-01
 -4.22917781E-15 -1.17312539E-13 -1.14075860E-14  1.26792872E-15  1.19606230E-01
  1.09910159E-14  1.37493869E+00 -2.13772266E-01  9.27885350E-15 -1.17312539E-13
  6.34859018E-16  1.81542753E-15  2.75460984E-15 -4.55843034E-01 -4.59754166E-16
 -8.96200114E-17 -9.77557016E-16  7.59707297E-02 -2.54196833E-15 -2.17682040E-15
 -1.58636557E+00 -2.16188896E-01  7.22693878E-15  5.19242178E-02 -1.53332672E-15
 -2.79994816E+00 -1.85485747E-15  1.25522587E-13  1.11568235E+00  6.13109330E-16
 -2.06477262E-14 -8.29326651E-01  2.05944469E+02 -2.89361332E-16 -3.32525975E-02
 -5.82900167E-15 -1.13962420E-04 -3.30531232E-02 -1.25928880E-14  8.40481009E-16
 -3.79418081E-17  4.15889482E-01 -1.98487422E-02 -2.41839597E-13  1.72149625E-15
  1.69162166E-01 -2.01010312E-18  8.57345173E-02 -2.17682040E-15 -2.81141204E-14
 -8.99835525E-02  1.40721104E-17  1.60663664E-02  1.81742649E+00  1.67219261E+00
 -7.85422629E-15  7.73192168E-17 -9.64548934E-16  8.79395610E-19  1.60663664E-02
  3.27874093E-15 -1.19835992E-15  8.89782768E+00 -1.27857584E-14  4.10817525E-15
  4.90417859E-01  2.07540570E-01  1.40527404E-14 -1.54327000E-14  5.42298532E-14
 -6.73819591E-16  2.15174271E-13 -1.37503144E-13 -8.31239047E-01 -1.02241705E-12
  3.54423349E-15  1.93471697E-15  2.90013118E-15  1.67311385E-17  3.56269373E-13
 -4.27800501E-01 -3.78461969E-16 -1.11955030E-13 -2.74709549E-15 -1.35231316E-13
  2.75729988E-13 -1.65618930E-14  3.40379610E-14  6.98222140E-15 -1.19257483E-13
  5.62402267E-15 -6.88865715E-16 -2.25426424E-14  9.49277302E-15  2.07416973E-02
 -1.44179241E-15  6.88869966E-17  6.61392772E-15  5.27782187E-17 -2.79343349E-17
  4.28638348E-17 -7.92168682E-17 -2.09411203E-13  1.15391884E-15 -4.65444151E-15
 -3.77638394E-16 -1.18211094E-15  1.73416940E+00  1.01335882E+00  1.74314830E-14
  7.60410425E-16  8.53917695E-16  1.17507081E+00  1.09718793E-14 -4.86696673E-14
  4.42141794E-16  9.81817245E-02 -1.88707435E-15  5.64249921E-16 -2.91309440E-15
  5.20269828E-15  3.01363437E-16  9.13017399E-16  2.74873434E-17  3.20739942E-15
  4.01773854E+00  1.95226744E-16 -1.10627417E+00 -1.13062051E-16  1.95314190E-15
  8.88236937E-02  1.70695090E-03  5.36018666E-15  9.16579861E-03  4.68017907E-14
  1.71068985E-14 -3.44812349E-01  3.69098889E-16  2.28642341E-16 -9.85490987E-15
 -1.42457240E-15 -1.58562985E-14  7.48801815E-01  1.08525570E-15  1.19606230E-01
 -2.76449917E-01  2.35202333E-14  3.39589359E-15 -1.44352996E-13  6.40799291E-15
 -3.65731447E-14  2.04627102E+00 -2.59924362E+00 -5.98026580E-17  1.39219841E-13
  2.95430367E-15 -5.48609425E-16 -1.25320953E-02  5.80499717E-16 -6.85644888E-16
 -7.21065166E-15  8.85024471E-15 -7.69594141E-14 -2.81657421E-15  1.79362817E-17
  3.42883850E-14 -3.48556192E+00  1.19566050E-13 -1.05494179E-14 -1.10627417E+00
  2.39028161E-15 -4.30440429E-02  2.64966035E-14 -2.76226358E-01  1.81554839E-14
 -2.10092343E-16 -7.87948326E-14 -1.84782966E-13  2.63582279E-01 -1.87592038E-16
  8.87110926E-16 -1.11615640E-01 -6.14137874E-16 -7.90944231E-01 -9.15292424E-16
  1.97374582E-15  8.58257157E-02  2.45010213E-16 -1.19863651E-16  7.83819769E-17
  2.84983590E-15  4.80584678E-16  2.00632619E-13 -1.74190573E-16 -1.52252802E-14
  2.96506836E-13 -2.50388505E-16 -4.37990045E+00  9.66524844E-17  1.34398595E-15
 -9.48340155E-15 -6.19418060E-17 -5.75209067E-16  4.65425526E-17  1.81542753E-15
  1.96176511E-02 -9.09415569E-16  3.59710797E-16 -3.08891522E-14 -2.03362111E-14
  3.75418693E-02 -1.23586863E-14  7.57245480E-17  2.48289081E-14  8.88236937E-02
 -1.63599794E-15 -8.99309257E-20 -6.74590455E-16  6.69819869E-14  8.14003419E-15
  3.84145938E-02  2.62764619E-15  3.31780457E-16  8.17512875E-17 -6.87741097E-16
 -4.11040909E-02 -2.09411203E-13  8.52231955E-16 -8.88684896E-16  1.16519806E-14
  7.74919211E+01 -6.55781628E-15 -2.41839597E-13 -1.88813488E-01 -1.67309237E-15
  4.44570684E-13 -3.30431631E-01  3.62468601E-15  1.11817725E-13 -7.01889534E-01
  4.49313807E-14 -5.13080711E-16  3.93286882E-13 -7.11564749E-15 -6.71618496E-17
  1.57690919E+00 -3.89249258E-15 -2.35103695E+00 -2.79994816E+00  1.37339929E+00
 -1.36002154E-16  1.63044797E-01 -3.79148598E-02 -1.72211364E+02  2.65333242E-01
  9.90637837E-01  6.82148678E-16  4.02893514E-15  5.14061580E-01 -8.33542546E-16
 -4.72990249E-01  1.18048980E-15 -9.61022899E-14 -1.62602763E+00  1.65954034E-15
 -1.20868384E-14 -2.25625116E-14 -2.04713966E-16  9.13017399E-16  7.82242703E-17
 -7.78530082E+00 -2.61557743E-16  1.27457467E-13 -4.49481332E-17  3.56269373E-13
 -7.20479156E-02 -1.36560664E-01 -4.27441644E-14 -4.20850597E-15  1.40175275E-16
  1.74490305E-14  3.30308351E-13 -1.54153241E-15  6.66792813E-16  1.40414798E-17
 -2.74683158E-16  8.58806741E-14  4.83187620E-14 -5.32505379E-01  9.47563545E-16
  1.10394286E+00 -3.18227364E-15  8.93143845E-01 -2.92399420E-15 -9.66275627E-15
 -2.06518402E-14  2.26533568E-15  2.93983429E-15  5.24745005E-15  1.20021610E-16
  7.22506113E-02  1.18263686E-01 -2.09795220E-15 -1.95584483E-14  1.37926329E-16
 -2.63408141E-13 -2.25426424E-14  2.29913401E-14 -1.17524662E-15  5.33871159E-17
 -1.35578618E+00 -8.82255673E-15 -3.42838475E-14 -5.97012119E-02  1.80821010E-15
 -3.19212826E-02  2.93535994E-14  6.05052933E-01  1.29149296E-13 -1.48661128E-14
  4.66648729E-18 -6.21626954E-16 -5.27133719E-01 -5.11912382E-13  7.33550365E-15
 -2.22390696E-16  1.49592439E-01  1.41421973E-15  1.66474832E+00  9.90637837E-01
  2.93449557E-15  3.82183910E-16  3.56559056E-16 -2.08376042E-14  1.44687106E-15
 -6.35369503E-01 -4.59452520E-16 -2.60181174E-15 -3.48556192E+00  2.48141358E-14
  1.25389724E-14  1.10394286E+00 -1.23135468E-01  1.30057875E-15 -5.52656013E-16
  3.73500826E-15  3.41755583E-14 -1.73942331E-17 -3.50404946E-16  3.18846474E-15
  3.93055372E-16  4.55449484E-16  3.98828645E-17 -1.12930297E-15  1.07087196E-15
 -6.21626954E-16  8.38571575E-16  2.65741375E-16  1.82623563E-15 -3.58847309E-15
  4.75990007E-01 -4.56389834E-15 -4.06121129E-18  3.65591644E-15 -2.98697003E-01
  8.43414501E-14  6.33376410E-16  1.47270324E-14  1.01656721E-15  2.60769215E-16
  3.37162390E-16  4.60150242E-03  2.00947618E-16 -2.76226358E-01 -2.14187236E-01
  8.52266169E-16  1.52688402E-16  3.98828645E-17  4.05694524E-16 -9.92975830E-17
 -9.78674891E-16  2.08129785E-14  6.35468891E-01 -8.85143307E-15 -3.48556192E+00
 -7.44892175E-16 -1.51394216E-13 -1.33416293E-01 -7.50556940E-15  1.25889319E-01
 -1.51806331E-13 -7.43519728E-16 -2.66967242E-01  6.42328800E-16 -1.49170774E-03
  9.17495918E-15  1.72248516E-16 -1.06942835E-01 -6.60486431E-15  3.01518929E-15
  1.33446867E-16 -1.43894126E-16 -5.40686162E-16  3.21499313E-03 -2.40380551E-14
  7.64386348E-16  2.54300404E-15  1.61846579E-15  1.79893306E-02 -2.17612183E-01
  2.15438150E-12  4.04389208E-14 -1.10549568E+00 -2.17598861E+00  5.14697971E-16
  7.96578179E-01  4.50915988E-02 -3.01751343E-14 -7.90944231E-01 -4.78038309E-15
 -1.63928156E+00  5.09494534E-15  3.86385007E-13 -5.82900167E-15 -3.66880802E-02
 -2.03057103E-15 -1.53263107E-15  3.69677600E-14  5.23894437E-16  2.19883787E-16
 -2.59809971E-16 -1.00894755E-14 -8.67201555E-15  1.64892788E+02  5.14434829E-15
 -1.25928880E-14  6.17749918E-02  2.48521894E-01  1.52213764E-14 -3.42372516E+01
 -8.18199573E-01 -1.40834846E-15  2.15438150E-12 -1.15443001E-15 -1.61924708E-16
  3.97666623E-14  6.67946807E-01 -1.11380074E+00  2.86996311E-16 -5.08338091E-16
 -1.02241705E-12 -1.46673581E-15 -1.65618930E-14 -1.53160532E-01 -2.89739400E-15
 -3.40533492E-02 -2.37513191E-15  2.36585796E-14 -3.16490618E+00  8.61545174E-15
 -9.38422059E-14 -3.58075208E-14  3.18846474E-15  1.23404110E-13 -4.28470344E-15
 -1.37503144E-13  5.14061580E-01 -1.61104114E-17 -1.63297815E-16  2.99734244E-15
  1.81742649E+00  1.69240905E-01  6.55565939E-16  1.19414382E-16 -3.58306650E-15
  2.36966102E-17  8.89869983E-15  5.81440308E-16  5.55223911E-15  9.81817245E-02
 -1.39248591E-13  1.23352942E-01 -2.43023218E-14  4.52294667E-14 -1.84244979E-15
  1.36880238E-12 -8.28672361E-16  3.83748944E-16  1.05358635E-14  4.22636993E-16
 -2.50388505E-16 -2.07290127E-16 -4.59452520E-16 -5.48116273E-16  3.08863598E-02
 -1.23841740E-14  1.18263686E-01  2.57537375E-16  2.70352107E-15 -2.25263803E-13
 -2.88811359E-15 -1.45820663E-15 -3.22859264E-13  1.29741610E-16  1.31944729E-14
  4.79041978E-14 -2.09795220E-15  1.19629388E-15  3.37372097E-15 -1.53791833E-14
 -4.27795368E-01 -1.89294032E-16 -7.21085232E-16  2.15727972E-13 -3.91720085E-02
  2.62593999E-16  1.84989471E-15  4.07866837E-01  1.05929720E-14 -1.36413625E-17
 -1.72123635E-15  9.18217970E-17  7.76610813E-14 -1.22142011E-01  1.31365345E-15
  7.07698193E-01 -6.06385550E-16  7.03194919E-01  3.57788200E-16  5.26169808E-16
 -4.30135795E-02  4.53782483E-16 -1.45020641E-01 -1.50763156E-14 -4.88193632E-15
 -1.63709763E-13  1.65448878E-02 -5.64671653E-16  3.49179704E-15  1.70695090E-03
  5.16352355E-16  4.55681170E-13  2.19147664E-13  9.16579861E-03 -7.55381002E-18
  7.74919211E+01 -2.37482735E-01 -1.35349824E-14  1.98992627E-15  1.50125536E-16
  1.67219261E+00  6.43824467E-17 -3.80413268E-02 -6.31121220E-01 -1.00692746E-14
 -2.41627535E-15  4.98261544E-15 -3.66880802E-02 -1.39248591E-13 -3.44812349E-01
  3.65925680E-14  1.67294353E-14  8.79082020E-17  1.31365345E-15 -1.12627000E-14
  3.71013950E-03  4.53913588E-13 -1.62759489E-01  1.35091605E-14 -8.91107618E-13
  6.16778729E-01  8.56128919E-15  8.87110926E-16  1.14071764E-15  1.62383691E-16
 -2.88132557E-02 -1.88707435E-15  5.04866012E-01  5.55223911E-15 -2.10092343E-16
  4.43797006E-16  1.65042768E+01  5.24745005E-15 -5.29639085E-16  3.25936689E-02
  9.35301508E-16 -5.64005684E-01  7.96578179E-01  2.96400048E-15 -1.35578618E+00
  6.59095112E-02 -5.80220061E-02 -2.88823432E-13 -5.65596652E-02 -2.82418756E-14
 -1.84438982E-17 -1.92434964E-15 -1.21501280E-15  4.33080519E-18 -7.31961716E-19
 -1.53160532E-01 -2.12850332E-15  1.46078367E-17  1.10686924E-12 -3.07645392E-01
 -3.06174378E-16 -4.89012201E-17 -2.06518402E-14 -4.67835051E-02 -3.38786764E-16
 -9.46554922E-02 -1.46673581E-15 -1.10627417E+00  5.56099615E-16 -6.24802312E-16
 -3.07429635E-15  9.69677631E-15 -3.42372516E+01 -2.21080693E-18  1.28270150E-16
 -2.27257152E-15  1.79362817E-17  4.17122211E-16 -8.34352453E-16  4.57030960E-15
 -2.49545533E-15 -6.19010781E-17 -4.78038309E-15 -2.81586872E-01  7.70774104E-17
 -2.57039800E+00  8.57102748E-17  5.16352355E-16  1.02622235E-02  3.14455953E-15
  1.04826699E-13  8.27034580E-16  2.79491451E-15 -3.58485917E-13  1.83606461E-15
  1.16378057E+00 -1.05139709E-17 -1.67849342E-15 -1.34592095E-15  5.41049038E-17
  5.40884646E-18 -9.39433193E-19 -2.09481025E-16  1.84989471E-15  1.08770377E-15
  4.25216692E-13 -8.60651430E-18  1.09016373E-13 -4.57323723E-03 -8.04042687E-17
 -5.26873587E-16 -6.68320635E-17 -4.98145537E-16 -1.09398710E-16  1.28270150E-16
 -4.63607860E-02  3.45861663E-16 -1.21154941E-16 -2.38969807E-16 -6.87714800E-18
 -2.43559032E-02  3.61571814E-16  7.01170391E-02 -1.47929814E-14  3.44738102E-15
 -1.53521679E-15  2.15727972E-13  1.23387514E-14 -8.51293771E-01  6.13867461E-15
  1.53912689E-13  1.12108249E-12 -1.77919336E-14  1.47375925E+00 -1.20868384E-14
 -5.10747882E-17 -2.37259682E-16  4.89922843E-17 -1.48677641E-16 -2.21677982E-02
  8.14336655E-16  1.58158561E-16 -5.22369543E-16  9.25163742E-16 -8.01601691E-01
 -1.61945527E-15  4.52294667E-14  3.35542146E-15  5.40026084E+00 -6.43276124E-15
 -7.63280029E-03 -4.30194586E-01 -1.25821650E-15 -2.12850332E-15 -3.65731447E-14
  1.03935826E-01 -2.85349215E-15  2.97484840E-16  7.70774104E-17  1.01292503E-16
 -2.61557743E-16 -8.88684896E-16 -5.03536937E-16 -3.96585321E-15 -4.68536255E-17
 -1.98043131E-01  6.65924835E-15  5.39022579E-16 -2.09555274E-16 -1.40994390E-13
  1.35128140E+00 -5.10747882E-17 -7.90944231E-01  9.82696043E-16 -1.17413729E+01
  1.50125536E-16  2.73867822E-16 -4.24376580E-17  1.82642968E-01 -1.14882122E-13
  1.27457467E-13 -1.56307927E+00 -1.57636090E-13  8.28910420E-14 -1.74585275E+00
  4.57030960E-15 -1.72211364E+02  4.69542997E-13 -1.58421320E-15 -6.10090930E-15
  1.11535718E-14  3.43441257E-13  5.41609280E+00 -4.42407016E-15 -2.09481025E-16
 -2.34854145E-01  7.18337038E-15  1.37926329E-16 -3.87774891E-16  3.05176754E-15
  2.22918435E-17  1.00631919E-01  2.61684657E-13  3.73500826E-15  4.56055409E-01
  4.81925246E-14  8.81412347E-03 -4.93805465E-15 -9.15042366E-01 -2.49599688E-01
  6.62676519E-13  2.04232412E-15 -4.27794283E-15 -3.79998759E-16 -4.79490618E-15
  7.23308154E-16  1.25889319E-01  4.58217022E-14  2.23801483E-02 -2.76003499E-14
  1.05311814E-14  1.06501910E-15  1.02287092E-17  1.47375925E+00 -1.11322372E-15
 -8.64034506E-14 -2.41145916E-02  2.59235972E-14 -1.27780158E+01 -3.53728546E-16
  1.24290381E+01 -2.48601578E+00 -4.08590294E-01 -1.42782856E-13 -3.30586876E-13
  8.17385890E-16 -1.16309114E-14  6.01815575E-14 -3.83805325E-15  1.36219215E-16
 -4.81852024E-13 -1.10807060E-15 -2.85443863E-01  6.79594145E-14 -1.05325912E-15
 -8.09622668E-17  3.76691059E-01 -1.11380074E+00  9.49731691E-17  4.50915988E-02
  1.10394286E+00 -5.03549048E-15 -1.74375890E-01  1.40527404E-14  8.14125903E-14
  2.61684657E-13 -2.67672028E-15  1.48182871E-17  3.85940768E+00 -8.03543193E-03
 -4.16441965E-01 -3.95424002E-15 -7.69870864E-13  8.37501356E-15  2.22407563E-15
 -5.75342762E-15 -1.95351623E-02 -8.34956645E-15 -1.02523677E-16  1.93525445E-15
 -4.21327938E-16  2.95071980E-01 -8.94087258E-16 -8.66104038E-14  6.94644023E-16
 -3.29656451E-15  2.24261716E-16  2.11582464E-17 -9.82972289E-15 -5.47067430E-15
 -6.11074916E-16 -1.38173130E+00 -1.74975611E-12  1.41421973E-15 -1.82423114E-02
  1.62427336E-14  9.91585745E-16  2.85619573E-15 -1.97777036E-02  1.51077511E-13
 -1.16789465E-14  8.57345173E-02 -1.37507777E-16 -1.61372223E-13 -8.66165748E-15
 -1.91845043E-01  9.59704913E-16 -2.01157700E-14 -2.32712458E-16 -6.00543724E-15
  1.03935826E-01 -1.38173130E+00 -2.06529846E-15 -2.76835621E-16 -4.81002524E-13
  7.79580075E-02  1.45721890E-02  4.75734079E-16  4.69864365E-16 -2.40720953E-15
 -6.01627214E-02 -2.26928930E-16 -2.10093909E-01  5.28121955E-16 -3.53145226E-16
 -7.13567002E-01  1.19415066E-15  1.96108767E-16 -1.73270247E-15 -1.22017208E-14
  1.19606230E-01  9.13072698E-13 -1.56555920E-15 -1.61372223E-13  4.53782483E-16
 -8.54883963E-03  3.06178326E-01 -2.85261287E-13  8.63326744E-13 -7.67267449E-17
  1.27182947E-15 -5.05621751E-16 -4.62813297E-16  1.55517058E-01  5.36018666E-15
 -3.01238954E-01 -8.94720548E-17 -1.08207088E-13  1.32828084E-15 -5.64005684E-01
  4.44946250E-16  4.80887919E-15  1.52213764E-14  1.29625345E-14  3.86385007E-13
 -3.30785700E-13  1.02476812E+01  4.30573628E-16 -1.36348780E-01  4.38256650E-14
 -1.10305851E-14 -1.46283083E+00  2.73867822E-16  1.05387297E-16 -2.88132557E-02
  8.79395610E-19  1.90364735E-16  9.58714786E-16 -2.57260631E-16  4.93255093E-02
 -1.28851091E-15  2.04368902E-14 -4.91520270E-16 -3.75438041E-15 -8.35486901E-16
  1.18263686E-01  6.45179026E-16  1.90528800E-14  7.41734841E+00  7.65215089E-15
  8.94144053E-16 -2.18479080E-15 -7.10419466E-14 -2.27354006E+01  2.39727005E-01
  1.98388292E-16  2.89169708E-16  1.11444036E+01  1.84949817E+00 -2.19034772E-14
 -1.17073695E-17  2.84983590E-15  7.10004854E-14 -3.03338217E-17 -1.48195828E-15
 -1.60518970E-15  2.22918435E-17  4.60150242E-03 -2.18990732E-15 -2.56001434E-16
  1.91423085E-15  5.04866012E-01  4.49313807E-14 -7.23015478E-17 -6.99598944E-02
  2.45698295E-01 -5.30144200E-17 -1.47078029E-16  1.17026864E-15  1.75774280E-02
 -3.04617705E-15  6.78783710E-16 -1.44352996E-13 -1.49578722E-17 -2.66967242E-01
  1.38342384E-15  1.46078367E-17 -1.19835992E-15  1.13509383E-15  2.52368434E-15
  1.30210440E-16  4.05402389E-16 -3.78461969E-16  8.96950797E-02  7.30564066E-01
  1.33293247E-16  4.93255093E-02  1.67383762E-01  1.18536059E-15 -1.11322372E-15
 -1.10521988E-14  2.40072421E-16 -2.25717444E-15 -1.40030381E-14 -1.23696487E-15
 -7.42194477E-14 -6.34340254E-18  1.95314190E-15  1.10394286E+00 -6.19418060E-17
  3.61929779E-17 -1.42622852E-17 -2.07472177E-15 -1.49170774E-03  2.33122487E-14
 -1.19204111E-15 -1.25342619E-02  2.96069220E-15  9.81817245E-02  1.20178263E-14
 -1.82423114E-02 -1.34592095E-15  3.95075657E-15  2.23801483E-02 -3.56555672E-14
Overlap Matrix                             R   N=        2415
  1.00000000E+00  7.06285045E-01  1.00000000E+00  3.73527845E-01  7.88878095E-01
  1.00000000E+00  1.42678975E-01  3.71544888E-01  7.10291289E-01  1.00000000E+00
  0.00000000E+00  0.00000000E+00  0.00000000E+00  0.00000000E+00  1.00000000E+00
  0.00000000E+00  0.00000000E+00  0.00000000E+00  0.00000000E+00  0.00000000E+00
  1.00000000E+00 -7.49467037E-17  3.63892821E-16  1.88245536E-16  0.00000000E+00
  0.00000000E+00  0.00000000E+00  1.00000000E+00  0.00000000E+00  0.00000000E+00
  0.00000000E+00  0.00000000E+00  6.14923564E-01  0.00000000E+00  0.00000000E+00
  1.00000000E+00  0.00000000E+00  0.00000000E+00  0.00000000E+00  0.00000000E+00
  0.00000000E+00  6.14923564E-01  0.00000000E+00  0.00000000E+00  1.00000000E+00
  0.00000000E+00  2.75044754E-16  2.03005880E-16  0.00000000E+00  0.00000000E+00
  0.00000000E+00  6.14923564E-01  0.00000000E+00  0.00000000E+00  1.00000000E+00
  0.00000000E+00  0.00000000E+00  0.00000000E+00  0.00000000E+00  1.78636305E-01
  0.00000000E+00  0.00000000E+00  5.94120668E-01  0.00000000E+00  0.00000000E+00
  1.00000000E+00  0.00000000E+00  0.00000000E+00  0.00000000E+00  0.00000000E+00
  0.00000000E+00  1.78636305E-01  0.00000000E+00  0.00000000E+00  5.94120668E-01
  0.00000000E+00  0.00000000E+00  1.00000000E+00 -1.30887400E-19  0.00000000E+00
 -1.41829476E-16 -1.01053779E-16  0.00000000E+00  0.00000000E+00  1.78636305E-01
  0.00000000E+00  0.00000000E+00  5.94120668E-01  0.00000000E+00  0.00000000E+00
  1.00000000E+00  0.00000000E+00  0.00000000E+00  0.00000000E+00  0.00000000E+00
  0.00000000E+00  0.00000000E+00  5.13939112E-16  0.00000000E+00  0.00000000E+00
  0.00000000E+00  0.00000000E+00  0.00000000E+00  1.27405281E-16  1.00000000E+00
  0.00000000E+00  0.00000000E+00  0.00000000E+00  0.00000000E+00  4.45084327E-16
  0.00000000E+00  0.00000000E+00  0.00000000E+00  0.00000000E+00  0.00000000E+00
  1.10336210E-16  0.00000000E+00  0.00000000E+00  0.00000000E+00  1.00000000E+00
  0.00000000E+00  0.00000000E+00  0.00000000E+00  0.00000000E+00  0.00000000E+00
  4.45084327E-16  0.00000000E+00  0.00000000E+00  0.00000000E+00  0.00000000E+00
  0.00000000E+00  1.10336210E-16  0.00000000E+00  0.00000000E+00  0.00000000E+00
  1.00000000E+00 -2.14806471E-17  3.34106111E-17 -2.71169641E-17 -7.94154292E-18
  0.00000000E+00  0.00000000E+00  1.57774974E-32  0.00000000E+00  0.00000000E+00
  0.00000000E+00  0.00000000E+00  0.00000000E+00  3.09761594E-34  1.73531962E-17
  0.00000000E+00  0.00000000E+00  1.00000000E+00  0.00000000E+00  0.00000000E+00
  0.00000000E+00  0.00000000E+00  0.00000000E+00  0.00000000E+00  0.00000000E+00
  0.00000000E+00  0.00000000E+00  0.00000000E+00  0.00000000E+00  0.00000000E+00
  0.00000000E+00  0.00000000E+00  0.00000000E+00  0.00000000E+00  0.00000000E+00
  1.00000000E+00  0.00000000E+00  0.00000000E+00  0.00000000E+00  0.00000000E+00
  0.00000000E+00  0.00000000E+00  0.00000000E+00  0.00000000E+00  0.00000000E+00
  2.39243193E-16  0.00000000E+00  0.00000000E+00 -2.01104086E-16  4.26073291E-01
  0.00000000E+00  0.00000000E+00 -4.68941419E-18  0.00000000E+00  1.00000000E+00
  0.00000000E+00  0.00000000E+00  0.00000000E+00  0.00000000E+00  0.00000000E+00
  0.00000000E+00  0.00000000E+00  2.07190683E-16  0.00000000E+00  0.00000000E+00
 -1.74161247E-16  0.00000000E+00  0.00000000E+00  0.00000000E+00  4.26073291E-01
  0.00000000E+00  0.00000000E+00  0.00000000E+00  0.00000000E+00  1.00000000E+00
  0.00000000E+00  0.00000000E+00  0.00000000E+00  0.00000000E+00  0.00000000E+00
  0.00000000E+00  0.00000000E+00  0.00000000E+00  2.07190683E-16  0.00000000E+00
  0.00000000E+00 -1.74161247E-16  0.00000000E+00  0.00000000E+00  0.00000000E+00
  4.26073291E-01  0.00000000E+00  0.00000000E+00  0.00000000E+00  0.00000000E+00
  1.00000000E+00  1.33656906E-18 -5.94919387E-18 -2.83320046E-17 -1.26821802E-17
  0.00000000E+00  0.00000000E+00  0.00000000E+00  0.00000000E+00  0.00000000E+00
  5.96015979E-34  0.00000000E+00  0.00000000E+00  4.72978868E-34  5.68579452E-18
  0.00000000E+00  0.00000000E+00  4.26073291E-01  0.00000000E+00 -4.95805605E-18
  0.00000000E+00  0.00000000E+00  1.00000000E+00  0.00000000E+00  0.00000000E+00
  0.00000000E+00  0.00000000E+00  0.00000000E+00  0.00000000E+00  0.00000000E+00
  0.00000000E+00  0.00000000E+00  0.00000000E+00  0.00000000E+00  0.00000000E+00
  0.00000000E+00  0.00000000E+00  0.00000000E+00  0.00000000E+00  0.00000000E+00
  4.26073291E-01  0.00000000E+00  0.00000000E+00  0.00000000E+00  0.00000000E+00
  1.00000000E+00  2.46008825E-01  4.09617654E-01  3.05950288E-01  1.35437256E-01
  0.00000000E+00  0.00000000E+00  3.84209929E-01  0.00000000E+00  0.00000000E+00
  5.62145440E-01  0.00000000E+00  0.00000000E+00  2.61097835E-01  4.46026425E-01
  0.00000000E+00  0.00000000E+00 -8.75518985E-18  0.00000000E+00  3.36412191E-01
  0.00000000E+00  0.00000000E+00  2.46375140E-18  0.00000000E+00  1.00000000E+00
  4.09617654E-01  7.09766383E-01  6.69333541E-01  3.53659847E-01  0.00000000E+00
  0.00000000E+00  2.56168238E-01  0.00000000E+00  0.00000000E+00  5.65004057E-01
  0.00000000E+00  0.00000000E+00  4.71479643E-01  1.32027829E-01  0.00000000E+00
  0.00000000E+00 -2.17175138E-17  0.00000000E+00  2.84846392E-01  0.00000000E+00
  0.00000000E+00  4.54511851E-18  0.00000000E+00  7.06285045E-01  1.00000000E+00
  3.05950288E-01  6.69333541E-01  8.97569320E-01  6.80623946E-01  0.00000000E+00
  0.00000000E+00  6.84002465E-02  0.00000000E+00  0.00000000E+00  2.33978523E-01
  0.00000000E+00  0.00000000E+00  4.17426021E-01  1.41702386E-02  0.00000000E+00
  0.00000000E+00 -2.58416577E-18  0.00000000E+00  7.72670528E-02  0.00000000E+00
  0.00000000E+00 -3.83934580E-17  0.00000000E+00  3.73527845E-01  7.88878095E-01
  1.00000000E+00  1.35437256E-01  3.53659847E-01  6.80623946E-01  9.73770575E-01
  0.00000000E+00  0.00000000E+00  7.78106289E-03  0.00000000E+00  0.00000000E+00
  3.48506729E-02  0.00000000E+00  0.00000000E+00  1.25580359E-01  4.40862449E-04
  0.00000000E+00  0.00000000E+00 -1.31731439E-17  0.00000000E+00  4.35223012E-03
  0.00000000E+00  0.00000000E+00  1.27235774E-17  0.00000000E+00  1.42678975E-01
  3.71544888E-01  7.10291289E-01  1.00000000E+00  0.00000000E+00  0.00000000E+00
  0.00000000E+00  0.00000000E+00  2.27523899E-01  0.00000000E+00  0.00000000E+00
  3.24232254E-01  0.00000000E+00  0.00000000E+00  1.46233521E-01  0.00000000E+00
  0.00000000E+00  0.00000000E+00  4.66214777E-01  0.00000000E+00  0.00000000E+00
  0.00000000E+00  0.00000000E+00  3.38179742E-01  0.00000000E+00  0.00000000E+00
  0.00000000E+00  0.00000000E+00  0.00000000E+00  0.00000000E+00  0.00000000E+00
  1.00000000E+00  0.00000000E+00  0.00000000E+00  0.00000000E+00  0.00000000E+00
  0.00000000E+00  2.27523899E-01  0.00000000E+00  0.00000000E+00  3.24232254E-01
  0.00000000E+00  0.00000000E+00  1.46233521E-01  0.00000000E+00  0.00000000E+00
  0.00000000E+00  4.66214777E-01  0.00000000E+00  0.00000000E+00  0.00000000E+00
  0.00000000E+00  3.38179742E-01  0.00000000E+00  0.00000000E+00  0.00000000E+00
  0.00000000E+00  0.00000000E+00  0.00000000E+00  0.00000000E+00  1.00000000E+00
 -3.84209929E-01 -2.56168238E-01 -6.84002465E-02 -7.78106289E-03  0.00000000E+00
  0.00000000E+00 -4.46174364E-01  0.00000000E+00  0.00000000E+00 -9.08095956E-02
  0.00000000E+00  0.00000000E+00  8.76970860E-02 -1.45459966E-01  0.00000000E+00
  0.00000000E+00  1.78215023E-18  0.00000000E+00  2.17826361E-01  0.00000000E+00
  0.00000000E+00 -1.58973247E-18  0.00000000E+00  0.00000000E+00  0.00000000E+00
  0.00000000E+00  0.00000000E+00  0.00000000E+00  0.00000000E+00  1.00000000E+00
  0.00000000E+00  0.00000000E+00  0.00000000E+00  0.00000000E+00  3.24232254E-01
  0.00000000E+00  0.00000000E+00  6.64800253E-01  0.00000000E+00  0.00000000E+00
  5.01252202E-01  0.00000000E+00  0.00000000E+00  0.00000000E+00  3.26019645E-01
  0.00000000E+00  0.00000000E+00  0.00000000E+00  0.00000000E+00  6.02035725E-01
  0.00000000E+00  0.00000000E+00  0.00000000E+00  0.00000000E+00  0.00000000E+00
  0.00000000E+00  0.00000000E+00  6.14923564E-01  0.00000000E+00  0.00000000E+00
  1.00000000E+00  0.00000000E+00  0.00000000E+00  0.00000000E+00  0.00000000E+00
  0.00000000E+00  3.24232254E-01  0.00000000E+00  0.00000000E+00  6.64800253E-01
  0.00000000E+00  0.00000000E+00  5.01252202E-01  0.00000000E+00  0.00000000E+00
  0.00000000E+00  3.26019645E-01  0.00000000E+00  0.00000000E+00  0.00000000E+00
  0.00000000E+00  6.02035725E-01  0.00000000E+00  0.00000000E+00  0.00000000E+00
  0.00000000E+00  0.00000000E+00  0.00000000E+00  0.00000000E+00  6.14923564E-01
  0.00000000E+00  0.00000000E+00  1.00000000E+00 -5.62145440E-01 -5.65004057E-01
 -2.33978523E-01 -3.48506729E-02  0.00000000E+00  0.00000000E+00 -9.08095956E-02
  0.00000000E+00  0.00000000E+00  1.21966042E-01  0.00000000E+00  0.00000000E+00
  3.30853448E-01  1.51603288E-01  0.00000000E+00  0.00000000E+00  1.54046802E-17
  0.00000000E+00  4.74375132E-01  0.00000000E+00  0.00000000E+00 -6.34047814E-18
  0.00000000E+00  0.00000000E+00  0.00000000E+00  0.00000000E+00  0.00000000E+00
  0.00000000E+00  0.00000000E+00  6.14923564E-01  0.00000000E+00  0.00000000E+00
  1.00000000E+00  0.00000000E+00  0.00000000E+00  0.00000000E+00  0.00000000E+00
  1.46233521E-01  0.00000000E+00  0.00000000E+00  5.01252202E-01  0.00000000E+00
  0.00000000E+00  8.98230683E-01  0.00000000E+00  0.00000000E+00  0.00000000E+00
  5.21611161E-02  0.00000000E+00  0.00000000E+00  0.00000000E+00  0.00000000E+00
  2.85680121E-01  0.00000000E+00  0.00000000E+00  0.00000000E+00  0.00000000E+00
  0.00000000E+00  0.00000000E+00  0.00000000E+00  1.78636305E-01  0.00000000E+00
  0.00000000E+00  5.94120668E-01  0.00000000E+00  0.00000000E+00  1.00000000E+00
  0.00000000E+00  0.00000000E+00  0.00000000E+00  0.00000000E+00  0.00000000E+00
  1.46233521E-01  0.00000000E+00  0.00000000E+00  5.01252202E-01  0.00000000E+00
  0.00000000E+00  8.98230683E-01  0.00000000E+00  0.00000000E+00  0.00000000E+00
  5.21611161E-02  0.00000000E+00  0.00000000E+00  0.00000000E+00  0.00000000E+00
  2.85680121E-01  0.00000000E+00  0.00000000E+00  0.00000000E+00  0.00000000E+00
  0.00000000E+00  0.00000000E+00  0.00000000E+00  1.78636305E-01  0.00000000E+00
  0.00000000E+00  5.94120668E-01  0.00000000E+00  0.00000000E+00  1.00000000E+00
 -2.61097835E-01 -4.71479643E-01 -4.17426021E-01 -1.25580359E-01  0.00000000E+00
  0.00000000E+00  8.76970860E-02  0.00000000E+00  0.00000000E+00  3.30853448E-01
  0.00000000E+00  0.00000000E+00  7.05419435E-01  4.84394245E-02  0.00000000E+00
  0.00000000E+00  1.38817245E-18  0.00000000E+00  2.79760260E-01  0.00000000E+00
  0.00000000E+00  3.38320647E-18  0.00000000E+00  0.00000000E+00  0.00000000E+00
  0.00000000E+00  0.00000000E+00  0.00000000E+00  0.00000000E+00  1.78636305E-01
  0.00000000E+00  0.00000000E+00  5.94120668E-01  0.00000000E+00  0.00000000E+00
  1.00000000E+00  4.46026425E-01  1.32027829E-01  1.41702386E-02  4.40862449E-04
  0.00000000E+00  0.00000000E+00  1.45459966E-01  0.00000000E+00  0.00000000E+00
 -1.51603288E-01  0.00000000E+00  0.00000000E+00 -4.84394245E-02 -1.04088722E-01
  0.00000000E+00  0.00000000E+00  1.64122718E-17  0.00000000E+00  3.16256252E-02
  0.00000000E+00  0.00000000E+00  1.05683083E-19  0.00000000E+00  0.00000000E+00
  0.00000000E+00  0.00000000E+00  0.00000000E+00  0.00000000E+00  0.00000000E+00
  0.00000000E+00  0.00000000E+00  0.00000000E+00  0.00000000E+00  0.00000000E+00
  0.00000000E+00  0.00000000E+00  1.00000000E+00  0.00000000E+00  0.00000000E+00
  0.00000000E+00  0.00000000E+00 -4.66214777E-01  0.00000000E+00  0.00000000E+00
 -3.26019645E-01  0.00000000E+00  0.00000000E+00 -5.21611161E-02  0.00000000E+00
  0.00000000E+00  0.00000000E+00 -4.02629428E-01  0.00000000E+00  0.00000000E+00
  0.00000000E+00  0.00000000E+00  4.39792821E-02  0.00000000E+00  0.00000000E+00
  0.00000000E+00  0.00000000E+00  0.00000000E+00  0.00000000E+00  0.00000000E+00
  0.00000000E+00  0.00000000E+00  0.00000000E+00  0.00000000E+00  0.00000000E+00
  0.00000000E+00  0.00000000E+00  0.00000000E+00  0.00000000E+00  0.00000000E+00
  1.00000000E+00  0.00000000E+00  0.00000000E+00  0.00000000E+00  0.00000000E+00
  0.00000000E+00 -4.66214777E-01  0.00000000E+00  0.00000000E+00 -3.26019645E-01
  0.00000000E+00  0.00000000E+00 -5.21611161E-02  0.00000000E+00  0.00000000E+00
  0.00000000E+00 -4.02629428E-01  0.00000000E+00  0.00000000E+00  0.00000000E+00
  0.00000000E+00  4.39792821E-02  0.00000000E+00  0.00000000E+00  0.00000000E+00
  0.00000000E+00  0.00000000E+00  0.00000000E+00  0.00000000E+00  0.00000000E+00
  0.00000000E+00  0.00000000E+00  0.00000000E+00  0.00000000E+00  0.00000000E+00
  0.00000000E+00  0.00000000E+00  0.00000000E+00  0.00000000E+00  1.00000000E+00
 -8.75518985E-18 -2.17175138E-17 -2.58416577E-18 -1.31731439E-17  0.00000000E+00
  0.00000000E+00  5.65493384E-18  0.00000000E+00  0.00000000E+00 -1.54046802E-17
  0.00000000E+00  0.00000000E+00 -1.38817245E-18 -5.96951700E-18  0.00000000E+00
  0.00000000E+00  3.28829331E-01  0.00000000E+00 -3.88767955E-18  0.00000000E+00
  0.00000000E+00  2.79573601E-01  0.00000000E+00 -2.14806471E-17  3.34106111E-17
 -2.71169641E-17 -7.94154292E-18  0.00000000E+00  0.00000000E+00  0.00000000E+00
  0.00000000E+00  0.00000000E+00  0.00000000E+00  0.00000000E+00  0.00000000E+00
  0.00000000E+00  1.73531962E-17  0.00000000E+00  0.00000000E+00  1.00000000E+00
  0.00000000E+00  0.00000000E+00  0.00000000E+00  0.00000000E+00  0.00000000E+00
  0.00000000E+00  0.00000000E+00  0.00000000E+00  0.00000000E+00  0.00000000E+00
  0.00000000E+00  0.00000000E+00  0.00000000E+00  0.00000000E+00  0.00000000E+00
  0.00000000E+00  0.00000000E+00  3.28829331E-01  0.00000000E+00  0.00000000E+00
  0.00000000E+00  0.00000000E+00  2.79573601E-01  0.00000000E+00  0.00000000E+00
  0.00000000E+00  0.00000000E+00  0.00000000E+00  0.00000000E+00  0.00000000E+00
  0.00000000E+00  0.00000000E+00  0.00000000E+00  0.00000000E+00  0.00000000E+00
  0.00000000E+00  0.00000000E+00  0.00000000E+00  0.00000000E+00  0.00000000E+00
  1.00000000E+00  3.36412191E-01  2.84846392E-01  7.72670528E-02  4.35223012E-03
  0.00000000E+00  0.00000000E+00 -2.17826361E-01  0.00000000E+00  0.00000000E+00
 -4.74375132E-01  0.00000000E+00  0.00000000E+00 -2.79760260E-01  3.16256252E-02
  0.00000000E+00  0.00000000E+00 -8.39789282E-19  0.00000000E+00  3.06130591E-01
  0.00000000E+00  0.00000000E+00  2.25271539E-17  0.00000000E+00  0.00000000E+00
  0.00000000E+00  0.00000000E+00  0.00000000E+00  0.00000000E+00  0.00000000E+00
  0.00000000E+00  0.00000000E+00  0.00000000E+00  0.00000000E+00  0.00000000E+00
  0.00000000E+00  0.00000000E+00  4.26073291E-01  0.00000000E+00  0.00000000E+00
 -4.68941419E-18  0.00000000E+00  1.00000000E+00  0.00000000E+00  0.00000000E+00
  0.00000000E+00  0.00000000E+00 -3.38179742E-01  0.00000000E+00  0.00000000E+00
 -6.02035725E-01  0.00000000E+00  0.00000000E+00 -2.85680121E-01  0.00000000E+00
  0.00000000E+00  0.00000000E+00  4.39792821E-02  0.00000000E+00  0.00000000E+00
  0.00000000E+00  0.00000000E+00  3.70290292E-01  0.00000000E+00  0.00000000E+00
  0.00000000E+00  0.00000000E+00  0.00000000E+00  0.00000000E+00  0.00000000E+00
  0.00000000E+00  0.00000000E+00  0.00000000E+00  0.00000000E+00  0.00000000E+00
  0.00000000E+00  0.00000000E+00  0.00000000E+00  0.00000000E+00  0.00000000E+00
  4.26073291E-01  0.00000000E+00  0.00000000E+00  0.00000000E+00  0.00000000E+00
  1.00000000E+00  0.00000000E+00  0.00000000E+00  0.00000000E+00  0.00000000E+00
  0.00000000E+00 -3.38179742E-01  0.00000000E+00  0.00000000E+00 -6.02035725E-01
  0.00000000E+00  0.00000000E+00 -2.85680121E-01  0.00000000E+00  0.00000000E+00
  0.00000000E+00  4.39792821E-02  0.00000000E+00  0.00000000E+00  0.00000000E+00
  0.00000000E+00  3.70290292E-01  0.00000000E+00  0.00000000E+00  0.00000000E+00
  0.00000000E+00  0.00000000E+00  0.00000000E+00  0.00000000E+00  0.00000000E+00
  0.00000000E+00  0.00000000E+00  0.00000000E+00  0.00000000E+00  0.00000000E+00
  0.00000000E+00  0.00000000E+00  0.00000000E+00  0.00000000E+00  4.26073291E-01
  0.00000000E+00  0.00000000E+00  0.00000000E+00  0.00000000E+00  1.00000000E+00
  2.46375140E-18  4.54511851E-18 -3.83934580E-17  1.27235774E-17  0.00000000E+00
  0.00000000E+00  4.11001875E-19  0.00000000E+00  0.00000000E+00  1.37775622E-17
  0.00000000E+00  0.00000000E+00 -3.38320647E-18  5.49125723E-18  0.00000000E+00
  0.00000000E+00  2.79573601E-01  0.00000000E+00 -6.48087274E-18  0.00000000E+00
  0.00000000E+00  7.71126394E-01  0.00000000E+00  1.33656906E-18 -5.94919387E-18
 -2.83320046E-17 -1.26821802E-17  0.00000000E+00  0.00000000E+00  0.00000000E+00
  0.00000000E+00  0.00000000E+00  0.00000000E+00  0.00000000E+00  0.00000000E+00
  0.00000000E+00  5.68579452E-18  0.00000000E+00  0.00000000E+00  4.26073291E-01
  0.00000000E+00 -4.95805605E-18  0.00000000E+00  0.00000000E+00  1.00000000E+00
  0.00000000E+00  0.00000000E+00  0.00000000E+00  0.00000000E+00  0.00000000E+00
  0.00000000E+00  0.00000000E+00  0.00000000E+00  0.00000000E+00  0.00000000E+00
  0.00000000E+00  0.00000000E+00  0.00000000E+00  0.00000000E+00  0.00000000E+00
  0.00000000E+00  0.00000000E+00  2.79573601E-01  0.00000000E+00  0.00000000E+00
  0.00000000E+00  0.00000000E+00  7.71126394E-01  0.00000000E+00  0.00000000E+00
  0.00000000E+00  0.00000000E+00  0.00000000E+00  0.00000000E+00  0.00000000E+00
  0.00000000E+00  0.00000000E+00  0.00000000E+00  0.00000000E+00  0.00000000E+00
  0.00000000E+00  0.00000000E+00  0.00000000E+00  0.00000000E+00  0.00000000E+00
  4.26073291E-01  0.00000000E+00  0.00000000E+00  0.00000000E+00  0.00000000E+00
  1.00000000E+00  2.06999151E-05  6.75009793E-03  6.74061032E-02  9.12484388E-02
  0.00000000E+00  0.00000000E+00  3.99305652E-05  0.00000000E+00  0.00000000E+00
  1.48439541E-02  0.00000000E+00  0.00000000E+00  1.70050724E-01  4.73784187E-04
  0.00000000E+00  0.00000000E+00  8.93143189E-22  0.00000000E+00  1.07295662E-01
  0.00000000E+00  0.00000000E+00  1.76955968E-19  0.00000000E+00  7.88716683E-03
  9.33447794E-02  1.77698977E-01  1.17528376E-01  0.00000000E+00  0.00000000E+00
  1.75961524E-02  0.00000000E+00  0.00000000E+00  1.98151199E-01  0.00000000E+00
  0.00000000E+00  2.93553734E-01  6.02875290E-02  0.00000000E+00  0.00000000E+00
  2.71128000E-19  0.00000000E+00  3.82991979E-01  0.00000000E+00  0.00000000E+00
  1.05066019E-18  0.00000000E+00  1.00000000E+00  6.75009793E-03  5.27603430E-02
  1.92553957E-01  2.43300152E-01  0.00000000E+00  0.00000000E+00  1.10197938E-02
  0.00000000E+00  0.00000000E+00  9.80999036E-02  0.00000000E+00  0.00000000E+00
  3.99916959E-01  2.13079079E-02  0.00000000E+00  0.00000000E+00  2.12492484E-20
  0.00000000E+00  2.59818107E-01  0.00000000E+00  0.00000000E+00 -2.22030330E-18
  0.00000000E+00  9.33447794E-02  2.79079099E-01  4.27879216E-01  3.09205747E-01
  0.00000000E+00  0.00000000E+00  1.08549442E-01  0.00000000E+00  0.00000000E+00
  3.95161952E-01  0.00000000E+00  0.00000000E+00  5.82890703E-01  1.17974768E-01
  0.00000000E+00  0.00000000E+00  4.78701438E-18  0.00000000E+00  4.74095201E-01
  0.00000000E+00  0.00000000E+00  2.05005756E-18  0.00000000E+00  7.06285045E-01
  1.00000000E+00  6.74061032E-02  1.92553957E-01  3.95585726E-01  4.92518674E-01
  0.00000000E+00  0.00000000E+00  4.35113706E-02  0.00000000E+00  0.00000000E+00
  1.87609047E-01  0.00000000E+00  0.00000000E+00  5.40452131E-01  2.73099735E-02
  0.00000000E+00  0.00000000E+00 -5.84839250E-18  0.00000000E+00  2.08408373E-01
  0.00000000E+00  0.00000000E+00  1.05371290E-17  0.00000000E+00  1.77698977E-01
  4.27879216E-01  6.68774817E-01  6.05975544E-01  0.00000000E+00  0.00000000E+00
  7.62613337E-02  0.00000000E+00  0.00000000E+00  2.83482968E-01  0.00000000E+00
  0.00000000E+00  6.00710614E-01  3.08537473E-02  0.00000000E+00  0.00000000E+00
 -7.64911556E-18  0.00000000E+00  1.89823350E-01  0.00000000E+00  0.00000000E+00
 -1.78985344E-17  0.00000000E+00  3.73527845E-01  7.88878095E-01  1.00000000E+00
  9.12484388E-02  2.43300152E-01  4.92518674E-01  7.96045079E-01  0.00000000E+00
  0.00000000E+00  1.53417997E-02  0.00000000E+00  0.00000000E+00  6.99295086E-02
  0.00000000E+00  0.00000000E+00  2.66327224E-01  2.55227306E-03  0.00000000E+00
  0.00000000E+00  4.73142368E-18  0.00000000E+00  2.59113670E-02  0.00000000E+00
  0.00000000E+00  2.08776843E-17  0.00000000E+00  1.17528376E-01  3.09205747E-01
  6.05975544E-01  9.05786833E-01  0.00000000E+00  0.00000000E+00  1.30233639E-02
  0.00000000E+00  0.00000000E+00  5.86987814E-02  0.00000000E+00  0.00000000E+00
  2.15761890E-01  1.42489474E-03  0.00000000E+00  0.00000000E+00  8.51331235E-18
  0.00000000E+00  1.42087719E-02  0.00000000E+00  0.00000000E+00  2.68103941E-17
  0.00000000E+00  1.42678975E-01  3.71544888E-01  7.10291289E-01  1.00000000E+00
  0.00000000E+00  0.00000000E+00  0.00000000E+00  0.00000000E+00  3.03498936E-06
  0.00000000E+00  0.00000000E+00  2.53157962E-03  0.00000000E+00  0.00000000E+00
  3.20640818E-02  0.00000000E+00  0.00000000E+00  0.00000000E+00  8.97341166E-05
  0.00000000E+00  0.00000000E+00  0.00000000E+00  0.00000000E+00  3.46704153E-02
  0.00000000E+00  0.00000000E+00  0.00000000E+00  0.00000000E+00  0.00000000E+00
  0.00000000E+00  0.00000000E+00  4.03940842E-03  0.00000000E+00  0.00000000E+00
  5.67549356E-02  0.00000000E+00  0.00000000E+00  8.47950572E-02  0.00000000E+00
  0.00000000E+00  0.00000000E+00  2.83135261E-02  0.00000000E+00  0.00000000E+00
  0.00000000E+00  0.00000000E+00  1.95749352E-01  0.00000000E+00  0.00000000E+00
  0.00000000E+00  0.00000000E+00  0.00000000E+00  0.00000000E+00  0.00000000E+00
  1.00000000E+00  0.00000000E+00  0.00000000E+00  0.00000000E+00  0.00000000E+00
  0.00000000E+00  3.03498936E-06  0.00000000E+00  0.00000000E+00  2.53157962E-03
  0.00000000E+00  0.00000000E+00  3.20640818E-02  0.00000000E+00  0.00000000E+00
  0.00000000E+00  8.97341166E-05  0.00000000E+00  0.00000000E+00  0.00000000E+00
  0.00000000E+00  3.46704153E-02  0.00000000E+00  0.00000000E+00  0.00000000E+00
  0.00000000E+00  0.00000000E+00  0.00000000E+00  0.00000000E+00  4.03940842E-03
  0.00000000E+00  0.00000000E+00  5.67549356E-02  0.00000000E+00  0.00000000E+00
  8.47950572E-02  0.00000000E+00  0.00000000E+00  0.00000000E+00  2.83135261E-02
  0.00000000E+00  0.00000000E+00  0.00000000E+00  0.00000000E+00  1.95749352E-01
  0.00000000E+00  0.00000000E+00  0.00000000E+00  0.00000000E+00  0.00000000E+00
  0.00000000E+00  0.00000000E+00  1.00000000E+00 -3.99305652E-05 -1.10197938E-02
 -4.35113706E-02 -1.53417997E-02  0.00000000E+00  0.00000000E+00 -7.40859274E-05
  0.00000000E+00  0.00000000E+00 -2.52786048E-02  0.00000000E+00  0.00000000E+00
 -7.80834437E-02 -1.02585801E-03  0.00000000E+00  0.00000000E+00 -1.87382146E-21
  0.00000000E+00 -1.11882526E-01  0.00000000E+00  0.00000000E+00 -1.32760901E-19
  0.00000000E+00 -1.75961524E-02 -1.08549442E-01 -7.62613337E-02 -1.30233639E-02
  0.00000000E+00  0.00000000E+00 -4.04882592E-02  0.00000000E+00  0.00000000E+00
 -2.13711317E-01  0.00000000E+00  0.00000000E+00 -4.15690246E-02 -1.21906464E-01
  0.00000000E+00  0.00000000E+00 -3.93407856E-19  0.00000000E+00 -1.46054118E-01
  0.00000000E+00  0.00000000E+00 -1.63969118E-18  0.00000000E+00  1.49893407E-16
 -7.27785642E-16 -3.76491072E-16  0.00000000E+00  0.00000000E+00  0.00000000E+00
  1.00000000E+00  0.00000000E+00  0.00000000E+00  0.00000000E+00  0.00000000E+00
  2.53157962E-03  0.00000000E+00  0.00000000E+00  3.00868961E-02  0.00000000E+00
  0.00000000E+00  1.38160150E-01  0.00000000E+00  0.00000000E+00  0.00000000E+00
  1.03117781E-02  0.00000000E+00  0.00000000E+00  0.00000000E+00  0.00000000E+00
  1.58707682E-01  0.00000000E+00  0.00000000E+00  0.00000000E+00  0.00000000E+00
  0.00000000E+00  0.00000000E+00  0.00000000E+00  5.67549356E-02  0.00000000E+00
  0.00000000E+00  2.18730086E-01  0.00000000E+00  0.00000000E+00  3.15544828E-01
  0.00000000E+00  0.00000000E+00  0.00000000E+00  1.23703313E-01  0.00000000E+00
  0.00000000E+00  0.00000000E+00  0.00000000E+00  4.89189420E-01  0.00000000E+00
  0.00000000E+00  0.00000000E+00  0.00000000E+00  0.00000000E+00  0.00000000E+00
  0.00000000E+00  6.14923564E-01  0.00000000E+00  0.00000000E+00  1.00000000E+00
  0.00000000E+00  0.00000000E+00  0.00000000E+00  0.00000000E+00  0.00000000E+00
  2.53157962E-03  0.00000000E+00  0.00000000E+00  3.00868961E-02  0.00000000E+00
  0.00000000E+00  1.38160150E-01  0.00000000E+00  0.00000000E+00  0.00000000E+00
  1.03117781E-02  0.00000000E+00  0.00000000E+00  0.00000000E+00  0.00000000E+00
  1.58707682E-01  0.00000000E+00  0.00000000E+00  0.00000000E+00  0.00000000E+00
  0.00000000E+00  0.00000000E+00  0.00000000E+00  5.67549356E-02  0.00000000E+00
  0.00000000E+00  2.18730086E-01  0.00000000E+00  0.00000000E+00  3.15544828E-01
  0.00000000E+00  0.00000000E+00  0.00000000E+00  1.23703313E-01  0.00000000E+00
  0.00000000E+00  0.00000000E+00  0.00000000E+00  4.89189420E-01  0.00000000E+00
  0.00000000E+00  0.00000000E+00  0.00000000E+00  0.00000000E+00  0.00000000E+00
  0.00000000E+00  6.14923564E-01  0.00000000E+00  0.00000000E+00  1.00000000E+00
 -1.48439541E-02 -9.80999036E-02 -1.87609047E-01 -6.99295086E-02  0.00000000E+00
  0.00000000E+00 -2.52786048E-02  0.00000000E+00  0.00000000E+00 -1.80741947E-01
  0.00000000E+00  0.00000000E+00 -2.64899685E-01 -4.91257016E-02  0.00000000E+00
  0.00000000E+00 -4.20102471E-19  0.00000000E+00 -3.16248999E-01  0.00000000E+00
  0.00000000E+00 -2.76023915E-18  0.00000000E+00 -1.98151199E-01 -3.95161952E-01
 -2.83482968E-01 -5.86987814E-02  0.00000000E+00  0.00000000E+00 -2.13711317E-01
  0.00000000E+00  0.00000000E+00 -4.46172976E-01  0.00000000E+00  0.00000000E+00
 -8.37971481E-02 -1.74779577E-01  0.00000000E+00  0.00000000E+00  9.92207689E-18
  0.00000000E+00 -1.03045044E-01  0.00000000E+00  0.00000000E+00  6.10210513E-18
  0.00000000E+00 -3.79196378E-16  0.00000000E+00  4.06011760E-16  0.00000000E+00
  0.00000000E+00  0.00000000E+00  6.14923564E-01  0.00000000E+00  0.00000000E+00
  1.00000000E+00  0.00000000E+00  0.00000000E+00  0.00000000E+00  0.00000000E+00
  3.20640818E-02  0.00000000E+00  0.00000000E+00  1.38160150E-01  0.00000000E+00
  0.00000000E+00  3.98094161E-01  0.00000000E+00  0.00000000E+00  0.00000000E+00
  3.46365530E-02  0.00000000E+00  0.00000000E+00  0.00000000E+00  0.00000000E+00
  2.64507080E-01  0.00000000E+00  0.00000000E+00  0.00000000E+00  0.00000000E+00
  0.00000000E+00  0.00000000E+00  0.00000000E+00  8.47950572E-02  0.00000000E+00
  0.00000000E+00  3.15544828E-01  0.00000000E+00  0.00000000E+00  6.70611193E-01
  0.00000000E+00  0.00000000E+00  0.00000000E+00  5.90593612E-02  0.00000000E+00
  0.00000000E+00  0.00000000E+00  0.00000000E+00  3.64476242E-01  0.00000000E+00
  0.00000000E+00  0.00000000E+00  0.00000000E+00  0.00000000E+00  0.00000000E+00
  0.00000000E+00  1.78636305E-01  0.00000000E+00  0.00000000E+00  5.94120668E-01
  0.00000000E+00  0.00000000E+00  1.00000000E+00  0.00000000E+00  0.00000000E+00
  0.00000000E+00  0.00000000E+00  0.00000000E+00  3.20640818E-02  0.00000000E+00
  0.00000000E+00  1.38160150E-01  0.00000000E+00  0.00000000E+00  3.98094161E-01
  0.00000000E+00  0.00000000E+00  0.00000000E+00  3.46365530E-02  0.00000000E+00
  0.00000000E+00  0.00000000E+00  0.00000000E+00  2.64507080E-01  0.00000000E+00
  0.00000000E+00  0.00000000E+00  0.00000000E+00  0.00000000E+00  0.00000000E+00
  0.00000000E+00  8.47950572E-02  0.00000000E+00  0.00000000E+00  3.15544828E-01
  0.00000000E+00  0.00000000E+00  6.70611193E-01  0.00000000E+00  0.00000000E+00
  0.00000000E+00  5.90593612E-02  0.00000000E+00  0.00000000E+00  0.00000000E+00
  0.00000000E+00  3.64476242E-01  0.00000000E+00  0.00000000E+00  0.00000000E+00
  0.00000000E+00  0.00000000E+00  0.00000000E+00  0.00000000E+00  1.78636305E-01
  0.00000000E+00  0.00000000E+00  5.94120668E-01  0.00000000E+00  0.00000000E+00
  1.00000000E+00 -1.70050724E-01 -3.99916959E-01 -5.40452131E-01 -2.66327224E-01
  0.00000000E+00  0.00000000E+00 -7.80834437E-02  0.00000000E+00  0.00000000E+00
 -2.64899685E-01  0.00000000E+00  0.00000000E+00 -3.35248402E-01 -2.71970145E-02
  0.00000000E+00  0.00000000E+00  4.37930438E-18  0.00000000E+00 -9.27717209E-02
  0.00000000E+00  0.00000000E+00 -1.79894571E-17  0.00000000E+00 -2.93553734E-01
 -5.82890703E-01 -6.00710614E-01 -2.15761890E-01  0.00000000E+00  0.00000000E+00
 -4.15690246E-02  0.00000000E+00  0.00000000E+00 -8.37971481E-02  0.00000000E+00
  0.00000000E+00  1.34704658E-01  1.84945565E-02  0.00000000E+00  0.00000000E+00
 -7.28905321E-18  0.00000000E+00  1.82832734E-01  0.00000000E+00  0.00000000E+00
 -6.91541206E-18  0.00000000E+00  2.61774800E-19  0.00000000E+00  2.83658952E-16
  2.02107559E-16  0.00000000E+00  0.00000000E+00  1.78636305E-01  0.00000000E+00
  0.00000000E+00  5.94120668E-01  0.00000000E+00  0.00000000E+00  1.00000000E+00
  4.73784187E-04  2.13079079E-02  2.73099735E-02  2.55227306E-03  0.00000000E+00
  0.00000000E+00  1.02585801E-03  0.00000000E+00  0.00000000E+00  4.91257016E-02
  0.00000000E+00  0.00000000E+00  2.71970145E-02  6.94393691E-03  0.00000000E+00
  0.00000000E+00 -2.16576860E-20  0.00000000E+00  1.00724968E-01  0.00000000E+00
  0.00000000E+00 -5.77582884E-19  0.00000000E+00  6.02875290E-02  1.17974768E-01
  3.08537473E-02  1.42489474E-03  0.00000000E+00  0.00000000E+00  1.21906464E-01
  0.00000000E+00  0.00000000E+00  1.74779577E-01  0.00000000E+00  0.00000000E+00
 -1.84945565E-02  2.03974031E-01  0.00000000E+00  0.00000000E+00 -2.35718705E-18
  0.00000000E+00  8.67627000E-03  0.00000000E+00  0.00000000E+00  3.66361182E-19
  0.00000000E+00  0.00000000E+00  0.00000000E+00  0.00000000E+00  0.00000000E+00
  0.00000000E+00  0.00000000E+00 -1.02787822E-15  0.00000000E+00  0.00000000E+00
  0.00000000E+00  0.00000000E+00  0.00000000E+00 -2.54810563E-16  1.00000000E+00
  0.00000000E+00  0.00000000E+00  0.00000000E+00  0.00000000E+00 -8.97341166E-05
  0.00000000E+00  0.00000000E+00 -1.03117781E-02  0.00000000E+00  0.00000000E+00
 -3.46365530E-02  0.00000000E+00  0.00000000E+00  0.00000000E+00 -1.29474092E-03
  0.00000000E+00  0.00000000E+00  0.00000000E+00  0.00000000E+00 -7.14060851E-02
  0.00000000E+00  0.00000000E+00  0.00000000E+00  0.00000000E+00  0.00000000E+00
  0.00000000E+00  0.00000000E+00 -2.83135261E-02  0.00000000E+00  0.00000000E+00
 -1.23703313E-01  0.00000000E+00  0.00000000E+00 -5.90593612E-02  0.00000000E+00
  0.00000000E+00  0.00000000E+00 -1.15868087E-01  0.00000000E+00  0.00000000E+00
  0.00000000E+00  0.00000000E+00 -1.89712143E-01  0.00000000E+00  0.00000000E+00
  0.00000000E+00  0.00000000E+00  0.00000000E+00  0.00000000E+00  0.00000000E+00
 -8.90168653E-16  0.00000000E+00  0.00000000E+00  0.00000000E+00  0.00000000E+00
  0.00000000E+00 -2.20672420E-16  0.00000000E+00  0.00000000E+00  0.00000000E+00
  1.00000000E+00  0.00000000E+00  0.00000000E+00  0.00000000E+00  0.00000000E+00
  0.00000000E+00 -8.97341166E-05  0.00000000E+00  0.00000000E+00 -1.03117781E-02
  0.00000000E+00  0.00000000E+00 -3.46365530E-02  0.00000000E+00  0.00000000E+00
  0.00000000E+00 -1.29474092E-03  0.00000000E+00  0.00000000E+00  0.00000000E+00
  0.00000000E+00 -7.14060851E-02  0.00000000E+00  0.00000000E+00  0.00000000E+00
  0.00000000E+00  0.00000000E+00  0.00000000E+00  0.00000000E+00 -2.83135261E-02
  0.00000000E+00  0.00000000E+00 -1.23703313E-01  0.00000000E+00  0.00000000E+00
 -5.90593612E-02  0.00000000E+00  0.00000000E+00  0.00000000E+00 -1.15868087E-01
  0.00000000E+00  0.00000000E+00  0.00000000E+00  0.00000000E+00 -1.89712143E-01
  0.00000000E+00  0.00000000E+00  0.00000000E+00  0.00000000E+00  0.00000000E+00
  0.00000000E+00  0.00000000E+00 -8.90168653E-16  0.00000000E+00  0.00000000E+00
  0.00000000E+00  0.00000000E+00  0.00000000E+00 -2.20672420E-16  0.00000000E+00
  0.00000000E+00  0.00000000E+00  1.00000000E+00  8.93143189E-22  2.12492484E-20
 -5.84839250E-18  4.73142368E-18  0.00000000E+00  0.00000000E+00  2.78166864E-21
  0.00000000E+00  0.00000000E+00  2.95554929E-19  0.00000000E+00  0.00000000E+00
 -4.37930438E-18 -1.99648692E-20  0.00000000E+00  0.00000000E+00  7.15739345E-05
  0.00000000E+00 -4.14520927E-18  0.00000000E+00  0.00000000E+00  1.14583755E-02
  0.00000000E+00  2.71128000E-19 -3.51296038E-18 -7.64911556E-18  8.51331235E-18
  0.00000000E+00  0.00000000E+00  3.93407856E-19  0.00000000E+00  0.00000000E+00
  4.95209125E-18  0.00000000E+00  0.00000000E+00  7.28905321E-18  2.92966878E-18
  0.00000000E+00  0.00000000E+00  1.59133314E-02  0.00000000E+00  2.25284908E-17
  0.00000000E+00  0.00000000E+00  8.87666109E-02  0.00000000E+00 -2.14806471E-17
  3.34106111E-17 -2.71169641E-17 -7.94154292E-18  0.00000000E+00  0.00000000E+00
 -3.15549948E-32  0.00000000E+00  0.00000000E+00  0.00000000E+00  0.00000000E+00
  0.00000000E+00 -6.19523187E-34  1.73531962E-17  0.00000000E+00  0.00000000E+00
  1.00000000E+00  0.00000000E+00  0.00000000E+00  0.00000000E+00  0.00000000E+00
  0.00000000E+00  0.00000000E+00  0.00000000E+00  0.00000000E+00  0.00000000E+00
  0.00000000E+00  0.00000000E+00  0.00000000E+00  0.00000000E+00  0.00000000E+00
  0.00000000E+00  0.00000000E+00  0.00000000E+00  7.15739345E-05  0.00000000E+00
  0.00000000E+00  0.00000000E+00  0.00000000E+00  1.14583755E-02  0.00000000E+00
  0.00000000E+00  0.00000000E+00  0.00000000E+00  0.00000000E+00  0.00000000E+00
  0.00000000E+00  0.00000000E+00  0.00000000E+00  0.00000000E+00  0.00000000E+00
  0.00000000E+00  0.00000000E+00  0.00000000E+00  0.00000000E+00  0.00000000E+00
  0.00000000E+00  1.59133314E-02  0.00000000E+00  0.00000000E+00  0.00000000E+00
  0.00000000E+00  8.87666109E-02  0.00000000E+00  0.00000000E+00  0.00000000E+00
  0.00000000E+00  0.00000000E+00  0.00000000E+00  0.00000000E+00  0.00000000E+00
  0.00000000E+00  0.00000000E+00  0.00000000E+00  0.00000000E+00  0.00000000E+00
  0.00000000E+00  0.00000000E+00  0.00000000E+00  0.00000000E+00  1.00000000E+00
  1.07295662E-01  2.59818107E-01  2.08408373E-01  2.59113670E-02  0.00000000E+00
  0.00000000E+00  1.11882526E-01  0.00000000E+00  0.00000000E+00  3.16248999E-01
  0.00000000E+00  0.00000000E+00  9.27717209E-02  1.00724968E-01  0.00000000E+00
  0.00000000E+00  1.18793574E-18  0.00000000E+00  1.81136677E-01  0.00000000E+00
  0.00000000E+00  1.13430113E-17  0.00000000E+00  3.82991979E-01  4.74095201E-01
  1.89823350E-01  1.42087719E-02  0.00000000E+00  0.00000000E+00  1.46054118E-01
  0.00000000E+00  0.00000000E+00  1.03045044E-01  0.00000000E+00  0.00000000E+00
 -1.82832734E-01  8.67627000E-03  0.00000000E+00  0.00000000E+00 -4.06152976E-20
  0.00000000E+00 -1.26135022E-01  0.00000000E+00  0.00000000E+00  2.54995918E-17
  0.00000000E+00  0.00000000E+00  0.00000000E+00  0.00000000E+00  0.00000000E+00
  0.00000000E+00  0.00000000E+00  0.00000000E+00  0.00000000E+00  0.00000000E+00
  0.00000000E+00  0.00000000E+00  0.00000000E+00  0.00000000E+00  4.26073291E-01
  0.00000000E+00  0.00000000E+00 -4.68941419E-18  0.00000000E+00  1.00000000E+00
  0.00000000E+00  0.00000000E+00  0.00000000E+00  0.00000000E+00 -3.46704153E-02
  0.00000000E+00  0.00000000E+00 -1.58707682E-01  0.00000000E+00  0.00000000E+00
 -2.64507080E-01  0.00000000E+00  0.00000000E+00  0.00000000E+00 -7.14060851E-02
  0.00000000E+00  0.00000000E+00  0.00000000E+00  0.00000000E+00 -3.71981443E-01
  0.00000000E+00  0.00000000E+00  0.00000000E+00  0.00000000E+00  0.00000000E+00
  0.00000000E+00  0.00000000E+00 -1.95749352E-01  0.00000000E+00  0.00000000E+00
 -4.89189420E-01  0.00000000E+00  0.00000000E+00 -3.64476242E-01  0.00000000E+00
  0.00000000E+00  0.00000000E+00 -1.89712143E-01  0.00000000E+00  0.00000000E+00
  0.00000000E+00  0.00000000E+00 -3.55360570E-01  0.00000000E+00  0.00000000E+00
  0.00000000E+00  0.00000000E+00  0.00000000E+00  0.00000000E+00  0.00000000E+00
  0.00000000E+00  0.00000000E+00  0.00000000E+00  0.00000000E+00  0.00000000E+00
  0.00000000E+00  0.00000000E+00  0.00000000E+00  0.00000000E+00  0.00000000E+00
  4.26073291E-01  0.00000000E+00  0.00000000E+00  0.00000000E+00  0.00000000E+00
  1.00000000E+00  0.00000000E+00  0.00000000E+00  0.00000000E+00  0.00000000E+00
  0.00000000E+00 -3.46704153E-02  0.00000000E+00  0.00000000E+00 -1.58707682E-01
  0.00000000E+00  0.00000000E+00 -2.64507080E-01  0.00000000E+00  0.00000000E+00
  0.00000000E+00 -7.14060851E-02  0.00000000E+00  0.00000000E+00  0.00000000E+00
  0.00000000E+00 -3.71981443E-01  0.00000000E+00  0.00000000E+00  0.00000000E+00
  0.00000000E+00  0.00000000E+00  0.00000000E+00  0.00000000E+00 -1.95749352E-01
  0.00000000E+00  0.00000000E+00 -4.89189420E-01  0.00000000E+00  0.00000000E+00
 -3.64476242E-01  0.00000000E+00  0.00000000E+00  0.00000000E+00 -1.89712143E-01
  0.00000000E+00  0.00000000E+00  0.00000000E+00  0.00000000E+00 -3.55360570E-01
  0.00000000E+00  0.00000000E+00  0.00000000E+00  0.00000000E+00  0.00000000E+00
  0.00000000E+00  0.00000000E+00  0.00000000E+00  0.00000000E+00  0.00000000E+00
  0.00000000E+00  0.00000000E+00  0.00000000E+00  0.00000000E+00  0.00000000E+00
  0.00000000E+00  0.00000000E+00  4.26073291E-01  0.00000000E+00  0.00000000E+00
  0.00000000E+00  0.00000000E+00  1.00000000E+00  1.76955968E-19 -2.22030330E-18
  1.05371290E-17  2.08776843E-17  0.00000000E+00  0.00000000E+00 -6.23731969E-21
  0.00000000E+00  0.00000000E+00  1.39915830E-18  0.00000000E+00  0.00000000E+00
 -1.52104419E-17  7.35536506E-21  0.00000000E+00  0.00000000E+00  1.14583755E-02
  0.00000000E+00  5.70788464E-18  0.00000000E+00  0.00000000E+00  1.07482605E-01
  0.00000000E+00  1.05066019E-18  2.05005756E-18 -1.78985344E-17  2.68103941E-17
  0.00000000E+00  0.00000000E+00  4.94332998E-19  0.00000000E+00  0.00000000E+00
  1.33497894E-18  0.00000000E+00  0.00000000E+00 -7.95875608E-18 -2.43146696E-19
  0.00000000E+00  0.00000000E+00  8.87666109E-02  0.00000000E+00  5.53258844E-18
  0.00000000E+00  0.00000000E+00  3.80003089E-01  0.00000000E+00  1.33656906E-18
 -5.94919387E-18 -2.83320046E-17 -1.26821802E-17  0.00000000E+00  0.00000000E+00
  0.00000000E+00  0.00000000E+00  0.00000000E+00  0.00000000E+00  0.00000000E+00
  0.00000000E+00  0.00000000E+00  5.68579452E-18  0.00000000E+00  0.00000000E+00
  4.26073291E-01  0.00000000E+00 -4.95805605E-18  0.00000000E+00  0.00000000E+00
  1.00000000E+00  0.00000000E+00  0.00000000E+00  0.00000000E+00  0.00000000E+00
  0.00000000E+00  0.00000000E+00  0.00000000E+00  0.00000000E+00  0.00000000E+00
  0.00000000E+00  0.00000000E+00  0.00000000E+00  0.00000000E+00  0.00000000E+00
  0.00000000E+00  0.00000000E+00  0.00000000E+00  1.14583755E-02  0.00000000E+00
  0.00000000E+00  0.00000000E+00  0.00000000E+00  1.07482605E-01  0.00000000E+00
  0.00000000E+00  0.00000000E+00  0.00000000E+00  0.00000000E+00  0.00000000E+00
  0.00000000E+00  0.00000000E+00  0.00000000E+00  0.00000000E+00  0.00000000E+00
  0.00000000E+00  0.00000000E+00  0.00000000E+00  0.00000000E+00  0.00000000E+00
  0.00000000E+00  8.87666109E-02  0.00000000E+00  0.00000000E+00  0.00000000E+00
  0.00000000E+00  3.80003089E-01  0.00000000E+00  0.00000000E+00  0.00000000E+00
  0.00000000E+00  0.00000000E+00  0.00000000E+00  0.00000000E+00  0.00000000E+00
  0.00000000E+00  0.00000000E+00  0.00000000E+00  0.00000000E+00  0.00000000E+00
  0.00000000E+00  0.00000000E+00  0.00000000E+00  0.00000000E+00  4.26073291E-01
  0.00000000E+00  0.00000000E+00  0.00000000E+00  0.00000000E+00  1.00000000E+00
Kinetic Energy Matrix                      R   N=        2415
  2.30467957E+00  5.49013001E-01  4.88700000E-01  1.06269592E-01  1.84799950E-01
  1.54050000E-01  1.05945050E-02  2.61297722E-02  4.32003536E-02  3.78900000E-02
  0.00000000E+00  0.00000000E+00  0.00000000E+00  0.00000000E+00  3.51750000E+00
  0.00000000E+00  0.00000000E+00  0.00000000E+00  0.00000000E+00  0.00000000E+00
  3.51750000E+00  0.00000000E+00  0.00000000E+00  0.00000000E+00  0.00000000E+00
  0.00000000E+00  0.00000000E+00  3.51750000E+00  0.00000000E+00  0.00000000E+00
  0.00000000E+00  0.00000000E+00  9.35088057E-01  0.00000000E+00  0.00000000E+00
  9.70000000E-01  0.00000000E+00  0.00000000E+00  0.00000000E+00  0.00000000E+00
  0.00000000E+00  9.35088057E-01  0.00000000E+00  0.00000000E+00  9.70000000E-01
  0.00000000E+00  0.00000000E+00  0.00000000E+00  0.00000000E+00  0.00000000E+00
  0.00000000E+00  9.35088057E-01  0.00000000E+00  0.00000000E+00  9.70000000E-01
  0.00000000E+00  0.00000000E+00  0.00000000E+00  0.00000000E+00  8.49463573E-02
  0.00000000E+00  0.00000000E+00  2.39927751E-01  0.00000000E+00  0.00000000E+00
  2.55000000E-01  0.00000000E+00  0.00000000E+00  0.00000000E+00  0.00000000E+00
  0.00000000E+00  8.49463573E-02  0.00000000E+00  0.00000000E+00  2.39927751E-01
  0.00000000E+00  0.00000000E+00  2.55000000E-01  0.00000000E+00  0.00000000E+00
  0.00000000E+00  0.00000000E+00  0.00000000E+00  0.00000000E+00  8.49463573E-02
  0.00000000E+00  0.00000000E+00  2.39927751E-01  0.00000000E+00  0.00000000E+00
  2.55000000E-01  0.00000000E+00  0.00000000E+00 -4.44089210E-16  0.00000000E+00
  0.00000000E+00  0.00000000E+00  0.00000000E+00  0.00000000E+00  0.00000000E+00
  0.00000000E+00  0.00000000E+00  0.00000000E+00  0.00000000E+00  3.69950000E+00
  0.00000000E+00  0.00000000E+00  0.00000000E+00  0.00000000E+00  0.00000000E+00
  0.00000000E+00  0.00000000E+00  0.00000000E+00  0.00000000E+00  0.00000000E+00
  0.00000000E+00  0.00000000E+00  0.00000000E+00  0.00000000E+00  3.69950000E+00
  0.00000000E+00  0.00000000E+00  0.00000000E+00  0.00000000E+00  0.00000000E+00
  0.00000000E+00  0.00000000E+00  0.00000000E+00  0.00000000E+00  0.00000000E+00
  0.00000000E+00  0.00000000E+00  0.00000000E+00  0.00000000E+00  0.00000000E+00
  3.69950000E+00  3.23694547E-18 -4.77966341E-18  6.77092070E-19 -6.78928523E-19
  0.00000000E+00  0.00000000E+00  0.00000000E+00  0.00000000E+00  0.00000000E+00
  0.00000000E+00  0.00000000E+00  0.00000000E+00  0.00000000E+00 -7.23594526E-17
  0.00000000E+00  0.00000000E+00  3.69950000E+00  0.00000000E+00  0.00000000E+00
  0.00000000E+00  0.00000000E+00  0.00000000E+00  0.00000000E+00  0.00000000E+00
  0.00000000E+00  0.00000000E+00  0.00000000E+00  0.00000000E+00  0.00000000E+00
  0.00000000E+00  0.00000000E+00  0.00000000E+00  0.00000000E+00  0.00000000E+00
  3.69950000E+00  5.55111512E-17  0.00000000E+00  0.00000000E+00  0.00000000E+00
  0.00000000E+00  0.00000000E+00  0.00000000E+00  0.00000000E+00  0.00000000E+00
  0.00000000E+00  0.00000000E+00  0.00000000E+00  0.00000000E+00  5.97140737E-01
  0.00000000E+00  0.00000000E+00 -4.81360961E-18  0.00000000E+00  8.64500000E-01
  0.00000000E+00  0.00000000E+00  0.00000000E+00  0.00000000E+00  0.00000000E+00
  0.00000000E+00  0.00000000E+00  0.00000000E+00  0.00000000E+00  0.00000000E+00
  0.00000000E+00  0.00000000E+00  0.00000000E+00  0.00000000E+00  5.97140737E-01
  0.00000000E+00  0.00000000E+00  0.00000000E+00  0.00000000E+00  8.64500000E-01
  0.00000000E+00  0.00000000E+00  0.00000000E+00  0.00000000E+00  0.00000000E+00
  0.00000000E+00  0.00000000E+00  0.00000000E+00  0.00000000E+00  0.00000000E+00
  0.00000000E+00  0.00000000E+00  0.00000000E+00  0.00000000E+00  0.00000000E+00
  5.97140737E-01  0.00000000E+00  0.00000000E+00  0.00000000E+00  0.00000000E+00
  8.64500000E-01 -4.14016277E-19  1.00155171E-18 -4.33662876E-18  3.70999418E-20
  0.00000000E+00  0.00000000E+00  0.00000000E+00  0.00000000E+00  0.00000000E+00
  0.00000000E+00  0.00000000E+00  0.00000000E+00  0.00000000E+00  9.55397079E-18
  0.00000000E+00  0.00000000E+00  5.97140737E-01  0.00000000E+00 -1.34936179E-17
  0.00000000E+00  0.00000000E+00  8.64500000E-01  0.00000000E+00  0.00000000E+00
  0.00000000E+00  0.00000000E+00  0.00000000E+00  0.00000000E+00  0.00000000E+00
  0.00000000E+00  0.00000000E+00  0.00000000E+00  0.00000000E+00  0.00000000E+00
  0.00000000E+00  0.00000000E+00  0.00000000E+00  0.00000000E+00  0.00000000E+00
  5.97140737E-01  0.00000000E+00  0.00000000E+00  0.00000000E+00  0.00000000E+00
  8.64500000E-01  3.66191280E-02  2.02141518E-01  7.54545569E-02  9.70753153E-03
  0.00000000E+00  0.00000000E+00  5.24083263E-01  0.00000000E+00  0.00000000E+00
  6.26186463E-01  0.00000000E+00  0.00000000E+00  1.13288418E-01  1.17498623E+00
  0.00000000E+00  0.00000000E+00  7.68188257E-18  0.00000000E+00  4.26717448E-01
  0.00000000E+00  0.00000000E+00 -4.57833954E-18  0.00000000E+00  2.30467957E+00
  2.02141518E-01  2.67588626E-01  1.39618408E-01  2.40539400E-02  0.00000000E+00
  0.00000000E+00  2.63382058E-01  0.00000000E+00  0.00000000E+00  4.25714173E-01
  0.00000000E+00  0.00000000E+00  1.71148700E-01  1.95695600E-01  0.00000000E+00
  0.00000000E+00  5.42026633E-18  0.00000000E+00  2.56462950E-01  0.00000000E+00
  0.00000000E+00  3.02443155E-19  0.00000000E+00  5.49013001E-01  4.88700000E-01
  7.54545569E-02  1.39618408E-01  1.28309089E-01  4.02185225E-02  0.00000000E+00
  0.00000000E+00  3.00967641E-02  0.00000000E+00  0.00000000E+00  8.85077073E-02
  0.00000000E+00  0.00000000E+00  1.02206558E-01  8.76227394E-03  0.00000000E+00
  0.00000000E+00 -8.17691742E-19  0.00000000E+00  3.75228964E-02  0.00000000E+00
  0.00000000E+00  8.05768892E-19  0.00000000E+00  1.06269592E-01  1.84799950E-01
  1.54050000E-01  9.70753153E-03  2.40539400E-02  4.02185225E-02  3.62423780E-02
  0.00000000E+00  0.00000000E+00  9.45249825E-04  0.00000000E+00  0.00000000E+00
  4.05009242E-03  0.00000000E+00  0.00000000E+00  1.24959088E-02  7.50045086E-05
  0.00000000E+00  0.00000000E+00 -2.63309278E-19  0.00000000E+00  6.88542141E-04
  0.00000000E+00  0.00000000E+00  8.27236528E-19  0.00000000E+00  1.05945050E-02
  2.61297722E-02  4.32003536E-02  3.78900000E-02  0.00000000E+00  0.00000000E+00
  0.00000000E+00  0.00000000E+00  3.26368587E-01  0.00000000E+00  0.00000000E+00
  3.66818880E-01  0.00000000E+00  0.00000000E+00  6.39708349E-02  0.00000000E+00
  0.00000000E+00  0.00000000E+00  1.25490252E+00  0.00000000E+00  0.00000000E+00
  0.00000000E+00  0.00000000E+00  4.34555186E-01  0.00000000E+00  0.00000000E+00
  0.00000000E+00  0.00000000E+00  0.00000000E+00  0.00000000E+00  0.00000000E+00
  3.51750000E+00  0.00000000E+00  0.00000000E+00  0.00000000E+00  0.00000000E+00
  0.00000000E+00  3.26368587E-01  0.00000000E+00  0.00000000E+00  3.66818880E-01
  0.00000000E+00  0.00000000E+00  6.39708349E-02  0.00000000E+00  0.00000000E+00
  0.00000000E+00  1.25490252E+00  0.00000000E+00  0.00000000E+00  0.00000000E+00
  0.00000000E+00  4.34555186E-01  0.00000000E+00  0.00000000E+00  0.00000000E+00
  0.00000000E+00  0.00000000E+00  0.00000000E+00  0.00000000E+00  3.51750000E+00
 -5.24083263E-01 -2.63382058E-01 -3.00967641E-02 -9.45249825E-04  0.00000000E+00
  0.00000000E+00 -1.58790225E+00  0.00000000E+00  0.00000000E+00 -3.55191658E-01
  0.00000000E+00  0.00000000E+00  2.72294202E-02 -1.21697398E+00  0.00000000E+00
  0.00000000E+00  1.91573092E-19  0.00000000E+00  2.07342301E-01  0.00000000E+00
  0.00000000E+00 -8.47499192E-19  0.00000000E+00  0.00000000E+00  0.00000000E+00
  0.00000000E+00  0.00000000E+00  0.00000000E+00  0.00000000E+00  3.51750000E+00
  0.00000000E+00  0.00000000E+00  0.00000000E+00  0.00000000E+00  3.66818880E-01
  0.00000000E+00  0.00000000E+00  5.39546408E-01  0.00000000E+00  0.00000000E+00
  1.88661397E-01  0.00000000E+00  0.00000000E+00  0.00000000E+00  5.37176130E-01
  0.00000000E+00  0.00000000E+00  0.00000000E+00  0.00000000E+00  5.78309205E-01
  0.00000000E+00  0.00000000E+00  0.00000000E+00  0.00000000E+00  0.00000000E+00
  0.00000000E+00  0.00000000E+00  9.35088057E-01  0.00000000E+00  0.00000000E+00
  9.70000000E-01  0.00000000E+00  0.00000000E+00  0.00000000E+00  0.00000000E+00
  0.00000000E+00  3.66818880E-01  0.00000000E+00  0.00000000E+00  5.39546408E-01
  0.00000000E+00  0.00000000E+00  1.88661397E-01  0.00000000E+00  0.00000000E+00
  0.00000000E+00  5.37176130E-01  0.00000000E+00  0.00000000E+00  0.00000000E+00
  0.00000000E+00  5.78309205E-01  0.00000000E+00  0.00000000E+00  0.00000000E+00
  0.00000000E+00  0.00000000E+00  0.00000000E+00  0.00000000E+00  9.35088057E-01
  0.00000000E+00  0.00000000E+00  9.70000000E-01 -6.26186463E-01 -4.25714173E-01
 -8.85077073E-02 -4.05009242E-03  0.00000000E+00  0.00000000E+00 -3.55191658E-01
  0.00000000E+00  0.00000000E+00 -1.11633039E-01  0.00000000E+00  0.00000000E+00
  9.70013718E-02  1.22160099E-01  0.00000000E+00  0.00000000E+00 -2.35802291E-17
  0.00000000E+00  3.89033509E-01  0.00000000E+00  0.00000000E+00  3.03004039E-18
  0.00000000E+00  0.00000000E+00  0.00000000E+00  0.00000000E+00  0.00000000E+00
  0.00000000E+00  0.00000000E+00  9.35088057E-01  0.00000000E+00  0.00000000E+00
  9.70000000E-01  0.00000000E+00  0.00000000E+00  0.00000000E+00  0.00000000E+00
  6.39708349E-02  0.00000000E+00  0.00000000E+00  1.88661397E-01  0.00000000E+00
  0.00000000E+00  2.19215451E-01  0.00000000E+00  0.00000000E+00  0.00000000E+00
  3.20656068E-02  0.00000000E+00  0.00000000E+00  0.00000000E+00  0.00000000E+00
  1.38094854E-01  0.00000000E+00  0.00000000E+00  0.00000000E+00  0.00000000E+00
  0.00000000E+00  0.00000000E+00  0.00000000E+00  8.49463573E-02  0.00000000E+00
  0.00000000E+00  2.39927751E-01  0.00000000E+00  0.00000000E+00  2.55000000E-01
  0.00000000E+00  0.00000000E+00  0.00000000E+00  0.00000000E+00  0.00000000E+00
  6.39708349E-02  0.00000000E+00  0.00000000E+00  1.88661397E-01  0.00000000E+00
  0.00000000E+00  2.19215451E-01  0.00000000E+00  0.00000000E+00  0.00000000E+00
  3.20656068E-02  0.00000000E+00  0.00000000E+00  0.00000000E+00  0.00000000E+00
  1.38094854E-01  0.00000000E+00  0.00000000E+00  0.00000000E+00  0.00000000E+00
  0.00000000E+00  0.00000000E+00  0.00000000E+00  8.49463573E-02  0.00000000E+00
  0.00000000E+00  2.39927751E-01  0.00000000E+00  0.00000000E+00  2.55000000E-01
 -1.13288418E-01 -1.71148700E-01 -1.02206558E-01 -1.24959088E-02  0.00000000E+00
  0.00000000E+00  2.72294202E-02  0.00000000E+00  0.00000000E+00  9.70013718E-02
  0.00000000E+00  0.00000000E+00  1.52492635E-01  2.75840446E-02  0.00000000E+00
  0.00000000E+00 -2.60037213E-19  0.00000000E+00  1.27997777E-01  0.00000000E+00
  0.00000000E+00 -1.29506480E-18  0.00000000E+00  0.00000000E+00  0.00000000E+00
  0.00000000E+00  0.00000000E+00  0.00000000E+00  0.00000000E+00  8.49463573E-02
  0.00000000E+00  0.00000000E+00  2.39927751E-01  0.00000000E+00  0.00000000E+00
  2.55000000E-01  1.17498623E+00  1.95695600E-01  8.76227394E-03  7.50045086E-05
  0.00000000E+00  0.00000000E+00  1.21697398E+00  0.00000000E+00  0.00000000E+00
 -1.22160099E-01  0.00000000E+00  0.00000000E+00 -2.75840446E-02 -1.47027753E-01
  0.00000000E+00  0.00000000E+00 -6.71639059E-18  0.00000000E+00 -3.37984499E-02
  0.00000000E+00  0.00000000E+00  3.85332207E-18  0.00000000E+00  0.00000000E+00
  0.00000000E+00 -4.44089210E-16  0.00000000E+00  0.00000000E+00  0.00000000E+00
  0.00000000E+00  0.00000000E+00  0.00000000E+00  0.00000000E+00  0.00000000E+00
  0.00000000E+00  0.00000000E+00  3.69950000E+00  0.00000000E+00  0.00000000E+00
  0.00000000E+00  0.00000000E+00 -1.25490252E+00  0.00000000E+00  0.00000000E+00
 -5.37176130E-01  0.00000000E+00  0.00000000E+00 -3.20656068E-02  0.00000000E+00
  0.00000000E+00  0.00000000E+00 -1.78934319E+00  0.00000000E+00  0.00000000E+00
  0.00000000E+00  0.00000000E+00 -4.01218025E-02  0.00000000E+00  0.00000000E+00
  0.00000000E+00  0.00000000E+00  0.00000000E+00  0.00000000E+00  0.00000000E+00
  0.00000000E+00  0.00000000E+00  0.00000000E+00  0.00000000E+00  0.00000000E+00
  0.00000000E+00  0.00000000E+00  0.00000000E+00  0.00000000E+00  0.00000000E+00
  3.69950000E+00  0.00000000E+00  0.00000000E+00  0.00000000E+00  0.00000000E+00
  0.00000000E+00 -1.25490252E+00  0.00000000E+00  0.00000000E+00 -5.37176130E-01
  0.00000000E+00  0.00000000E+00 -3.20656068E-02  0.00000000E+00  0.00000000E+00
  0.00000000E+00 -1.78934319E+00  0.00000000E+00  0.00000000E+00  0.00000000E+00
  0.00000000E+00 -4.01218025E-02  0.00000000E+00  0.00000000E+00  0.00000000E+00
  0.00000000E+00  0.00000000E+00  0.00000000E+00  0.00000000E+00  0.00000000E+00
  0.00000000E+00  0.00000000E+00  0.00000000E+00  0.00000000E+00  0.00000000E+00
  0.00000000E+00  0.00000000E+00  0.00000000E+00  0.00000000E+00  3.69950000E+00
  7.68188257E-18  5.42026633E-18 -8.17691742E-19 -2.63309278E-19  0.00000000E+00
  0.00000000E+00 -1.91573092E-19  0.00000000E+00  0.00000000E+00  2.35802291E-17
  0.00000000E+00  0.00000000E+00  2.60037213E-19 -5.67065979E-19  0.00000000E+00
  0.00000000E+00  8.29928156E-01  0.00000000E+00 -8.72273878E-18  0.00000000E+00
  0.00000000E+00  3.44652487E-01  0.00000000E+00  3.23694547E-18 -4.77966341E-18
  6.77092070E-19 -6.78928523E-19  0.00000000E+00  0.00000000E+00  0.00000000E+00
  0.00000000E+00  0.00000000E+00  0.00000000E+00  0.00000000E+00  0.00000000E+00
  0.00000000E+00 -7.23594526E-17  0.00000000E+00  0.00000000E+00  3.69950000E+00
  0.00000000E+00  0.00000000E+00  0.00000000E+00  0.00000000E+00  0.00000000E+00
  0.00000000E+00  0.00000000E+00  0.00000000E+00  0.00000000E+00  0.00000000E+00
  0.00000000E+00  0.00000000E+00  0.00000000E+00  0.00000000E+00  0.00000000E+00
  0.00000000E+00  0.00000000E+00  8.29928156E-01  0.00000000E+00  0.00000000E+00
  0.00000000E+00  0.00000000E+00  3.44652487E-01  0.00000000E+00  0.00000000E+00
  0.00000000E+00  0.00000000E+00  0.00000000E+00  0.00000000E+00  0.00000000E+00
  0.00000000E+00  0.00000000E+00  0.00000000E+00  0.00000000E+00  0.00000000E+00
  0.00000000E+00  0.00000000E+00  0.00000000E+00  0.00000000E+00  0.00000000E+00
  3.69950000E+00  4.26717448E-01  2.56462950E-01  3.75228964E-02  6.88542141E-04
  0.00000000E+00  0.00000000E+00 -2.07342301E-01  0.00000000E+00  0.00000000E+00
 -3.89033509E-01  0.00000000E+00  0.00000000E+00 -1.27997777E-01 -3.37984499E-02
  0.00000000E+00  0.00000000E+00  8.12161711E-18  0.00000000E+00  1.47298288E-01
  0.00000000E+00  0.00000000E+00  2.84315380E-17  0.00000000E+00  5.55111512E-17
  0.00000000E+00  0.00000000E+00  0.00000000E+00  0.00000000E+00  0.00000000E+00
  0.00000000E+00  0.00000000E+00  0.00000000E+00  0.00000000E+00  0.00000000E+00
  0.00000000E+00  0.00000000E+00  5.97140737E-01  0.00000000E+00  0.00000000E+00
 -4.81360961E-18  0.00000000E+00  8.64500000E-01  0.00000000E+00  0.00000000E+00
  0.00000000E+00  0.00000000E+00 -4.34555186E-01  0.00000000E+00  0.00000000E+00
 -5.78309205E-01  0.00000000E+00  0.00000000E+00 -1.38094854E-01  0.00000000E+00
  0.00000000E+00  0.00000000E+00 -4.01218025E-02  0.00000000E+00  0.00000000E+00
  0.00000000E+00  0.00000000E+00  1.97338271E-01  0.00000000E+00  0.00000000E+00
  0.00000000E+00  0.00000000E+00  0.00000000E+00  0.00000000E+00  0.00000000E+00
  0.00000000E+00  0.00000000E+00  0.00000000E+00  0.00000000E+00  0.00000000E+00
  0.00000000E+00  0.00000000E+00  0.00000000E+00  0.00000000E+00  0.00000000E+00
  5.97140737E-01  0.00000000E+00  0.00000000E+00  0.00000000E+00  0.00000000E+00
  8.64500000E-01  0.00000000E+00  0.00000000E+00  0.00000000E+00  0.00000000E+00
  0.00000000E+00 -4.34555186E-01  0.00000000E+00  0.00000000E+00 -5.78309205E-01
  0.00000000E+00  0.00000000E+00 -1.38094854E-01  0.00000000E+00  0.00000000E+00
  0.00000000E+00 -4.01218025E-02  0.00000000E+00  0.00000000E+00  0.00000000E+00
  0.00000000E+00  1.97338271E-01  0.00000000E+00  0.00000000E+00  0.00000000E+00
  0.00000000E+00  0.00000000E+00  0.00000000E+00  0.00000000E+00  0.00000000E+00
  0.00000000E+00  0.00000000E+00  0.00000000E+00  0.00000000E+00  0.00000000E+00
  0.00000000E+00  0.00000000E+00  0.00000000E+00  0.00000000E+00  5.97140737E-01
  0.00000000E+00  0.00000000E+00  0.00000000E+00  0.00000000E+00  8.64500000E-01
 -4.57833954E-18  3.02443155E-19  8.05768892E-19  8.27236528E-19  0.00000000E+00
  0.00000000E+00  8.47499192E-19  0.00000000E+00  0.00000000E+00 -3.03004039E-18
  0.00000000E+00  0.00000000E+00  1.29506480E-18  4.27636395E-18  0.00000000E+00
  0.00000000E+00  3.44652487E-01  0.00000000E+00  5.31516633E-18  0.00000000E+00
  0.00000000E+00  6.17135509E-01  0.00000000E+00 -4.14016277E-19  1.00155171E-18
 -4.33662876E-18  3.70999418E-20  0.00000000E+00  0.00000000E+00  0.00000000E+00
  0.00000000E+00  0.00000000E+00  0.00000000E+00  0.00000000E+00  0.00000000E+00
  0.00000000E+00  9.55397079E-18  0.00000000E+00  0.00000000E+00  5.97140737E-01
  0.00000000E+00 -1.34936179E-17  0.00000000E+00  0.00000000E+00  8.64500000E-01
  0.00000000E+00  0.00000000E+00  0.00000000E+00  0.00000000E+00  0.00000000E+00
  0.00000000E+00  0.00000000E+00  0.00000000E+00  0.00000000E+00  0.00000000E+00
  0.00000000E+00  0.00000000E+00  0.00000000E+00  0.00000000E+00  0.00000000E+00
  0.00000000E+00  0.00000000E+00  3.44652487E-01  0.00000000E+00  0.00000000E+00
  0.00000000E+00  0.00000000E+00  6.17135509E-01  0.00000000E+00  0.00000000E+00
  0.00000000E+00  0.00000000E+00  0.00000000E+00  0.00000000E+00  0.00000000E+00
  0.00000000E+00  0.00000000E+00  0.00000000E+00  0.00000000E+00  0.00000000E+00
  0.00000000E+00  0.00000000E+00  0.00000000E+00  0.00000000E+00  0.00000000E+00
  5.97140737E-01  0.00000000E+00  0.00000000E+00  0.00000000E+00  0.00000000E+00
  8.64500000E-01 -2.15266951E-04 -1.08480146E-02 -2.71296803E-03  4.75633209E-03
  0.00000000E+00  0.00000000E+00 -4.55690279E-04  0.00000000E+00  0.00000000E+00
 -2.44151452E-02  0.00000000E+00  0.00000000E+00  2.55682121E-02 -3.40407369E-03
  0.00000000E+00  0.00000000E+00  8.10890182E-21  0.00000000E+00 -9.77824837E-03
  0.00000000E+00  0.00000000E+00 -2.00807904E-19  0.00000000E+00 -2.88460110E-02
 -2.51520721E-02  2.55062758E-02  7.59871407E-03  0.00000000E+00  0.00000000E+00
 -5.68234225E-02  0.00000000E+00  0.00000000E+00  2.05359250E-02  0.00000000E+00
  0.00000000E+00  9.74601084E-02 -6.41830460E-02  0.00000000E+00  0.00000000E+00
 -3.23107211E-19  0.00000000E+00  2.97198998E-01  0.00000000E+00  0.00000000E+00
  2.31867684E-18  0.00000000E+00  2.30467957E+00 -1.08480146E-02 -2.47869209E-02
  2.69934427E-03  1.22811884E-02  0.00000000E+00  0.00000000E+00 -1.32798801E-02
  0.00000000E+00  0.00000000E+00 -2.42651741E-02  0.00000000E+00  0.00000000E+00
  6.81632882E-02 -1.05882579E-02  0.00000000E+00  0.00000000E+00 -5.49725023E-19
  0.00000000E+00  7.02831001E-02  0.00000000E+00  0.00000000E+00  1.30782847E-18
  0.00000000E+00 -2.51520721E-02  2.03433266E-02  5.93535782E-02  1.90830501E-02
  0.00000000E+00  0.00000000E+00  2.45466430E-02  0.00000000E+00  0.00000000E+00
  1.55712036E-01  0.00000000E+00  0.00000000E+00  1.71282137E-01  9.10128238E-02
  0.00000000E+00  0.00000000E+00 -1.00006753E-19  0.00000000E+00  3.19615491E-01
  0.00000000E+00  0.00000000E+00 -1.07555759E-19  0.00000000E+00  5.49013001E-01
  4.88700000E-01 -2.71296803E-03  2.69934427E-03  2.32633193E-02  2.26433472E-02
  0.00000000E+00  0.00000000E+00  6.42518490E-03  0.00000000E+00  0.00000000E+00
  3.14879908E-02  0.00000000E+00  0.00000000E+00  8.71638831E-02  9.25133670E-03
  0.00000000E+00  0.00000000E+00  8.09155161E-20  0.00000000E+00  6.62137597E-02
  0.00000000E+00  0.00000000E+00  2.13280515E-19  0.00000000E+00  2.55062758E-02
  5.93535782E-02  7.53929790E-02  3.29531316E-02  0.00000000E+00  0.00000000E+00
  2.55491244E-02  0.00000000E+00  0.00000000E+00  8.58101756E-02  0.00000000E+00
  0.00000000E+00  1.29054917E-01  1.59804929E-02  0.00000000E+00  0.00000000E+00
  1.50431927E-19  0.00000000E+00  8.07362469E-02  0.00000000E+00  0.00000000E+00
  9.33360991E-19  0.00000000E+00  1.06269592E-01  1.84799950E-01  1.54050000E-01
  4.75633209E-03  1.22811884E-02  2.26433472E-02  2.55755015E-02  0.00000000E+00
  0.00000000E+00  1.56227260E-03  0.00000000E+00  0.00000000E+00  6.87157091E-03
  0.00000000E+00  0.00000000E+00  2.30172440E-02  3.84650858E-04  0.00000000E+00
  0.00000000E+00  2.13847032E-19  0.00000000E+00  3.66505534E-03  0.00000000E+00
  0.00000000E+00  6.50521456E-19  0.00000000E+00  7.59871407E-03  1.90830501E-02
  3.29531316E-02  3.20562404E-02  0.00000000E+00  0.00000000E+00  1.49018575E-03
  0.00000000E+00  0.00000000E+00  6.44318411E-03  0.00000000E+00  0.00000000E+00
  2.04558777E-02  2.32480464E-04  0.00000000E+00  0.00000000E+00  8.30734115E-19
  0.00000000E+00  2.16237530E-03  0.00000000E+00  0.00000000E+00 -1.94694161E-19
  0.00000000E+00  1.05945050E-02  2.61297722E-02  4.32003536E-02  3.78900000E-02
  0.00000000E+00  0.00000000E+00  0.00000000E+00  0.00000000E+00 -4.35789898E-05
  0.00000000E+00  0.00000000E+00 -4.60828721E-03  0.00000000E+00  0.00000000E+00
  4.77171052E-03  0.00000000E+00  0.00000000E+00  0.00000000E+00 -8.01643482E-04
  0.00000000E+00  0.00000000E+00  0.00000000E+00  0.00000000E+00 -4.29350509E-03
  0.00000000E+00  0.00000000E+00  0.00000000E+00  0.00000000E+00  0.00000000E+00
  0.00000000E+00  0.00000000E+00 -1.71165950E-02  0.00000000E+00  0.00000000E+00
  4.04751096E-03  0.00000000E+00  0.00000000E+00  2.83044230E-02  0.00000000E+00
  0.00000000E+00  0.00000000E+00 -4.19968088E-02  0.00000000E+00  0.00000000E+00
  0.00000000E+00  0.00000000E+00  1.52495391E-01  0.00000000E+00  0.00000000E+00
  0.00000000E+00  0.00000000E+00  0.00000000E+00  0.00000000E+00  0.00000000E+00
  3.51750000E+00  0.00000000E+00  0.00000000E+00  0.00000000E+00  0.00000000E+00
  0.00000000E+00 -4.35789898E-05  0.00000000E+00  0.00000000E+00 -4.60828721E-03
  0.00000000E+00  0.00000000E+00  4.77171052E-03  0.00000000E+00  0.00000000E+00
  0.00000000E+00 -8.01643482E-04  0.00000000E+00  0.00000000E+00  0.00000000E+00
  0.00000000E+00 -4.29350509E-03  0.00000000E+00  0.00000000E+00  0.00000000E+00
  0.00000000E+00  0.00000000E+00  0.00000000E+00  0.00000000E+00 -1.71165950E-02
  0.00000000E+00  0.00000000E+00  4.04751096E-03  0.00000000E+00  0.00000000E+00
  2.83044230E-02  0.00000000E+00  0.00000000E+00  0.00000000E+00 -4.19968088E-02
  0.00000000E+00  0.00000000E+00  0.00000000E+00  0.00000000E+00  1.52495391E-01
  0.00000000E+00  0.00000000E+00  0.00000000E+00  0.00000000E+00  0.00000000E+00
  0.00000000E+00  0.00000000E+00  3.51750000E+00  4.55690279E-04  1.32798801E-02
 -6.42518490E-03 -1.56227260E-03  0.00000000E+00  0.00000000E+00  9.55280389E-04
  0.00000000E+00  0.00000000E+00  2.90992670E-02  0.00000000E+00  0.00000000E+00
 -3.25714589E-02  7.80110979E-03  0.00000000E+00  0.00000000E+00 -2.04617780E-20
  0.00000000E+00 -4.99843607E-02  0.00000000E+00  0.00000000E+00  5.93439969E-19
  0.00000000E+00  5.68234225E-02 -2.45466430E-02 -2.55491244E-02 -1.49018575E-03
  0.00000000E+00  0.00000000E+00  1.08914579E-01  0.00000000E+00  0.00000000E+00
 -1.79755547E-01  0.00000000E+00  0.00000000E+00 -3.79114635E-02 -5.80320728E-03
  0.00000000E+00  0.00000000E+00  2.82611109E-18  0.00000000E+00 -2.70142272E-01
  0.00000000E+00  0.00000000E+00 -1.43565895E-18  0.00000000E+00  0.00000000E+00
  0.00000000E+00  0.00000000E+00  0.00000000E+00  0.00000000E+00  0.00000000E+00
  3.51750000E+00  0.00000000E+00  0.00000000E+00  0.00000000E+00  0.00000000E+00
 -4.60828721E-03  0.00000000E+00  0.00000000E+00 -1.17165062E-02  0.00000000E+00
  0.00000000E+00  2.32400705E-02  0.00000000E+00  0.00000000E+00  0.00000000E+00
 -9.51620125E-03  0.00000000E+00  0.00000000E+00  0.00000000E+00  0.00000000E+00
  3.70936747E-02  0.00000000E+00  0.00000000E+00  0.00000000E+00  0.00000000E+00
  0.00000000E+00  0.00000000E+00  0.00000000E+00  4.04751096E-03  0.00000000E+00
  0.00000000E+00  8.31769896E-02  0.00000000E+00  0.00000000E+00  9.51748012E-02
  0.00000000E+00  0.00000000E+00  0.00000000E+00  8.96265117E-02  0.00000000E+00
  0.00000000E+00  0.00000000E+00  0.00000000E+00  3.42212675E-01  0.00000000E+00
  0.00000000E+00  0.00000000E+00  0.00000000E+00  0.00000000E+00  0.00000000E+00
  0.00000000E+00  9.35088057E-01  0.00000000E+00  0.00000000E+00  9.70000000E-01
  0.00000000E+00  0.00000000E+00  0.00000000E+00  0.00000000E+00  0.00000000E+00
 -4.60828721E-03  0.00000000E+00  0.00000000E+00 -1.17165062E-02  0.00000000E+00
  0.00000000E+00  2.32400705E-02  0.00000000E+00  0.00000000E+00  0.00000000E+00
 -9.51620125E-03  0.00000000E+00  0.00000000E+00  0.00000000E+00  0.00000000E+00
  3.70936747E-02  0.00000000E+00  0.00000000E+00  0.00000000E+00  0.00000000E+00
  0.00000000E+00  0.00000000E+00  0.00000000E+00  4.04751096E-03  0.00000000E+00
  0.00000000E+00  8.31769896E-02  0.00000000E+00  0.00000000E+00  9.51748012E-02
  0.00000000E+00  0.00000000E+00  0.00000000E+00  8.96265117E-02  0.00000000E+00
  0.00000000E+00  0.00000000E+00  0.00000000E+00  3.42212675E-01  0.00000000E+00
  0.00000000E+00  0.00000000E+00  0.00000000E+00  0.00000000E+00  0.00000000E+00
  0.00000000E+00  9.35088057E-01  0.00000000E+00  0.00000000E+00  9.70000000E-01
  2.44151452E-02  2.42651741E-02 -3.14879908E-02 -6.87157091E-03  0.00000000E+00
  0.00000000E+00  2.90992670E-02  0.00000000E+00  0.00000000E+00 -1.14166587E-02
  0.00000000E+00  0.00000000E+00 -1.09667214E-01  1.06912610E-02  0.00000000E+00
  0.00000000E+00  5.88169190E-19  0.00000000E+00 -2.24689324E-01  0.00000000E+00
  0.00000000E+00 -1.46729280E-18  0.00000000E+00 -2.05359250E-02 -1.55712036E-01
 -8.58101756E-02 -6.44318411E-03  0.00000000E+00  0.00000000E+00 -1.79755547E-01
  0.00000000E+00  0.00000000E+00 -4.27649605E-01  0.00000000E+00  0.00000000E+00
 -8.97825249E-02 -3.06924716E-01  0.00000000E+00  0.00000000E+00  3.12608629E-19
  0.00000000E+00 -2.73691650E-01  0.00000000E+00  0.00000000E+00 -2.39033779E-19
  0.00000000E+00  0.00000000E+00  0.00000000E+00  0.00000000E+00  0.00000000E+00
  0.00000000E+00  0.00000000E+00  9.35088057E-01  0.00000000E+00  0.00000000E+00
  9.70000000E-01  0.00000000E+00  0.00000000E+00  0.00000000E+00  0.00000000E+00
  4.77171052E-03  0.00000000E+00  0.00000000E+00  2.32400705E-02  0.00000000E+00
  0.00000000E+00  6.41135404E-02  0.00000000E+00  0.00000000E+00  0.00000000E+00
  1.17280194E-02  0.00000000E+00  0.00000000E+00  0.00000000E+00  0.00000000E+00
  8.38729242E-02  0.00000000E+00  0.00000000E+00  0.00000000E+00  0.00000000E+00
  0.00000000E+00  0.00000000E+00  0.00000000E+00  2.83044230E-02  0.00000000E+00
  0.00000000E+00  9.51748012E-02  0.00000000E+00  0.00000000E+00  1.43674621E-01
  0.00000000E+00  0.00000000E+00  0.00000000E+00  3.04493450E-02  0.00000000E+00
  0.00000000E+00  0.00000000E+00  0.00000000E+00  1.54416610E-01  0.00000000E+00
  0.00000000E+00  0.00000000E+00  0.00000000E+00  0.00000000E+00  0.00000000E+00
  0.00000000E+00  8.49463573E-02  0.00000000E+00  0.00000000E+00  2.39927751E-01
  0.00000000E+00  0.00000000E+00  2.55000000E-01  0.00000000E+00  0.00000000E+00
  0.00000000E+00  0.00000000E+00  0.00000000E+00  4.77171052E-03  0.00000000E+00
  0.00000000E+00  2.32400705E-02  0.00000000E+00  0.00000000E+00  6.41135404E-02
  0.00000000E+00  0.00000000E+00  0.00000000E+00  1.17280194E-02  0.00000000E+00
  0.00000000E+00  0.00000000E+00  0.00000000E+00  8.38729242E-02  0.00000000E+00
  0.00000000E+00  0.00000000E+00  0.00000000E+00  0.00000000E+00  0.00000000E+00
  0.00000000E+00  2.83044230E-02  0.00000000E+00  0.00000000E+00  9.51748012E-02
  0.00000000E+00  0.00000000E+00  1.43674621E-01  0.00000000E+00  0.00000000E+00
  0.00000000E+00  3.04493450E-02  0.00000000E+00  0.00000000E+00  0.00000000E+00
  0.00000000E+00  1.54416610E-01  0.00000000E+00  0.00000000E+00  0.00000000E+00
  0.00000000E+00  0.00000000E+00  0.00000000E+00  0.00000000E+00  8.49463573E-02
  0.00000000E+00  0.00000000E+00  2.39927751E-01  0.00000000E+00  0.00000000E+00
  2.55000000E-01 -2.55682121E-02 -6.81632882E-02 -8.71638831E-02 -2.30172440E-02
  0.00000000E+00  0.00000000E+00 -3.25714589E-02  0.00000000E+00  0.00000000E+00
 -1.09667214E-01  0.00000000E+00  0.00000000E+00 -1.28793097E-01 -2.17097906E-02
  0.00000000E+00  0.00000000E+00  3.83256693E-19  0.00000000E+00 -8.69082633E-02
  0.00000000E+00  0.00000000E+00 -1.17620329E-18  0.00000000E+00 -9.74601084E-02
 -1.71282137E-01 -1.29054917E-01 -2.04558777E-02  0.00000000E+00  0.00000000E+00
 -3.79114635E-02  0.00000000E+00  0.00000000E+00 -8.97825249E-02  0.00000000E+00
  0.00000000E+00 -2.58027623E-02  2.88511879E-04  0.00000000E+00  0.00000000E+00
 -5.01139250E-18  0.00000000E+00  4.30941372E-02  0.00000000E+00  0.00000000E+00
 -5.70531898E-19  0.00000000E+00  0.00000000E+00  0.00000000E+00  0.00000000E+00
  0.00000000E+00  0.00000000E+00  0.00000000E+00  8.49463573E-02  0.00000000E+00
  0.00000000E+00  2.39927751E-01  0.00000000E+00  0.00000000E+00  2.55000000E-01
 -3.40407369E-03 -1.05882579E-02  9.25133670E-03  3.84650858E-04  0.00000000E+00
  0.00000000E+00 -7.80110979E-03  0.00000000E+00  0.00000000E+00 -1.06912610E-02
  0.00000000E+00  0.00000000E+00  2.17097906E-02 -2.79133501E-02  0.00000000E+00
  0.00000000E+00 -1.27571700E-19  0.00000000E+00  1.11057109E-01  0.00000000E+00
  0.00000000E+00 -1.05782070E-18  0.00000000E+00 -6.41830460E-02  9.10128238E-02
  1.59804929E-02  2.32480464E-04  0.00000000E+00  0.00000000E+00  5.80320728E-03
  0.00000000E+00  0.00000000E+00  3.06924716E-01  0.00000000E+00  0.00000000E+00
 -2.88511879E-04  4.45170970E-01  0.00000000E+00  0.00000000E+00 -1.56333804E-18
  0.00000000E+00  9.12501795E-02  0.00000000E+00  0.00000000E+00  6.72037703E-18
  0.00000000E+00  0.00000000E+00  0.00000000E+00 -4.44089210E-16  0.00000000E+00
  0.00000000E+00  0.00000000E+00  0.00000000E+00  0.00000000E+00  0.00000000E+00
  0.00000000E+00  0.00000000E+00  0.00000000E+00  0.00000000E+00  3.69950000E+00
  0.00000000E+00  0.00000000E+00  0.00000000E+00  0.00000000E+00  8.01643482E-04
  0.00000000E+00  0.00000000E+00  9.51620125E-03  0.00000000E+00  0.00000000E+00
 -1.17280194E-02  0.00000000E+00  0.00000000E+00  0.00000000E+00  6.82833485E-03
  0.00000000E+00  0.00000000E+00  0.00000000E+00  0.00000000E+00 -2.98675893E-02
  0.00000000E+00  0.00000000E+00  0.00000000E+00  0.00000000E+00  0.00000000E+00
  0.00000000E+00  0.00000000E+00  4.19968088E-02  0.00000000E+00  0.00000000E+00
 -8.96265117E-02  0.00000000E+00  0.00000000E+00 -3.04493450E-02  0.00000000E+00
  0.00000000E+00  0.00000000E+00 -6.08372692E-02  0.00000000E+00  0.00000000E+00
  0.00000000E+00  0.00000000E+00 -2.58231411E-01  0.00000000E+00  0.00000000E+00
  0.00000000E+00  0.00000000E+00  0.00000000E+00  0.00000000E+00  0.00000000E+00
  0.00000000E+00  0.00000000E+00  0.00000000E+00  0.00000000E+00  0.00000000E+00
  0.00000000E+00  0.00000000E+00  0.00000000E+00  0.00000000E+00  0.00000000E+00
  3.69950000E+00  0.00000000E+00  0.00000000E+00  0.00000000E+00  0.00000000E+00
  0.00000000E+00  8.01643482E-04  0.00000000E+00  0.00000000E+00  9.51620125E-03
  0.00000000E+00  0.00000000E+00 -1.17280194E-02  0.00000000E+00  0.00000000E+00
  0.00000000E+00  6.82833485E-03  0.00000000E+00  0.00000000E+00  0.00000000E+00
  0.00000000E+00 -2.98675893E-02  0.00000000E+00  0.00000000E+00  0.00000000E+00
  0.00000000E+00  0.00000000E+00  0.00000000E+00  0.00000000E+00  4.19968088E-02
  0.00000000E+00  0.00000000E+00 -8.96265117E-02  0.00000000E+00  0.00000000E+00
 -3.04493450E-02  0.00000000E+00  0.00000000E+00  0.00000000E+00 -6.08372692E-02
  0.00000000E+00  0.00000000E+00  0.00000000E+00  0.00000000E+00 -2.58231411E-01
  0.00000000E+00  0.00000000E+00  0.00000000E+00  0.00000000E+00  0.00000000E+00
  0.00000000E+00  0.00000000E+00  0.00000000E+00  0.00000000E+00  0.00000000E+00
  0.00000000E+00  0.00000000E+00  0.00000000E+00  0.00000000E+00  0.00000000E+00
  0.00000000E+00  0.00000000E+00  3.69950000E+00  8.10890182E-21 -5.49725023E-19
  8.09155161E-20  2.13847032E-19  0.00000000E+00  0.00000000E+00  2.04617780E-20
  0.00000000E+00  0.00000000E+00 -5.88169190E-19  0.00000000E+00  0.00000000E+00
 -3.83256693E-19 -1.66145614E-19  0.00000000E+00  0.00000000E+00 -4.57309632E-04
  0.00000000E+00  1.02840209E-19  0.00000000E+00  0.00000000E+00 -5.31734655E-04
  0.00000000E+00 -3.23107211E-19 -1.00006753E-19  1.50431927E-19  8.30734115E-19
  0.00000000E+00  0.00000000E+00 -2.82611109E-18  0.00000000E+00  0.00000000E+00
 -3.12608629E-19  0.00000000E+00  0.00000000E+00  5.01139250E-18  5.28887147E-18
  0.00000000E+00  0.00000000E+00 -1.07751102E-02  0.00000000E+00  8.66154603E-18
  0.00000000E+00  0.00000000E+00  6.86508676E-02  0.00000000E+00  3.23694547E-18
 -4.77966341E-18  6.77092070E-19 -6.78928523E-19  0.00000000E+00  0.00000000E+00
  0.00000000E+00  0.00000000E+00  0.00000000E+00  0.00000000E+00  0.00000000E+00
  0.00000000E+00  0.00000000E+00 -1.28627800E-17  0.00000000E+00  0.00000000E+00
  3.69950000E+00  0.00000000E+00  0.00000000E+00  0.00000000E+00  0.00000000E+00
  0.00000000E+00  0.00000000E+00  0.00000000E+00  0.00000000E+00  0.00000000E+00
  0.00000000E+00  0.00000000E+00  0.00000000E+00  0.00000000E+00  0.00000000E+00
  0.00000000E+00  0.00000000E+00  0.00000000E+00 -4.57309632E-04  0.00000000E+00
  0.00000000E+00  0.00000000E+00  0.00000000E+00 -5.31734655E-04  0.00000000E+00
  0.00000000E+00  0.00000000E+00  0.00000000E+00  0.00000000E+00  0.00000000E+00
  0.00000000E+00  0.00000000E+00  0.00000000E+00  0.00000000E+00  0.00000000E+00
  0.00000000E+00  0.00000000E+00  0.00000000E+00  0.00000000E+00  0.00000000E+00
  0.00000000E+00 -1.07751102E-02  0.00000000E+00  0.00000000E+00  0.00000000E+00
  0.00000000E+00  6.86508676E-02  0.00000000E+00  0.00000000E+00  0.00000000E+00
  0.00000000E+00  0.00000000E+00  0.00000000E+00  0.00000000E+00  0.00000000E+00
  0.00000000E+00  0.00000000E+00  0.00000000E+00  0.00000000E+00  0.00000000E+00
  0.00000000E+00  0.00000000E+00  0.00000000E+00  0.00000000E+00  3.69950000E+00
 -9.77824837E-03  7.02831001E-02  6.62137597E-02  3.66505534E-03  0.00000000E+00
  0.00000000E+00  4.99843607E-02  0.00000000E+00  0.00000000E+00  2.24689324E-01
  0.00000000E+00  0.00000000E+00  8.69082633E-02  1.11057109E-01  0.00000000E+00
  0.00000000E+00  1.01661061E-18  0.00000000E+00  2.51090298E-01  0.00000000E+00
  0.00000000E+00  1.81979956E-19  0.00000000E+00  2.97198998E-01  3.19615491E-01
  8.07362469E-02  2.16237530E-03  0.00000000E+00  0.00000000E+00  2.70142272E-01
  0.00000000E+00  0.00000000E+00  2.73691650E-01  0.00000000E+00  0.00000000E+00
 -4.30941372E-02  9.12501795E-02  0.00000000E+00  0.00000000E+00 -9.85320788E-18
  0.00000000E+00 -8.67510223E-02  0.00000000E+00  0.00000000E+00  2.35172254E-18
  0.00000000E+00  5.55111512E-17  0.00000000E+00  0.00000000E+00  0.00000000E+00
  0.00000000E+00  0.00000000E+00  0.00000000E+00  0.00000000E+00  0.00000000E+00
  0.00000000E+00  0.00000000E+00  0.00000000E+00  0.00000000E+00  5.97140737E-01
  0.00000000E+00  0.00000000E+00 -4.81360961E-18  0.00000000E+00  8.64500000E-01
  0.00000000E+00  0.00000000E+00  0.00000000E+00  0.00000000E+00  4.29350509E-03
  0.00000000E+00  0.00000000E+00 -3.70936747E-02  0.00000000E+00  0.00000000E+00
 -8.38729242E-02  0.00000000E+00  0.00000000E+00  0.00000000E+00 -2.98675893E-02
  0.00000000E+00  0.00000000E+00  0.00000000E+00  0.00000000E+00 -2.35075314E-01
  0.00000000E+00  0.00000000E+00  0.00000000E+00  0.00000000E+00  0.00000000E+00
  0.00000000E+00  0.00000000E+00 -1.52495391E-01  0.00000000E+00  0.00000000E+00
 -3.42212675E-01  0.00000000E+00  0.00000000E+00 -1.54416610E-01  0.00000000E+00
  0.00000000E+00  0.00000000E+00 -2.58231411E-01  0.00000000E+00  0.00000000E+00
  0.00000000E+00  0.00000000E+00 -4.03915971E-01  0.00000000E+00  0.00000000E+00
  0.00000000E+00  0.00000000E+00  0.00000000E+00  0.00000000E+00  0.00000000E+00
  0.00000000E+00  0.00000000E+00  0.00000000E+00  0.00000000E+00  0.00000000E+00
  0.00000000E+00  0.00000000E+00  0.00000000E+00  0.00000000E+00  0.00000000E+00
  5.97140737E-01  0.00000000E+00  0.00000000E+00  0.00000000E+00  0.00000000E+00
  8.64500000E-01  0.00000000E+00  0.00000000E+00  0.00000000E+00  0.00000000E+00
  0.00000000E+00  4.29350509E-03  0.00000000E+00  0.00000000E+00 -3.70936747E-02
  0.00000000E+00  0.00000000E+00 -8.38729242E-02  0.00000000E+00  0.00000000E+00
  0.00000000E+00 -2.98675893E-02  0.00000000E+00  0.00000000E+00  0.00000000E+00
  0.00000000E+00 -2.35075314E-01  0.00000000E+00  0.00000000E+00  0.00000000E+00
  0.00000000E+00  0.00000000E+00  0.00000000E+00  0.00000000E+00 -1.52495391E-01
  0.00000000E+00  0.00000000E+00 -3.42212675E-01  0.00000000E+00  0.00000000E+00
 -1.54416610E-01  0.00000000E+00  0.00000000E+00  0.00000000E+00 -2.58231411E-01
  0.00000000E+00  0.00000000E+00  0.00000000E+00  0.00000000E+00 -4.03915971E-01
  0.00000000E+00  0.00000000E+00  0.00000000E+00  0.00000000E+00  0.00000000E+00
  0.00000000E+00  0.00000000E+00  0.00000000E+00  0.00000000E+00  0.00000000E+00
  0.00000000E+00  0.00000000E+00  0.00000000E+00  0.00000000E+00  0.00000000E+00
  0.00000000E+00  0.00000000E+00  5.97140737E-01  0.00000000E+00  0.00000000E+00
  0.00000000E+00  0.00000000E+00  8.64500000E-01 -4.33216781E-19  1.30782847E-18
  2.13280515E-19  6.50521456E-19  0.00000000E+00  0.00000000E+00 -5.93439969E-19
  0.00000000E+00  0.00000000E+00  1.46729280E-18  0.00000000E+00  0.00000000E+00
  1.17620329E-18 -5.55182371E-19  0.00000000E+00  0.00000000E+00 -5.31734655E-04
  0.00000000E+00  3.67734941E-20  0.00000000E+00  0.00000000E+00  3.37049017E-02
  0.00000000E+00  2.31867684E-18 -1.07555759E-19  9.33360991E-19 -1.94694161E-19
  0.00000000E+00  0.00000000E+00  1.43565895E-18  0.00000000E+00  0.00000000E+00
  2.39033779E-19  0.00000000E+00  0.00000000E+00  5.70531898E-19 -2.38695502E-18
  0.00000000E+00  0.00000000E+00  6.86508676E-02  0.00000000E+00  1.97408864E-19
  0.00000000E+00  0.00000000E+00  2.37695259E-01  0.00000000E+00 -4.14016277E-19
  1.00155171E-18 -4.33662876E-18  3.70999418E-20  0.00000000E+00  0.00000000E+00
  0.00000000E+00  0.00000000E+00  0.00000000E+00  0.00000000E+00  0.00000000E+00
  0.00000000E+00  0.00000000E+00  9.55397079E-18  0.00000000E+00  0.00000000E+00
  5.97140737E-01  0.00000000E+00 -1.34936179E-17  0.00000000E+00  0.00000000E+00
  8.64500000E-01  0.00000000E+00  0.00000000E+00  0.00000000E+00  0.00000000E+00
  0.00000000E+00  0.00000000E+00  0.00000000E+00  0.00000000E+00  0.00000000E+00
  0.00000000E+00  0.00000000E+00  0.00000000E+00  0.00000000E+00  0.00000000E+00
  0.00000000E+00  0.00000000E+00  0.00000000E+00 -5.31734655E-04  0.00000000E+00
  0.00000000E+00  0.00000000E+00  0.00000000E+00  3.37049017E-02  0.00000000E+00
  0.00000000E+00  0.00000000E+00  0.00000000E+00  0.00000000E+00  0.00000000E+00
  0.00000000E+00  0.00000000E+00  0.00000000E+00  0.00000000E+00  0.00000000E+00
  0.00000000E+00  0.00000000E+00  0.00000000E+00  0.00000000E+00  0.00000000E+00
  0.00000000E+00  6.86508676E-02  0.00000000E+00  0.00000000E+00  0.00000000E+00
  0.00000000E+00  2.37695259E-01  0.00000000E+00  0.00000000E+00  0.00000000E+00
  0.00000000E+00  0.00000000E+00  0.00000000E+00  0.00000000E+00  0.00000000E+00
  0.00000000E+00  0.00000000E+00  0.00000000E+00  0.00000000E+00  0.00000000E+00
  0.00000000E+00  0.00000000E+00  0.00000000E+00  0.00000000E+00  5.97140737E-01
  0.00000000E+00  0.00000000E+00  0.00000000E+00  0.00000000E+00  8.64500000E-01
Nuclear Attraction Matrix                  R   N=        2415
 -3.03498386E+00 -1.70820312E+00 -1.76813421E+00 -8.55180228E-01 -1.21461189E+00
 -1.19154224E+00 -3.19765611E-01 -5.34507297E-01 -7.11481152E-01 -6.92255255E-01
  0.00000000E+00  0.00000000E+00  0.00000000E+00  0.00000000E+00 -2.12609048E+00
  0.00000000E+00  0.00000000E+00  0.00000000E+00  0.00000000E+00  0.00000000E+00
 -2.12609048E+00 -2.19022124E-01 -2.36705579E-01 -1.36212747E-01 -5.34884364E-02
  0.00000000E+00  0.00000000E+00 -2.30117992E+00  0.00000000E+00  0.00000000E+00
  0.00000000E+00  0.00000000E+00 -1.13061066E+00  0.00000000E+00  0.00000000E+00
 -1.39347774E+00  0.00000000E+00  0.00000000E+00  0.00000000E+00  0.00000000E+00
  0.00000000E+00 -1.13061066E+00  0.00000000E+00  0.00000000E+00 -1.39347774E+00
 -1.39444929E-01 -2.99151909E-01 -2.46791820E-01 -1.15934219E-01  0.00000000E+00
  0.00000000E+00 -1.27490259E+00  0.00000000E+00  0.00000000E+00 -1.63455178E+00
  0.00000000E+00  0.00000000E+00  0.00000000E+00  0.00000000E+00 -3.10500288E-01
  0.00000000E+00  0.00000000E+00 -7.05007258E-01  0.00000000E+00  0.00000000E+00
 -8.56603811E-01  0.00000000E+00  0.00000000E+00  0.00000000E+00  0.00000000E+00
  0.00000000E+00 -3.10500288E-01  0.00000000E+00  0.00000000E+00 -7.05007258E-01
  0.00000000E+00  0.00000000E+00 -8.56603811E-01 -4.08033413E-02 -1.39983032E-01
 -2.03731011E-01 -1.54450189E-01  0.00000000E+00  0.00000000E+00 -3.55069014E-01
  0.00000000E+00  0.00000000E+00 -8.23676084E-01  0.00000000E+00  0.00000000E+00
 -9.98441397E-01 -1.00041322E-01 -1.75502778E-01 -1.16348543E-01 -4.81896762E-02
  0.00000000E+00  0.00000000E+00 -3.20869292E-01  0.00000000E+00  0.00000000E+00
 -3.61551066E-01  0.00000000E+00  0.00000000E+00 -1.29159149E-01 -1.99208349E+00
  0.00000000E+00  0.00000000E+00  0.00000000E+00  0.00000000E+00 -1.59760873E-01
  0.00000000E+00  0.00000000E+00 -1.64053817E-01  0.00000000E+00  0.00000000E+00
 -5.88027087E-02  0.00000000E+00  0.00000000E+00  0.00000000E+00 -1.78270668E+00
  0.00000000E+00  0.00000000E+00  0.00000000E+00  0.00000000E+00  0.00000000E+00
 -1.59760873E-01  0.00000000E+00  0.00000000E+00 -1.64053817E-01  0.00000000E+00
  0.00000000E+00 -5.88027087E-02  0.00000000E+00  0.00000000E+00  0.00000000E+00
 -1.78270668E+00  2.26206074E-17 -4.60344784E-17 -3.30770787E-17  5.27250913E-18
  0.00000000E+00  0.00000000E+00 -3.04572805E-18  0.00000000E+00  0.00000000E+00
  4.44093096E-18  0.00000000E+00  0.00000000E+00 -1.56041039E-18  9.49887984E-18
  0.00000000E+00  0.00000000E+00 -1.66459905E+00  0.00000000E+00  0.00000000E+00
  0.00000000E+00  0.00000000E+00  0.00000000E+00  0.00000000E+00  0.00000000E+00
  0.00000000E+00  0.00000000E+00  0.00000000E+00  0.00000000E+00  0.00000000E+00
  0.00000000E+00  0.00000000E+00  0.00000000E+00  0.00000000E+00  0.00000000E+00
 -1.66459905E+00 -2.93630297E-02 -1.05210439E-01 -1.21943249E-01 -7.23899238E-02
  0.00000000E+00  0.00000000E+00 -9.39687204E-02  0.00000000E+00  0.00000000E+00
 -2.64763200E-01  0.00000000E+00  0.00000000E+00 -2.32891826E-01 -7.43844573E-01
  0.00000000E+00  0.00000000E+00  2.75456681E-17  0.00000000E+00 -1.19379333E+00
  0.00000000E+00  0.00000000E+00  0.00000000E+00  0.00000000E+00 -4.30580240E-02
  0.00000000E+00  0.00000000E+00 -1.31309156E-01  0.00000000E+00  0.00000000E+00
 -1.22369476E-01  0.00000000E+00  0.00000000E+00  0.00000000E+00 -6.53816921E-01
  0.00000000E+00  0.00000000E+00  0.00000000E+00  0.00000000E+00 -1.08636064E+00
  0.00000000E+00  0.00000000E+00  0.00000000E+00  0.00000000E+00  0.00000000E+00
 -4.30580240E-02  0.00000000E+00  0.00000000E+00 -1.31309156E-01  0.00000000E+00
  0.00000000E+00 -1.22369476E-01  0.00000000E+00  0.00000000E+00  0.00000000E+00
 -6.53816921E-01  0.00000000E+00  0.00000000E+00  0.00000000E+00  0.00000000E+00
 -1.08636064E+00 -5.69208968E-18  8.50586292E-18  1.86373484E-17  1.28528572E-18
  0.00000000E+00  0.00000000E+00 -1.48547424E-18  0.00000000E+00  0.00000000E+00
 -5.80789312E-18  0.00000000E+00  0.00000000E+00 -2.46436653E-18 -1.13035754E-18
  0.00000000E+00  0.00000000E+00 -6.03653688E-01  0.00000000E+00  2.62122967E-17
  0.00000000E+00  0.00000000E+00 -1.00367083E+00  0.00000000E+00  0.00000000E+00
  0.00000000E+00  0.00000000E+00  0.00000000E+00  0.00000000E+00  0.00000000E+00
  0.00000000E+00  0.00000000E+00  0.00000000E+00  0.00000000E+00  0.00000000E+00
  0.00000000E+00  0.00000000E+00  0.00000000E+00  0.00000000E+00  0.00000000E+00
 -6.03653688E-01  0.00000000E+00  0.00000000E+00  0.00000000E+00  0.00000000E+00
 -1.00367083E+00 -6.98591342E-01 -1.05601285E+00 -7.45439125E-01 -3.21059304E-01
  0.00000000E+00  0.00000000E+00 -1.10279252E+00  0.00000000E+00  0.00000000E+00
 -1.47757726E+00  0.00000000E+00  0.00000000E+00 -6.23313866E-01 -1.42711991E+00
  0.00000000E+00  0.00000000E+00 -2.61696745E-18  0.00000000E+00 -8.74017164E-01
  0.00000000E+00  0.00000000E+00 -2.24250008E-19  0.00000000E+00 -3.15693972E+00
 -1.02744221E+00 -1.36063471E+00 -1.11834157E+00 -5.50708330E-01  0.00000000E+00
  0.00000000E+00 -6.99081088E-01  0.00000000E+00  0.00000000E+00 -1.17542866E+00
  0.00000000E+00  0.00000000E+00 -7.85480186E-01 -5.31004064E-01  0.00000000E+00
  0.00000000E+00 -4.39003614E-17  0.00000000E+00 -6.38407927E-01  0.00000000E+00
  0.00000000E+00 -2.03055381E-17  0.00000000E+00 -1.79433840E+00 -1.88959135E+00
 -7.14232826E-01 -1.07787771E+00 -1.13458914E+00 -7.27843628E-01  0.00000000E+00
  0.00000000E+00 -2.50793187E-01  0.00000000E+00  0.00000000E+00 -5.44043085E-01
  0.00000000E+00  0.00000000E+00 -6.20820540E-01 -1.70742099E-01  0.00000000E+00
  0.00000000E+00  1.51982323E-17  0.00000000E+00 -2.84332455E-01  0.00000000E+00
  0.00000000E+00  3.41903813E-17  0.00000000E+00 -9.00733061E-01 -1.30814006E+00
 -1.28900347E+00 -3.05262706E-01 -5.15996310E-01 -6.97410162E-01 -6.93340239E-01
  0.00000000E+00  0.00000000E+00 -6.61300556E-02  0.00000000E+00  0.00000000E+00
 -1.56090752E-01  0.00000000E+00  0.00000000E+00 -2.53671109E-01 -5.24914292E-02
  0.00000000E+00  0.00000000E+00 -5.37350268E-18  0.00000000E+00 -9.06893850E-02
  0.00000000E+00  0.00000000E+00 -2.18641868E-17  0.00000000E+00 -3.37165367E-01
 -5.77328648E-01 -7.63596862E-01 -7.22321307E-01  0.00000000E+00  0.00000000E+00
  0.00000000E+00  0.00000000E+00 -5.09864134E-01  0.00000000E+00  0.00000000E+00
 -6.43935516E-01  0.00000000E+00  0.00000000E+00 -2.72413715E-01  0.00000000E+00
  0.00000000E+00  0.00000000E+00 -1.02088331E+00  0.00000000E+00  0.00000000E+00
  0.00000000E+00  0.00000000E+00 -6.45816929E-01  0.00000000E+00  0.00000000E+00
  0.00000000E+00  0.00000000E+00  0.00000000E+00  0.00000000E+00  0.00000000E+00
 -2.24225892E+00  0.00000000E+00  0.00000000E+00  0.00000000E+00  0.00000000E+00
  0.00000000E+00 -5.09864134E-01  0.00000000E+00  0.00000000E+00 -6.43935516E-01
  0.00000000E+00  0.00000000E+00 -2.72413715E-01  0.00000000E+00  0.00000000E+00
  0.00000000E+00 -1.02088331E+00  0.00000000E+00  0.00000000E+00  0.00000000E+00
  0.00000000E+00 -6.45816929E-01  0.00000000E+00  0.00000000E+00  0.00000000E+00
  0.00000000E+00  0.00000000E+00  0.00000000E+00  0.00000000E+00 -2.24225892E+00
  1.08704207E+00  6.72207164E-01  2.17260134E-01  4.77861024E-02  0.00000000E+00
  0.00000000E+00  1.19080573E+00  0.00000000E+00  0.00000000E+00  2.97859765E-01
  0.00000000E+00  0.00000000E+00 -1.34216177E-01  4.91266288E-01  0.00000000E+00
  0.00000000E+00 -2.74023076E-17  0.00000000E+00 -3.90997275E-01  0.00000000E+00
  0.00000000E+00 -2.89367691E-18  0.00000000E+00  1.42647480E-01  1.50163770E-01
  8.48287735E-02  3.30174022E-02  0.00000000E+00  0.00000000E+00 -2.43471062E+00
  0.00000000E+00  0.00000000E+00  0.00000000E+00  0.00000000E+00 -6.23655238E-01
  0.00000000E+00  0.00000000E+00 -9.93829285E-01  0.00000000E+00  0.00000000E+00
 -6.40200751E-01  0.00000000E+00  0.00000000E+00  0.00000000E+00 -6.39380007E-01
  0.00000000E+00  0.00000000E+00  0.00000000E+00  0.00000000E+00 -8.62773532E-01
  0.00000000E+00  0.00000000E+00  0.00000000E+00  0.00000000E+00  0.00000000E+00
  0.00000000E+00  0.00000000E+00 -1.20002507E+00  0.00000000E+00  0.00000000E+00
 -1.49447369E+00  0.00000000E+00  0.00000000E+00  0.00000000E+00  0.00000000E+00
  0.00000000E+00 -6.23655238E-01  0.00000000E+00  0.00000000E+00 -9.93829285E-01
  0.00000000E+00  0.00000000E+00 -6.40200751E-01  0.00000000E+00  0.00000000E+00
  0.00000000E+00 -6.39380007E-01  0.00000000E+00  0.00000000E+00  0.00000000E+00
  0.00000000E+00 -8.62773532E-01  0.00000000E+00  0.00000000E+00  0.00000000E+00
  0.00000000E+00  0.00000000E+00  0.00000000E+00  0.00000000E+00 -1.20002507E+00
  0.00000000E+00  0.00000000E+00 -1.49447369E+00  1.41630574E+00  1.08489384E+00
  4.30039028E-01  7.95603804E-02  0.00000000E+00  0.00000000E+00  3.39578528E-01
  0.00000000E+00  0.00000000E+00 -8.23118852E-02  0.00000000E+00  0.00000000E+00
 -4.49646721E-01 -1.65322387E-01  0.00000000E+00  0.00000000E+00 -8.37538733E-18
  0.00000000E+00 -6.98008556E-01  0.00000000E+00  0.00000000E+00  1.90959424E-17
  0.00000000E+00  8.72945177E-02  1.41552662E-01  8.26191091E-02  3.02893718E-02
  0.00000000E+00  0.00000000E+00 -1.36105357E+00  0.00000000E+00  0.00000000E+00
 -1.79562964E+00  0.00000000E+00  0.00000000E+00  0.00000000E+00  0.00000000E+00
 -2.58476289E-01  0.00000000E+00  0.00000000E+00 -6.14303398E-01  0.00000000E+00
  0.00000000E+00 -8.04321885E-01  0.00000000E+00  0.00000000E+00  0.00000000E+00
 -1.26899723E-01  0.00000000E+00  0.00000000E+00  0.00000000E+00  0.00000000E+00
 -3.85883891E-01  0.00000000E+00  0.00000000E+00  0.00000000E+00  0.00000000E+00
  0.00000000E+00  0.00000000E+00  0.00000000E+00 -3.30358113E-01  0.00000000E+00
  0.00000000E+00 -7.58000019E-01  0.00000000E+00  0.00000000E+00 -9.12469449E-01
  0.00000000E+00  0.00000000E+00  0.00000000E+00  0.00000000E+00  0.00000000E+00
 -2.58476289E-01  0.00000000E+00  0.00000000E+00 -6.14303398E-01  0.00000000E+00
  0.00000000E+00 -8.04321885E-01  0.00000000E+00  0.00000000E+00  0.00000000E+00
 -1.26899723E-01  0.00000000E+00  0.00000000E+00  0.00000000E+00  0.00000000E+00
 -3.85883891E-01  0.00000000E+00  0.00000000E+00  0.00000000E+00  0.00000000E+00
  0.00000000E+00  0.00000000E+00  0.00000000E+00 -3.30358113E-01  0.00000000E+00
  0.00000000E+00 -7.58000019E-01  0.00000000E+00  0.00000000E+00 -9.12469449E-01
  5.83811599E-01  6.75717320E-01  4.32483524E-01  8.67792860E-02  0.00000000E+00
  0.00000000E+00 -8.99367526E-02  0.00000000E+00  0.00000000E+00 -3.43216221E-01
  0.00000000E+00  0.00000000E+00 -6.87008270E-01 -7.25055971E-02  0.00000000E+00
  0.00000000E+00  6.13908525E-18  0.00000000E+00 -3.88424740E-01  0.00000000E+00
  0.00000000E+00  8.67606107E-19  0.00000000E+00  2.45848743E-02  3.86840755E-02
 -4.74965339E-03 -2.16853583E-02  0.00000000E+00  0.00000000E+00 -3.80708554E-01
  0.00000000E+00  0.00000000E+00 -9.21481763E-01  0.00000000E+00  0.00000000E+00
 -1.08789533E+00 -1.38180682E+00 -4.99525396E-01 -1.67666667E-01 -5.78702691E-02
  0.00000000E+00  0.00000000E+00 -4.94010365E-01  0.00000000E+00  0.00000000E+00
  1.61189337E-01  0.00000000E+00  0.00000000E+00  3.91851227E-02  1.38550893E-01
  0.00000000E+00  0.00000000E+00  3.14907167E-17  0.00000000E+00 -6.21565968E-02
  0.00000000E+00  0.00000000E+00  1.88802682E-17  0.00000000E+00 -1.10569672E-01
 -1.99867605E-01 -1.35266566E-01 -5.65832525E-02  0.00000000E+00  0.00000000E+00
  2.26611668E-01  0.00000000E+00  0.00000000E+00  2.32073070E-01  0.00000000E+00
  0.00000000E+00  7.47016622E-02 -2.13457985E+00  0.00000000E+00  0.00000000E+00
  0.00000000E+00  0.00000000E+00  9.95995471E-01  0.00000000E+00  0.00000000E+00
  6.11992894E-01  0.00000000E+00  0.00000000E+00  1.04440037E-01  0.00000000E+00
  0.00000000E+00  0.00000000E+00  8.48564611E-01  0.00000000E+00  0.00000000E+00
  0.00000000E+00  0.00000000E+00 -3.38686869E-02  0.00000000E+00  0.00000000E+00
  0.00000000E+00  0.00000000E+00  0.00000000E+00  0.00000000E+00  0.00000000E+00
  9.01145121E-02  0.00000000E+00  0.00000000E+00  7.83163621E-02  0.00000000E+00
  0.00000000E+00  2.49403003E-02  0.00000000E+00  0.00000000E+00  0.00000000E+00
 -1.90894342E+00  0.00000000E+00  0.00000000E+00  0.00000000E+00  0.00000000E+00
  0.00000000E+00  9.95995471E-01  0.00000000E+00  0.00000000E+00  6.11992894E-01
  0.00000000E+00  0.00000000E+00  1.04440037E-01  0.00000000E+00  0.00000000E+00
  0.00000000E+00  8.48564611E-01  0.00000000E+00  0.00000000E+00  0.00000000E+00
  0.00000000E+00 -3.38686869E-02  0.00000000E+00  0.00000000E+00  0.00000000E+00
  0.00000000E+00  0.00000000E+00  0.00000000E+00  0.00000000E+00  9.01145121E-02
  0.00000000E+00  0.00000000E+00  7.83163621E-02  0.00000000E+00  0.00000000E+00
  2.49403003E-02  0.00000000E+00  0.00000000E+00  0.00000000E+00 -1.90894342E+00
 -3.39985039E-18  1.58209801E-17 -2.06050164E-17 -1.22848273E-17  0.00000000E+00
  0.00000000E+00 -2.48902458E-17  0.00000000E+00  0.00000000E+00 -2.68019213E-17
  0.00000000E+00  0.00000000E+00 -1.71330585E-17 -1.03228162E-17  0.00000000E+00
  0.00000000E+00 -5.88335887E-01  0.00000000E+00  1.26338666E-17  0.00000000E+00
  0.00000000E+00 -4.27744147E-01  0.00000000E+00 -1.45701386E-18 -2.31867135E-17
  2.84149509E-17 -1.19894378E-17  0.00000000E+00  0.00000000E+00  9.03014308E-19
  0.00000000E+00  0.00000000E+00 -3.12142310E-18  0.00000000E+00  0.00000000E+00
 -2.39725030E-19 -1.53020596E-18  0.00000000E+00  0.00000000E+00 -1.77200305E+00
  0.00000000E+00  0.00000000E+00  0.00000000E+00  0.00000000E+00  0.00000000E+00
  0.00000000E+00  0.00000000E+00  0.00000000E+00  0.00000000E+00  0.00000000E+00
  0.00000000E+00  0.00000000E+00  0.00000000E+00  0.00000000E+00  0.00000000E+00
  0.00000000E+00  0.00000000E+00 -5.88335887E-01  0.00000000E+00  0.00000000E+00
  0.00000000E+00  0.00000000E+00 -4.27744147E-01  0.00000000E+00  0.00000000E+00
  0.00000000E+00  0.00000000E+00  0.00000000E+00  0.00000000E+00  0.00000000E+00
  0.00000000E+00  0.00000000E+00  0.00000000E+00  0.00000000E+00  0.00000000E+00
  0.00000000E+00  0.00000000E+00  0.00000000E+00  0.00000000E+00  0.00000000E+00
 -1.77200305E+00 -8.14104977E-01 -5.33383977E-01 -2.25088121E-01 -9.42175108E-02
  0.00000000E+00  0.00000000E+00  3.23157609E-01  0.00000000E+00  0.00000000E+00
  5.68539466E-01  0.00000000E+00  0.00000000E+00  2.05451108E-01 -9.15695299E-03
  0.00000000E+00  0.00000000E+00  7.31044794E-17  0.00000000E+00 -3.41753520E-01
  0.00000000E+00  0.00000000E+00 -3.52922974E-17  0.00000000E+00 -3.33738865E-02
 -1.40641972E-01 -1.72123880E-01 -9.86079963E-02  0.00000000E+00  0.00000000E+00
  6.28104150E-02  0.00000000E+00  0.00000000E+00  6.65149022E-02  0.00000000E+00
  0.00000000E+00 -3.56538403E-02 -8.12005331E-01  0.00000000E+00  0.00000000E+00
 -4.25943728E-18  0.00000000E+00 -1.37032148E+00  0.00000000E+00  0.00000000E+00
  0.00000000E+00  0.00000000E+00  6.06687052E-01  0.00000000E+00  0.00000000E+00
  7.80164323E-01  0.00000000E+00  0.00000000E+00  2.91957099E-01  0.00000000E+00
  0.00000000E+00  0.00000000E+00  9.93207778E-03  0.00000000E+00  0.00000000E+00
  0.00000000E+00  0.00000000E+00 -3.72669863E-01  0.00000000E+00  0.00000000E+00
  0.00000000E+00  0.00000000E+00  0.00000000E+00  0.00000000E+00  0.00000000E+00
  2.17292702E-02  0.00000000E+00  0.00000000E+00  3.00573110E-02  0.00000000E+00
  0.00000000E+00  1.87170311E-03  0.00000000E+00  0.00000000E+00  0.00000000E+00
 -7.07269936E-01  0.00000000E+00  0.00000000E+00  0.00000000E+00  0.00000000E+00
 -1.18651398E+00  0.00000000E+00  0.00000000E+00  0.00000000E+00  0.00000000E+00
  0.00000000E+00  6.06687052E-01  0.00000000E+00  0.00000000E+00  7.80164323E-01
  0.00000000E+00  0.00000000E+00  2.91957099E-01  0.00000000E+00  0.00000000E+00
  0.00000000E+00  9.93207778E-03  0.00000000E+00  0.00000000E+00  0.00000000E+00
  0.00000000E+00 -3.72669863E-01  0.00000000E+00  0.00000000E+00  0.00000000E+00
  0.00000000E+00  0.00000000E+00  0.00000000E+00  0.00000000E+00  2.17292702E-02
  0.00000000E+00  0.00000000E+00  3.00573110E-02  0.00000000E+00  0.00000000E+00
  1.87170311E-03  0.00000000E+00  0.00000000E+00  0.00000000E+00 -7.07269936E-01
  0.00000000E+00  0.00000000E+00  0.00000000E+00  0.00000000E+00 -1.18651398E+00
  2.72349225E-19 -1.10574314E-17  7.82941794E-19  6.63589502E-18  0.00000000E+00
  0.00000000E+00  2.70004882E-18  0.00000000E+00  0.00000000E+00  2.70821383E-17
  0.00000000E+00  0.00000000E+00 -1.08837650E-17  1.39060632E-16  0.00000000E+00
  0.00000000E+00 -4.10768504E-01  0.00000000E+00  3.33089343E-18  0.00000000E+00
  0.00000000E+00 -8.16620649E-01  0.00000000E+00 -6.79463671E-18  4.77831040E-17
 -4.05398066E-17 -9.91690456E-18  0.00000000E+00  0.00000000E+00 -2.33474963E-19
  0.00000000E+00  0.00000000E+00 -7.72453889E-19  0.00000000E+00  0.00000000E+00
  5.18704955E-20  2.92481541E-18  0.00000000E+00  0.00000000E+00 -6.45931486E-01
  0.00000000E+00 -8.03465834E-18  0.00000000E+00  0.00000000E+00 -1.07514447E+00
  0.00000000E+00  0.00000000E+00  0.00000000E+00  0.00000000E+00  0.00000000E+00
  0.00000000E+00  0.00000000E+00  0.00000000E+00  0.00000000E+00  0.00000000E+00
  0.00000000E+00  0.00000000E+00  0.00000000E+00  0.00000000E+00  0.00000000E+00
  0.00000000E+00  0.00000000E+00 -4.10768504E-01  0.00000000E+00  0.00000000E+00
  0.00000000E+00  0.00000000E+00 -8.16620649E-01  0.00000000E+00  0.00000000E+00
  0.00000000E+00  0.00000000E+00  0.00000000E+00  0.00000000E+00  0.00000000E+00
  0.00000000E+00  0.00000000E+00  0.00000000E+00  0.00000000E+00  0.00000000E+00
  0.00000000E+00  0.00000000E+00  0.00000000E+00  0.00000000E+00  0.00000000E+00
 -6.45931486E-01  0.00000000E+00  0.00000000E+00  0.00000000E+00  0.00000000E+00
 -1.07514447E+00 -4.56886338E-05 -1.24333340E-02 -1.32643136E-01 -1.76747691E-01
  0.00000000E+00  0.00000000E+00 -9.39734552E-05  0.00000000E+00  0.00000000E+00
 -2.72198372E-02  0.00000000E+00  0.00000000E+00 -3.37506800E-01 -9.22931306E-04
  0.00000000E+00  0.00000000E+00  1.52104138E-21  0.00000000E+00 -2.13315329E-01
  0.00000000E+00  0.00000000E+00 -1.49712680E-19  0.00000000E+00 -1.41323725E-02
 -1.84229755E-01 -3.52204592E-01 -2.27295872E-01  0.00000000E+00  0.00000000E+00
 -3.10390923E-02  0.00000000E+00  0.00000000E+00 -4.00659814E-01  0.00000000E+00
  0.00000000E+00 -5.84730986E-01 -1.10694195E-01  0.00000000E+00  0.00000000E+00
 -5.64236910E-19  0.00000000E+00 -8.09893937E-01  0.00000000E+00  0.00000000E+00
 -3.85393301E-19  0.00000000E+00 -2.70381280E+00 -1.69439262E-02 -9.26071267E-02
 -2.80523999E-01 -3.16533965E-01  0.00000000E+00  0.00000000E+00 -2.85188304E-02
  0.00000000E+00  0.00000000E+00 -1.71362282E-01  0.00000000E+00  0.00000000E+00
 -5.67060896E-01 -5.48786802E-02  0.00000000E+00  0.00000000E+00 -7.10397312E-19
  0.00000000E+00 -4.13994359E-01  0.00000000E+00  0.00000000E+00 -2.48464697E-18
  0.00000000E+00 -2.04710946E-01 -4.52707673E-01 -6.07539196E-01 -3.97594805E-01
  0.00000000E+00  0.00000000E+00 -1.97143383E-01  0.00000000E+00  0.00000000E+00
 -6.23463718E-01  0.00000000E+00  0.00000000E+00 -7.91481714E-01 -2.08762081E-01
  0.00000000E+00  0.00000000E+00  1.13970737E-17  0.00000000E+00 -7.63348461E-01
  0.00000000E+00  0.00000000E+00  1.35066058E-17  0.00000000E+00 -1.47916528E+00
 -1.50292299E+00 -1.61049223E-01 -3.21639098E-01 -5.04017281E-01 -4.95708588E-01
  0.00000000E+00  0.00000000E+00 -1.16795539E-01  0.00000000E+00  0.00000000E+00
 -3.35828096E-01  0.00000000E+00  0.00000000E+00 -6.59835838E-01 -1.05045503E-01
  0.00000000E+00  0.00000000E+00  6.53190062E-18  0.00000000E+00 -3.61244867E-01
  0.00000000E+00  0.00000000E+00  9.23413244E-18  0.00000000E+00 -4.14175858E-01
 -6.79786470E-01 -8.21123401E-01 -5.96032676E-01  0.00000000E+00  0.00000000E+00
 -1.17600174E-01  0.00000000E+00  0.00000000E+00 -3.95306217E-01  0.00000000E+00
  0.00000000E+00 -6.51942848E-01 -9.20657966E-02  0.00000000E+00  0.00000000E+00
  2.46062649E-17  0.00000000E+00 -3.53058113E-01  0.00000000E+00  0.00000000E+00
 -2.09364521E-17  0.00000000E+00 -7.36179564E-01 -1.04745203E+00 -1.07643677E+00
 -2.07711775E-01 -3.63341811E-01 -5.20866603E-01 -5.75438962E-01  0.00000000E+00
  0.00000000E+00 -6.48358190E-02  0.00000000E+00  0.00000000E+00 -1.69055136E-01
  0.00000000E+00  0.00000000E+00 -3.36514245E-01 -4.71307548E-02  0.00000000E+00
  0.00000000E+00  9.05646731E-19  0.00000000E+00 -1.09570940E-01  0.00000000E+00
  0.00000000E+00 -2.40270133E-17  0.00000000E+00 -2.75807663E-01 -4.77312848E-01
 -6.50662156E-01 -6.46559345E-01  0.00000000E+00  0.00000000E+00 -4.71614757E-05
  0.00000000E+00  0.00000000E+00 -6.08254229E-02  0.00000000E+00  0.00000000E+00
 -2.06049725E-01 -4.38228084E-02  0.00000000E+00  0.00000000E+00 -3.38462134E-18
  0.00000000E+00 -1.05178132E-01  0.00000000E+00  0.00000000E+00  3.31107715E-18
  0.00000000E+00 -2.74719711E-01 -4.66015964E-01 -6.62541430E-01 -6.71128169E-01
  0.00000000E+00  0.00000000E+00  0.00000000E+00  0.00000000E+00 -5.81027490E-06
  0.00000000E+00  0.00000000E+00 -3.95418893E-03  0.00000000E+00  0.00000000E+00
 -4.89273016E-02  0.00000000E+00  0.00000000E+00  0.00000000E+00 -1.52437119E-04
  0.00000000E+00  0.00000000E+00  0.00000000E+00  0.00000000E+00 -5.41838351E-02
  0.00000000E+00  0.00000000E+00  0.00000000E+00  0.00000000E+00  0.00000000E+00
  0.00000000E+00  0.00000000E+00 -6.63601373E-03  0.00000000E+00  0.00000000E+00
 -9.02421238E-02  0.00000000E+00  0.00000000E+00 -1.28893499E-01  0.00000000E+00
  0.00000000E+00  0.00000000E+00 -4.57590498E-02  0.00000000E+00  0.00000000E+00
  0.00000000E+00  0.00000000E+00 -3.07556445E-01  0.00000000E+00  0.00000000E+00
  0.00000000E+00  0.00000000E+00  0.00000000E+00  0.00000000E+00  0.00000000E+00
 -1.84406001E+00  0.00000000E+00  0.00000000E+00  0.00000000E+00  0.00000000E+00
  0.00000000E+00 -5.81027490E-06  0.00000000E+00  0.00000000E+00 -3.95418893E-03
  0.00000000E+00  0.00000000E+00 -4.89273016E-02  0.00000000E+00  0.00000000E+00
  0.00000000E+00 -1.52437119E-04  0.00000000E+00  0.00000000E+00  0.00000000E+00
  0.00000000E+00 -5.41838351E-02  0.00000000E+00  0.00000000E+00  0.00000000E+00
  0.00000000E+00  0.00000000E+00  0.00000000E+00  0.00000000E+00 -6.63601373E-03
  0.00000000E+00  0.00000000E+00 -9.02421238E-02  0.00000000E+00  0.00000000E+00
 -1.28893499E-01  0.00000000E+00  0.00000000E+00  0.00000000E+00 -4.57590498E-02
  0.00000000E+00  0.00000000E+00  0.00000000E+00  0.00000000E+00 -3.07556445E-01
  0.00000000E+00  0.00000000E+00  0.00000000E+00  0.00000000E+00  0.00000000E+00
  0.00000000E+00  0.00000000E+00 -1.84406001E+00  8.47367935E-05  1.89990055E-02
  7.86385505E-02  3.68251658E-02  0.00000000E+00  0.00000000E+00  1.67054779E-04
  0.00000000E+00  0.00000000E+00  4.36114381E-02  0.00000000E+00  0.00000000E+00
  1.47096838E-01  1.95735976E-03  0.00000000E+00  0.00000000E+00  1.79869712E-21
  0.00000000E+00  1.97677535E-01  0.00000000E+00  0.00000000E+00 -1.42765772E-19
  0.00000000E+00  3.11530258E-02  1.90867880E-01  1.45285848E-01  3.69535793E-02
  0.00000000E+00  0.00000000E+00  7.09781466E-02  0.00000000E+00  0.00000000E+00
  3.80029064E-01  0.00000000E+00  0.00000000E+00  1.04406562E-01  2.14425610E-01
  0.00000000E+00  0.00000000E+00 -1.27890214E-18  0.00000000E+00  2.89672428E-01
  0.00000000E+00  0.00000000E+00 -1.30978523E-18  0.00000000E+00  7.63746435E-02
  8.65418089E-02  5.13839732E-02  2.04710342E-02  0.00000000E+00  0.00000000E+00
 -1.87531271E+00  0.00000000E+00  0.00000000E+00  0.00000000E+00  0.00000000E+00
 -5.03181219E-03  0.00000000E+00  0.00000000E+00 -4.29682119E-02  0.00000000E+00
  0.00000000E+00 -1.59058050E-01  0.00000000E+00  0.00000000E+00  0.00000000E+00
 -1.89790844E-02  0.00000000E+00  0.00000000E+00  0.00000000E+00  0.00000000E+00
 -2.02615407E-01  0.00000000E+00  0.00000000E+00  0.00000000E+00  0.00000000E+00
  0.00000000E+00  0.00000000E+00  0.00000000E+00 -1.00785678E-01  0.00000000E+00
  0.00000000E+00 -2.94658042E-01  0.00000000E+00  0.00000000E+00 -3.54619674E-01
  0.00000000E+00  0.00000000E+00  0.00000000E+00 -1.88919760E-01  0.00000000E+00
  0.00000000E+00  0.00000000E+00  0.00000000E+00 -5.95425094E-01  0.00000000E+00
  0.00000000E+00  0.00000000E+00  0.00000000E+00  0.00000000E+00  0.00000000E+00
  0.00000000E+00 -9.74096572E-01  0.00000000E+00  0.00000000E+00 -1.21749077E+00
  0.00000000E+00  0.00000000E+00  0.00000000E+00  0.00000000E+00  0.00000000E+00
 -5.03181219E-03  0.00000000E+00  0.00000000E+00 -4.29682119E-02  0.00000000E+00
  0.00000000E+00 -1.59058050E-01  0.00000000E+00  0.00000000E+00  0.00000000E+00
 -1.89790844E-02  0.00000000E+00  0.00000000E+00  0.00000000E+00  0.00000000E+00
 -2.02615407E-01  0.00000000E+00  0.00000000E+00  0.00000000E+00  0.00000000E+00
  0.00000000E+00  0.00000000E+00  0.00000000E+00 -1.00785678E-01  0.00000000E+00
  0.00000000E+00 -2.94658042E-01  0.00000000E+00  0.00000000E+00 -3.54619674E-01
  0.00000000E+00  0.00000000E+00  0.00000000E+00 -1.88919760E-01  0.00000000E+00
  0.00000000E+00  0.00000000E+00  0.00000000E+00 -5.95425094E-01  0.00000000E+00
  0.00000000E+00  0.00000000E+00  0.00000000E+00  0.00000000E+00  0.00000000E+00
  0.00000000E+00 -9.74096572E-01  0.00000000E+00  0.00000000E+00 -1.21749077E+00
  3.76411891E-02  1.79558002E-01  2.99506144E-01  1.41461349E-01  0.00000000E+00
  0.00000000E+00  6.60577147E-02  0.00000000E+00  0.00000000E+00  3.28444304E-01
  0.00000000E+00  0.00000000E+00  4.26094207E-01  1.27969720E-01  0.00000000E+00
  0.00000000E+00  1.34852447E-18  0.00000000E+00  5.23026519E-01  0.00000000E+00
  0.00000000E+00  2.61307709E-18  0.00000000E+00  4.47902363E-01  6.64781456E-01
  4.64798992E-01  1.42027574E-01  0.00000000E+00  0.00000000E+00  3.94312140E-01
  0.00000000E+00  0.00000000E+00  6.99320524E-01  0.00000000E+00  0.00000000E+00
  1.97841146E-01  3.13202499E-01  0.00000000E+00  0.00000000E+00 -4.45727274E-18
  0.00000000E+00  2.26546865E-01  0.00000000E+00  0.00000000E+00 -1.36231189E-17
  0.00000000E+00  5.21504111E-02  1.57599247E-01  1.64172711E-01  8.56448473E-02
  0.00000000E+00  0.00000000E+00 -1.00422363E+00  0.00000000E+00  0.00000000E+00
 -1.32794158E+00  0.00000000E+00  0.00000000E+00  0.00000000E+00  0.00000000E+00
 -5.81563845E-02  0.00000000E+00  0.00000000E+00 -1.75505630E-01  0.00000000E+00
  0.00000000E+00 -3.61859110E-01  0.00000000E+00  0.00000000E+00  0.00000000E+00
 -6.48089799E-02  0.00000000E+00  0.00000000E+00  0.00000000E+00  0.00000000E+00
 -3.01695656E-01  0.00000000E+00  0.00000000E+00  0.00000000E+00  0.00000000E+00
  0.00000000E+00  0.00000000E+00  0.00000000E+00 -1.53818698E-01  0.00000000E+00
  0.00000000E+00 -3.94936894E-01  0.00000000E+00  0.00000000E+00 -5.94861261E-01
  0.00000000E+00  0.00000000E+00  0.00000000E+00 -8.11298126E-02  0.00000000E+00
  0.00000000E+00  0.00000000E+00  0.00000000E+00 -3.74350471E-01  0.00000000E+00
  0.00000000E+00  0.00000000E+00  0.00000000E+00  0.00000000E+00  0.00000000E+00
  0.00000000E+00 -2.67458872E-01  0.00000000E+00  0.00000000E+00 -6.29650494E-01
  0.00000000E+00  0.00000000E+00 -8.03155616E-01  0.00000000E+00  0.00000000E+00
  0.00000000E+00  0.00000000E+00  0.00000000E+00 -5.81563845E-02  0.00000000E+00
  0.00000000E+00 -1.75505630E-01  0.00000000E+00  0.00000000E+00 -3.61859110E-01
  0.00000000E+00  0.00000000E+00  0.00000000E+00 -6.48089799E-02  0.00000000E+00
  0.00000000E+00  0.00000000E+00  0.00000000E+00 -3.01695656E-01  0.00000000E+00
  0.00000000E+00  0.00000000E+00  0.00000000E+00  0.00000000E+00  0.00000000E+00
  0.00000000E+00 -1.53818698E-01  0.00000000E+00  0.00000000E+00 -3.94936894E-01
  0.00000000E+00  0.00000000E+00 -5.94861261E-01  0.00000000E+00  0.00000000E+00
  0.00000000E+00 -8.11298126E-02  0.00000000E+00  0.00000000E+00  0.00000000E+00
  0.00000000E+00 -3.74350471E-01  0.00000000E+00  0.00000000E+00  0.00000000E+00
  0.00000000E+00  0.00000000E+00  0.00000000E+00  0.00000000E+00 -2.67458872E-01
  0.00000000E+00  0.00000000E+00 -6.29650494E-01  0.00000000E+00  0.00000000E+00
 -8.03155616E-01  4.03408682E-01  6.65388783E-01  7.15204657E-01  3.60414414E-01
  0.00000000E+00  0.00000000E+00  2.23647735E-01  0.00000000E+00  0.00000000E+00
  5.12180345E-01  0.00000000E+00  0.00000000E+00  4.84263256E-01  1.59501336E-01
  0.00000000E+00  0.00000000E+00  2.36302737E-17  0.00000000E+00  2.65836406E-01
  0.00000000E+00  0.00000000E+00  9.75735889E-19  0.00000000E+00  7.04140857E-01
  9.66275364E-01  8.21138034E-01  3.39906826E-01  0.00000000E+00  0.00000000E+00
  2.46495727E-02  0.00000000E+00  0.00000000E+00  7.19735616E-02  0.00000000E+00
  0.00000000E+00 -9.49223080E-02  5.48538347E-02  0.00000000E+00  0.00000000E+00
 -3.39177851E-17  0.00000000E+00 -1.01425889E-01  0.00000000E+00  0.00000000E+00
 -9.46431907E-18  0.00000000E+00  1.62184670E-02  1.01298956E-01  2.08480665E-01
  1.76135548E-01  0.00000000E+00  0.00000000E+00 -2.77867809E-01  0.00000000E+00
  0.00000000E+00 -7.21698185E-01  0.00000000E+00  0.00000000E+00 -9.91055417E-01
 -1.18780130E-03 -3.86342325E-02 -5.96839939E-02 -1.84940677E-02  0.00000000E+00
  0.00000000E+00 -2.70693510E-03  0.00000000E+00  0.00000000E+00 -8.84019011E-02
  0.00000000E+00  0.00000000E+00 -7.73089151E-02 -1.53618008E-02  0.00000000E+00
  0.00000000E+00  1.54835586E-19  0.00000000E+00 -1.88473588E-01  0.00000000E+00
  0.00000000E+00 -1.98132057E-18  0.00000000E+00 -1.16584723E-01 -2.15967087E-01
 -8.38284878E-02 -1.89135206E-02  0.00000000E+00  0.00000000E+00 -2.22437042E-01
  0.00000000E+00  0.00000000E+00 -3.21660148E-01  0.00000000E+00  0.00000000E+00
 -1.05364726E-02 -3.57604700E-01  0.00000000E+00  0.00000000E+00 -7.75163806E-18
  0.00000000E+00 -6.45433726E-02  0.00000000E+00  0.00000000E+00  3.24423038E-18
  0.00000000E+00 -1.89514239E-02 -4.38740956E-02 -3.41113708E-02 -1.51520675E-02
  0.00000000E+00  0.00000000E+00  9.42576239E-02  0.00000000E+00  0.00000000E+00
  1.29477996E-01  0.00000000E+00  0.00000000E+00  5.44574870E-02 -1.50189137E+00
  0.00000000E+00  0.00000000E+00  0.00000000E+00  0.00000000E+00  1.84659274E-04
  0.00000000E+00  0.00000000E+00  1.55945907E-02  0.00000000E+00  0.00000000E+00
  5.15829144E-02  0.00000000E+00  0.00000000E+00  0.00000000E+00  2.34427641E-03
  0.00000000E+00  0.00000000E+00  0.00000000E+00  0.00000000E+00  1.04832613E-01
  0.00000000E+00  0.00000000E+00  0.00000000E+00  0.00000000E+00  0.00000000E+00
  0.00000000E+00  0.00000000E+00  4.78744242E-02  0.00000000E+00  0.00000000E+00
  1.84611293E-01  0.00000000E+00  0.00000000E+00  9.24996371E-02  0.00000000E+00
  0.00000000E+00  0.00000000E+00  1.83082755E-01  0.00000000E+00  0.00000000E+00
  0.00000000E+00  0.00000000E+00  2.85763507E-01  0.00000000E+00  0.00000000E+00
  0.00000000E+00  0.00000000E+00  0.00000000E+00  0.00000000E+00  0.00000000E+00
  6.96463613E-02  0.00000000E+00  0.00000000E+00  8.57374545E-02  0.00000000E+00
  0.00000000E+00  3.38624084E-02  0.00000000E+00  0.00000000E+00  0.00000000E+00
 -1.47704697E+00  0.00000000E+00  0.00000000E+00  0.00000000E+00  0.00000000E+00
  0.00000000E+00  1.84659274E-04  0.00000000E+00  0.00000000E+00  1.55945907E-02
  0.00000000E+00  0.00000000E+00  5.15829144E-02  0.00000000E+00  0.00000000E+00
  0.00000000E+00  2.34427641E-03  0.00000000E+00  0.00000000E+00  0.00000000E+00
  0.00000000E+00  1.04832613E-01  0.00000000E+00  0.00000000E+00  0.00000000E+00
  0.00000000E+00  0.00000000E+00  0.00000000E+00  0.00000000E+00  4.78744242E-02
  0.00000000E+00  0.00000000E+00  1.84611293E-01  0.00000000E+00  0.00000000E+00
  9.24996371E-02  0.00000000E+00  0.00000000E+00  0.00000000E+00  1.83082755E-01
  0.00000000E+00  0.00000000E+00  0.00000000E+00  0.00000000E+00  2.85763507E-01
  0.00000000E+00  0.00000000E+00  0.00000000E+00  0.00000000E+00  0.00000000E+00
  0.00000000E+00  0.00000000E+00  6.96463613E-02  0.00000000E+00  0.00000000E+00
  8.57374545E-02  0.00000000E+00  0.00000000E+00  3.38624084E-02  0.00000000E+00
  0.00000000E+00  0.00000000E+00 -1.47704697E+00 -1.76516734E-21 -5.69683650E-19
  2.51545686E-19  7.33686304E-18  0.00000000E+00  0.00000000E+00  4.94517043E-21
  0.00000000E+00  0.00000000E+00  3.36904538E-19  0.00000000E+00  0.00000000E+00
 -1.36308689E-17  1.76312824E-19  0.00000000E+00  0.00000000E+00 -1.16094544E-04
  0.00000000E+00  1.84748155E-18  0.00000000E+00  0.00000000E+00 -1.49619594E-02
  0.00000000E+00  5.47731814E-19 -1.01601711E-17 -1.33719949E-18  1.51905286E-18
  0.00000000E+00  0.00000000E+00  1.23104933E-18  0.00000000E+00  0.00000000E+00
  9.07187987E-18  0.00000000E+00  0.00000000E+00  1.55001533E-17  4.43425632E-19
  0.00000000E+00  0.00000000E+00 -2.35069516E-02  0.00000000E+00 -2.30638075E-17
  0.00000000E+00  0.00000000E+00 -1.14535749E-01  0.00000000E+00 -1.82126985E-17
 -3.71804331E-17  1.53194206E-17  2.90602322E-18  0.00000000E+00  0.00000000E+00
  3.07234925E-18  0.00000000E+00  0.00000000E+00 -3.89872351E-19  0.00000000E+00
  0.00000000E+00 -1.66996937E-19 -1.17330872E-17  0.00000000E+00  0.00000000E+00
 -1.44093506E+00  0.00000000E+00  0.00000000E+00  0.00000000E+00  0.00000000E+00
  0.00000000E+00  0.00000000E+00  0.00000000E+00  0.00000000E+00  0.00000000E+00
  0.00000000E+00  0.00000000E+00  0.00000000E+00  0.00000000E+00  0.00000000E+00
  0.00000000E+00  0.00000000E+00  0.00000000E+00 -1.16094544E-04  0.00000000E+00
  0.00000000E+00  0.00000000E+00  0.00000000E+00 -1.49619594E-02  0.00000000E+00
  0.00000000E+00  0.00000000E+00  0.00000000E+00  0.00000000E+00  0.00000000E+00
  0.00000000E+00  0.00000000E+00  0.00000000E+00  0.00000000E+00  0.00000000E+00
  0.00000000E+00  0.00000000E+00  0.00000000E+00  0.00000000E+00  0.00000000E+00
  0.00000000E+00 -2.35069516E-02  0.00000000E+00  0.00000000E+00  0.00000000E+00
  0.00000000E+00 -1.14535749E-01  0.00000000E+00  0.00000000E+00  0.00000000E+00
  0.00000000E+00  0.00000000E+00  0.00000000E+00  0.00000000E+00  0.00000000E+00
  0.00000000E+00  0.00000000E+00  0.00000000E+00  0.00000000E+00  0.00000000E+00
  0.00000000E+00  0.00000000E+00  0.00000000E+00  0.00000000E+00 -1.44093506E+00
 -2.68852071E-01 -5.03657124E-01 -4.10661218E-01 -1.30729390E-01  0.00000000E+00
  0.00000000E+00 -2.89888104E-01  0.00000000E+00  0.00000000E+00 -6.32338543E-01
  0.00000000E+00  0.00000000E+00 -2.84390303E-01 -3.12819299E-01  0.00000000E+00
  0.00000000E+00  1.25232478E-17  0.00000000E+00 -4.08894065E-01  0.00000000E+00
  0.00000000E+00  1.07547542E-17  0.00000000E+00 -9.49395414E-01 -9.16085841E-01
 -4.50828488E-01 -1.25342349E-01  0.00000000E+00  0.00000000E+00 -2.40286864E-01
  0.00000000E+00  0.00000000E+00 -1.74400406E-01  0.00000000E+00  0.00000000E+00
  1.46087246E-01 -7.89607917E-02  0.00000000E+00  0.00000000E+00  2.45987274E-17
  0.00000000E+00  1.05898824E-01  0.00000000E+00  0.00000000E+00 -8.99090906E-17
  0.00000000E+00 -7.22199260E-03 -6.88952296E-02 -1.27286858E-01 -8.73697057E-02
  0.00000000E+00  0.00000000E+00  3.11583054E-02  0.00000000E+00  0.00000000E+00
  1.98248298E-01  0.00000000E+00  0.00000000E+00  2.68545666E-01 -5.71624264E-01
  0.00000000E+00  0.00000000E+00  5.41379420E-18  0.00000000E+00 -1.14760794E+00
  0.00000000E+00  0.00000000E+00  0.00000000E+00  0.00000000E+00  6.63179413E-02
  0.00000000E+00  0.00000000E+00  2.22992108E-01  0.00000000E+00  0.00000000E+00
  3.02250920E-01  0.00000000E+00  0.00000000E+00  0.00000000E+00  1.30779824E-01
  0.00000000E+00  0.00000000E+00  0.00000000E+00  0.00000000E+00  4.68927356E-01
  0.00000000E+00  0.00000000E+00  0.00000000E+00  0.00000000E+00  0.00000000E+00
  0.00000000E+00  0.00000000E+00  3.60086645E-01  0.00000000E+00  0.00000000E+00
  6.61907350E-01  0.00000000E+00  0.00000000E+00  4.27584306E-01  0.00000000E+00
  0.00000000E+00  0.00000000E+00  2.81714336E-01  0.00000000E+00  0.00000000E+00
  0.00000000E+00  0.00000000E+00  4.29010943E-01  0.00000000E+00  0.00000000E+00
  0.00000000E+00  0.00000000E+00  0.00000000E+00  0.00000000E+00  0.00000000E+00
  2.13287537E-02  0.00000000E+00  0.00000000E+00  1.01251845E-01  0.00000000E+00
  0.00000000E+00  1.20497773E-01  0.00000000E+00  0.00000000E+00  0.00000000E+00
 -5.49947755E-01  0.00000000E+00  0.00000000E+00  0.00000000E+00  0.00000000E+00
 -1.00241935E+00  0.00000000E+00  0.00000000E+00  0.00000000E+00  0.00000000E+00
  0.00000000E+00  6.63179413E-02  0.00000000E+00  0.00000000E+00  2.22992108E-01
  0.00000000E+00  0.00000000E+00  3.02250920E-01  0.00000000E+00  0.00000000E+00
  0.00000000E+00  1.30779824E-01  0.00000000E+00  0.00000000E+00  0.00000000E+00
  0.00000000E+00  4.68927356E-01  0.00000000E+00  0.00000000E+00  0.00000000E+00
  0.00000000E+00  0.00000000E+00  0.00000000E+00  0.00000000E+00  3.60086645E-01
  0.00000000E+00  0.00000000E+00  6.61907350E-01  0.00000000E+00  0.00000000E+00
  4.27584306E-01  0.00000000E+00  0.00000000E+00  0.00000000E+00  2.81714336E-01
  0.00000000E+00  0.00000000E+00  0.00000000E+00  0.00000000E+00  4.29010943E-01
  0.00000000E+00  0.00000000E+00  0.00000000E+00  0.00000000E+00  0.00000000E+00
  0.00000000E+00  0.00000000E+00  2.13287537E-02  0.00000000E+00  0.00000000E+00
  1.01251845E-01  0.00000000E+00  0.00000000E+00  1.20497773E-01  0.00000000E+00
  0.00000000E+00  0.00000000E+00 -5.49947755E-01  0.00000000E+00  0.00000000E+00
  0.00000000E+00  0.00000000E+00 -1.00241935E+00 -2.35636740E-19 -8.46068690E-19
  2.02184382E-18  5.14850330E-18  0.00000000E+00  0.00000000E+00  1.75872070E-19
  0.00000000E+00  0.00000000E+00  5.38331810E-18  0.00000000E+00  0.00000000E+00
 -1.12496539E-17  2.43798214E-17  0.00000000E+00  0.00000000E+00 -1.74780593E-02
  0.00000000E+00  5.10851654E-17  0.00000000E+00  0.00000000E+00 -1.13999079E-01
  0.00000000E+00 -5.66363391E-19  4.82902512E-18  1.16343691E-18 -2.55040170E-17
  0.00000000E+00  0.00000000E+00  5.06535940E-19  0.00000000E+00  0.00000000E+00
  6.16898557E-18  0.00000000E+00  0.00000000E+00 -1.05531310E-17 -2.68187525E-19
  0.00000000E+00  0.00000000E+00 -1.29272200E-01  0.00000000E+00 -1.01095726E-16
  0.00000000E+00  0.00000000E+00 -3.89514738E-01  0.00000000E+00 -1.03211432E-18
 -2.16477320E-17 -1.76701922E-18  1.10790492E-17  0.00000000E+00  0.00000000E+00
 -2.48183148E-19  0.00000000E+00  0.00000000E+00 -2.89835833E-18  0.00000000E+00
  0.00000000E+00  1.59128074E-18 -6.12087282E-18  0.00000000E+00  0.00000000E+00
 -5.27356677E-01  0.00000000E+00 -9.51127484E-18  0.00000000E+00  0.00000000E+00
 -9.16754457E-01  0.00000000E+00  0.00000000E+00  0.00000000E+00  0.00000000E+00
  0.00000000E+00  0.00000000E+00  0.00000000E+00  0.00000000E+00  0.00000000E+00
  0.00000000E+00  0.00000000E+00  0.00000000E+00  0.00000000E+00  0.00000000E+00
  0.00000000E+00  0.00000000E+00  0.00000000E+00 -1.74780593E-02  0.00000000E+00
  0.00000000E+00  0.00000000E+00  0.00000000E+00 -1.13999079E-01  0.00000000E+00
  0.00000000E+00  0.00000000E+00  0.00000000E+00  0.00000000E+00  0.00000000E+00
  0.00000000E+00  0.00000000E+00  0.00000000E+00  0.00000000E+00  0.00000000E+00
  0.00000000E+00  0.00000000E+00  0.00000000E+00  0.00000000E+00  0.00000000E+00
  0.00000000E+00 -1.29272200E-01  0.00000000E+00  0.00000000E+00  0.00000000E+00
  0.00000000E+00 -3.89514738E-01  0.00000000E+00  0.00000000E+00  0.00000000E+00
  0.00000000E+00  0.00000000E+00  0.00000000E+00  0.00000000E+00  0.00000000E+00
  0.00000000E+00  0.00000000E+00  0.00000000E+00  0.00000000E+00  0.00000000E+00
  0.00000000E+00  0.00000000E+00  0.00000000E+00  0.00000000E+00 -5.27356677E-01
  0.00000000E+00  0.00000000E+00  0.00000000E+00  0.00000000E+00 -9.16754457E-01
Core Hamiltonian Matrix                    R   N=        2415
 -7.30304291E-01 -1.15919012E+00 -1.27943421E+00 -7.48910636E-01 -1.02981194E+00
 -1.03749224E+00 -3.09171106E-01 -5.08377525E-01 -6.68280799E-01 -6.54365255E-01
  0.00000000E+00  0.00000000E+00  0.00000000E+00  0.00000000E+00  1.39140952E+00
  0.00000000E+00  0.00000000E+00  0.00000000E+00  0.00000000E+00  0.00000000E+00
  1.39140952E+00 -2.19022124E-01 -2.36705579E-01 -1.36212747E-01 -5.34884364E-02
  0.00000000E+00  0.00000000E+00  1.21632008E+00  0.00000000E+00  0.00000000E+00
  0.00000000E+00  0.00000000E+00 -1.95522602E-01  0.00000000E+00  0.00000000E+00
 -4.23477735E-01  0.00000000E+00  0.00000000E+00  0.00000000E+00  0.00000000E+00
  0.00000000E+00 -1.95522602E-01  0.00000000E+00  0.00000000E+00 -4.23477735E-01
 -1.39444929E-01 -2.99151909E-01 -2.46791820E-01 -1.15934219E-01  0.00000000E+00
  0.00000000E+00 -3.39814537E-01  0.00000000E+00  0.00000000E+00 -6.64551782E-01
  0.00000000E+00  0.00000000E+00  0.00000000E+00  0.00000000E+00 -2.25553930E-01
  0.00000000E+00  0.00000000E+00 -4.65079507E-01  0.00000000E+00  0.00000000E+00
 -6.01603811E-01  0.00000000E+00  0.00000000E+00  0.00000000E+00  0.00000000E+00
  0.00000000E+00 -2.25553930E-01  0.00000000E+00  0.00000000E+00 -4.65079507E-01
  0.00000000E+00  0.00000000E+00 -6.01603811E-01 -4.08033413E-02 -1.39983032E-01
 -2.03731011E-01 -1.54450189E-01  0.00000000E+00  0.00000000E+00 -2.70122657E-01
  0.00000000E+00  0.00000000E+00 -5.83748334E-01  0.00000000E+00  0.00000000E+00
 -7.43441397E-01 -1.00041322E-01 -1.75502778E-01 -1.16348543E-01 -4.81896762E-02
  0.00000000E+00  0.00000000E+00 -3.20869292E-01  0.00000000E+00  0.00000000E+00
 -3.61551066E-01  0.00000000E+00  0.00000000E+00 -1.29159149E-01  1.70741651E+00
  0.00000000E+00  0.00000000E+00  0.00000000E+00  0.00000000E+00 -1.59760873E-01
  0.00000000E+00  0.00000000E+00 -1.64053817E-01  0.00000000E+00  0.00000000E+00
 -5.88027087E-02  0.00000000E+00  0.00000000E+00  0.00000000E+00  1.91679332E+00
  0.00000000E+00  0.00000000E+00  0.00000000E+00  0.00000000E+00  0.00000000E+00
 -1.59760873E-01  0.00000000E+00  0.00000000E+00 -1.64053817E-01  0.00000000E+00
  0.00000000E+00 -5.88027087E-02  0.00000000E+00  0.00000000E+00  0.00000000E+00
  1.91679332E+00  2.58575529E-17 -5.08141418E-17 -3.23999866E-17  4.59358060E-18
  0.00000000E+00  0.00000000E+00 -3.04572805E-18  0.00000000E+00  0.00000000E+00
  4.44093096E-18  0.00000000E+00  0.00000000E+00 -1.56041039E-18 -6.28605727E-17
  0.00000000E+00  0.00000000E+00  2.03490095E+00  0.00000000E+00  0.00000000E+00
  0.00000000E+00  0.00000000E+00  0.00000000E+00  0.00000000E+00  0.00000000E+00
  0.00000000E+00  0.00000000E+00  0.00000000E+00  0.00000000E+00  0.00000000E+00
  0.00000000E+00  0.00000000E+00  0.00000000E+00  0.00000000E+00  0.00000000E+00
  2.03490095E+00 -2.93630297E-02 -1.05210439E-01 -1.21943249E-01 -7.23899238E-02
  0.00000000E+00  0.00000000E+00 -9.39687204E-02  0.00000000E+00  0.00000000E+00
 -2.64763200E-01  0.00000000E+00  0.00000000E+00 -2.32891826E-01 -1.46703836E-01
  0.00000000E+00  0.00000000E+00  2.27320585E-17  0.00000000E+00 -3.29293333E-01
  0.00000000E+00  0.00000000E+00  0.00000000E+00  0.00000000E+00 -4.30580240E-02
  0.00000000E+00  0.00000000E+00 -1.31309156E-01  0.00000000E+00  0.00000000E+00
 -1.22369476E-01  0.00000000E+00  0.00000000E+00  0.00000000E+00 -5.66761840E-02
  0.00000000E+00  0.00000000E+00  0.00000000E+00  0.00000000E+00 -2.21860635E-01
  0.00000000E+00  0.00000000E+00  0.00000000E+00  0.00000000E+00  0.00000000E+00
 -4.30580240E-02  0.00000000E+00  0.00000000E+00 -1.31309156E-01  0.00000000E+00
  0.00000000E+00 -1.22369476E-01  0.00000000E+00  0.00000000E+00  0.00000000E+00
 -5.66761840E-02  0.00000000E+00  0.00000000E+00  0.00000000E+00  0.00000000E+00
 -2.21860635E-01 -6.10610596E-18  9.50741463E-18  1.43007197E-17  1.32238566E-18
  0.00000000E+00  0.00000000E+00 -1.48547424E-18  0.00000000E+00  0.00000000E+00
 -5.80789312E-18  0.00000000E+00  0.00000000E+00 -2.46436653E-18  8.42361325E-18
  0.00000000E+00  0.00000000E+00 -6.51295047E-03  0.00000000E+00  1.27186788E-17
  0.00000000E+00  0.00000000E+00 -1.39170834E-01  0.00000000E+00  0.00000000E+00
  0.00000000E+00  0.00000000E+00  0.00000000E+00  0.00000000E+00  0.00000000E+00
  0.00000000E+00  0.00000000E+00  0.00000000E+00  0.00000000E+00  0.00000000E+00
  0.00000000E+00  0.00000000E+00  0.00000000E+00  0.00000000E+00  0.00000000E+00
 -6.51295047E-03  0.00000000E+00  0.00000000E+00  0.00000000E+00  0.00000000E+00
 -1.39170834E-01 -6.61972214E-01 -8.53871337E-01 -6.69984568E-01 -3.11351772E-01
  0.00000000E+00  0.00000000E+00 -5.78709259E-01  0.00000000E+00  0.00000000E+00
 -8.51390795E-01  0.00000000E+00  0.00000000E+00 -5.10025448E-01 -2.52133675E-01
  0.00000000E+00  0.00000000E+00  5.06491513E-18  0.00000000E+00 -4.47299715E-01
  0.00000000E+00  0.00000000E+00 -4.80258955E-18  0.00000000E+00 -8.52260146E-01
 -8.25300689E-01 -1.09304608E+00 -9.78723159E-01 -5.26654390E-01  0.00000000E+00
  0.00000000E+00 -4.35699030E-01  0.00000000E+00  0.00000000E+00 -7.49714490E-01
  0.00000000E+00  0.00000000E+00 -6.14331486E-01 -3.35308463E-01  0.00000000E+00
  0.00000000E+00 -3.84800950E-17  0.00000000E+00 -3.81944978E-01  0.00000000E+00
  0.00000000E+00 -2.00030950E-17  0.00000000E+00 -1.24532539E+00 -1.40089135E+00
 -6.38778269E-01 -9.38259306E-01 -1.00628005E+00 -6.87625106E-01  0.00000000E+00
  0.00000000E+00 -2.20696423E-01  0.00000000E+00  0.00000000E+00 -4.55535377E-01
  0.00000000E+00  0.00000000E+00 -5.18613982E-01 -1.61979825E-01  0.00000000E+00
  0.00000000E+00  1.43805405E-17  0.00000000E+00 -2.46809558E-01  0.00000000E+00
  0.00000000E+00  3.49961502E-17  0.00000000E+00 -7.94463468E-01 -1.12334011E+00
 -1.13495347E+00 -2.95555174E-01 -4.91942370E-01 -6.57191640E-01 -6.57097861E-01
  0.00000000E+00  0.00000000E+00 -6.51848057E-02  0.00000000E+00  0.00000000E+00
 -1.52040660E-01  0.00000000E+00  0.00000000E+00 -2.41175200E-01 -5.24164247E-02
  0.00000000E+00  0.00000000E+00 -5.63681196E-18  0.00000000E+00 -9.00008429E-02
  0.00000000E+00  0.00000000E+00 -2.10369503E-17  0.00000000E+00 -3.26570862E-01
 -5.51198876E-01 -7.20396508E-01 -6.84431307E-01  0.00000000E+00  0.00000000E+00
  0.00000000E+00  0.00000000E+00 -1.83495547E-01  0.00000000E+00  0.00000000E+00
 -2.77116635E-01  0.00000000E+00  0.00000000E+00 -2.08442880E-01  0.00000000E+00
  0.00000000E+00  0.00000000E+00  2.34019205E-01  0.00000000E+00  0.00000000E+00
  0.00000000E+00  0.00000000E+00 -2.11261743E-01  0.00000000E+00  0.00000000E+00
  0.00000000E+00  0.00000000E+00  0.00000000E+00  0.00000000E+00  0.00000000E+00
  1.27524108E+00  0.00000000E+00  0.00000000E+00  0.00000000E+00  0.00000000E+00
  0.00000000E+00 -1.83495547E-01  0.00000000E+00  0.00000000E+00 -2.77116635E-01
  0.00000000E+00  0.00000000E+00 -2.08442880E-01  0.00000000E+00  0.00000000E+00
  0.00000000E+00  2.34019205E-01  0.00000000E+00  0.00000000E+00  0.00000000E+00
  0.00000000E+00 -2.11261743E-01  0.00000000E+00  0.00000000E+00  0.00000000E+00
  0.00000000E+00  0.00000000E+00  0.00000000E+00  0.00000000E+00  1.27524108E+00
  5.62958806E-01  4.08825106E-01  1.87163370E-01  4.68408525E-02  0.00000000E+00
  0.00000000E+00 -3.97096524E-01  0.00000000E+00  0.00000000E+00 -5.73318936E-02
  0.00000000E+00  0.00000000E+00 -1.06986757E-01 -7.25707692E-01  0.00000000E+00
  0.00000000E+00 -2.72107345E-17  0.00000000E+00 -1.83654974E-01  0.00000000E+00
  0.00000000E+00 -3.74117610E-18  0.00000000E+00  1.42647480E-01  1.50163770E-01
  8.48287735E-02  3.30174022E-02  0.00000000E+00  0.00000000E+00  1.08278938E+00
  0.00000000E+00  0.00000000E+00  0.00000000E+00  0.00000000E+00 -2.56836357E-01
  0.00000000E+00  0.00000000E+00 -4.54282877E-01  0.00000000E+00  0.00000000E+00
 -4.51539354E-01  0.00000000E+00  0.00000000E+00  0.00000000E+00 -1.02203877E-01
  0.00000000E+00  0.00000000E+00  0.00000000E+00  0.00000000E+00 -2.84464327E-01
  0.00000000E+00  0.00000000E+00  0.00000000E+00  0.00000000E+00  0.00000000E+00
  0.00000000E+00  0.00000000E+00 -2.64937009E-01  0.00000000E+00  0.00000000E+00
 -5.24473690E-01  0.00000000E+00  0.00000000E+00  0.00000000E+00  0.00000000E+00
  0.00000000E+00 -2.56836357E-01  0.00000000E+00  0.00000000E+00 -4.54282877E-01
  0.00000000E+00  0.00000000E+00 -4.51539354E-01  0.00000000E+00  0.00000000E+00
  0.00000000E+00 -1.02203877E-01  0.00000000E+00  0.00000000E+00  0.00000000E+00
  0.00000000E+00 -2.84464327E-01  0.00000000E+00  0.00000000E+00  0.00000000E+00
  0.00000000E+00  0.00000000E+00  0.00000000E+00  0.00000000E+00 -2.64937009E-01
  0.00000000E+00  0.00000000E+00 -5.24473690E-01  7.90119280E-01  6.59179671E-01
  3.41531321E-01  7.55102880E-02  0.00000000E+00  0.00000000E+00 -1.56131305E-02
  0.00000000E+00  0.00000000E+00 -1.93944924E-01  0.00000000E+00  0.00000000E+00
 -3.52645349E-01 -4.31622881E-02  0.00000000E+00  0.00000000E+00 -3.19556164E-17
  0.00000000E+00 -3.08975048E-01  0.00000000E+00  0.00000000E+00  2.21259828E-17
  0.00000000E+00  8.72945177E-02  1.41552662E-01  8.26191091E-02  3.02893718E-02
  0.00000000E+00  0.00000000E+00 -4.25965510E-01  0.00000000E+00  0.00000000E+00
 -8.25629640E-01  0.00000000E+00  0.00000000E+00  0.00000000E+00  0.00000000E+00
 -1.94505454E-01  0.00000000E+00  0.00000000E+00 -4.25642001E-01  0.00000000E+00
  0.00000000E+00 -5.85106435E-01  0.00000000E+00  0.00000000E+00  0.00000000E+00
 -9.48341162E-02  0.00000000E+00  0.00000000E+00  0.00000000E+00  0.00000000E+00
 -2.47789038E-01  0.00000000E+00  0.00000000E+00  0.00000000E+00  0.00000000E+00
  0.00000000E+00  0.00000000E+00  0.00000000E+00 -2.45411756E-01  0.00000000E+00
  0.00000000E+00 -5.18072268E-01  0.00000000E+00  0.00000000E+00 -6.57469449E-01
  0.00000000E+00  0.00000000E+00  0.00000000E+00  0.00000000E+00  0.00000000E+00
 -1.94505454E-01  0.00000000E+00  0.00000000E+00 -4.25642001E-01  0.00000000E+00
  0.00000000E+00 -5.85106435E-01  0.00000000E+00  0.00000000E+00  0.00000000E+00
 -9.48341162E-02  0.00000000E+00  0.00000000E+00  0.00000000E+00  0.00000000E+00
 -2.47789038E-01  0.00000000E+00  0.00000000E+00  0.00000000E+00  0.00000000E+00
  0.00000000E+00  0.00000000E+00  0.00000000E+00 -2.45411756E-01  0.00000000E+00
  0.00000000E+00 -5.18072268E-01  0.00000000E+00  0.00000000E+00 -6.57469449E-01
  4.70523180E-01  5.04568620E-01  3.30276966E-01  7.42833772E-02  0.00000000E+00
  0.00000000E+00 -6.27073324E-02  0.00000000E+00  0.00000000E+00 -2.46214849E-01
  0.00000000E+00  0.00000000E+00 -5.34515635E-01 -4.49215525E-02  0.00000000E+00
  0.00000000E+00  5.87904804E-18  0.00000000E+00 -2.60426963E-01  0.00000000E+00
  0.00000000E+00 -4.27458693E-19  0.00000000E+00  2.45848743E-02  3.86840755E-02
 -4.74965339E-03 -2.16853583E-02  0.00000000E+00  0.00000000E+00 -2.95762197E-01
  0.00000000E+00  0.00000000E+00 -6.81554012E-01  0.00000000E+00  0.00000000E+00
 -8.32895333E-01 -2.06820586E-01 -3.03829796E-01 -1.58904393E-01 -5.77952646E-02
  0.00000000E+00  0.00000000E+00  7.22963615E-01  0.00000000E+00  0.00000000E+00
  3.90292381E-02  0.00000000E+00  0.00000000E+00  1.16010781E-02 -8.47685977E-03
  0.00000000E+00  0.00000000E+00  2.47743261E-17  0.00000000E+00 -9.59550467E-02
  0.00000000E+00  0.00000000E+00  2.27335903E-17  0.00000000E+00 -1.10569672E-01
 -1.99867605E-01 -1.35266566E-01 -5.65832525E-02  0.00000000E+00  0.00000000E+00
  2.26611668E-01  0.00000000E+00  0.00000000E+00  2.32073070E-01  0.00000000E+00
  0.00000000E+00  7.47016622E-02  1.56492015E+00  0.00000000E+00  0.00000000E+00
  0.00000000E+00  0.00000000E+00 -2.58907049E-01  0.00000000E+00  0.00000000E+00
  7.48167637E-02  0.00000000E+00  0.00000000E+00  7.23744304E-02  0.00000000E+00
  0.00000000E+00  0.00000000E+00 -9.40778575E-01  0.00000000E+00  0.00000000E+00
  0.00000000E+00  0.00000000E+00 -7.39904894E-02  0.00000000E+00  0.00000000E+00
  0.00000000E+00  0.00000000E+00  0.00000000E+00  0.00000000E+00  0.00000000E+00
  9.01145121E-02  0.00000000E+00  0.00000000E+00  7.83163621E-02  0.00000000E+00
  0.00000000E+00  2.49403003E-02  0.00000000E+00  0.00000000E+00  0.00000000E+00
  1.79055658E+00  0.00000000E+00  0.00000000E+00  0.00000000E+00  0.00000000E+00
  0.00000000E+00 -2.58907049E-01  0.00000000E+00  0.00000000E+00  7.48167637E-02
  0.00000000E+00  0.00000000E+00  7.23744304E-02  0.00000000E+00  0.00000000E+00
  0.00000000E+00 -9.40778575E-01  0.00000000E+00  0.00000000E+00  0.00000000E+00
  0.00000000E+00 -7.39904894E-02  0.00000000E+00  0.00000000E+00  0.00000000E+00
  0.00000000E+00  0.00000000E+00  0.00000000E+00  0.00000000E+00  9.01145121E-02
  0.00000000E+00  0.00000000E+00  7.83163621E-02  0.00000000E+00  0.00000000E+00
  2.49403003E-02  0.00000000E+00  0.00000000E+00  0.00000000E+00  1.79055658E+00
  4.28203218E-18  2.12412464E-17 -2.14227081E-17 -1.25481365E-17  0.00000000E+00
  0.00000000E+00 -2.50818189E-17  0.00000000E+00  0.00000000E+00 -3.22169223E-18
  0.00000000E+00  0.00000000E+00 -1.68730213E-17 -1.08898822E-17  0.00000000E+00
  0.00000000E+00  2.41592269E-01  0.00000000E+00  3.91112783E-18  0.00000000E+00
  0.00000000E+00 -8.30916596E-02  0.00000000E+00  1.77993161E-18 -2.79663769E-17
  2.90920430E-17 -1.26683663E-17  0.00000000E+00  0.00000000E+00  9.03014308E-19
  0.00000000E+00  0.00000000E+00 -3.12142310E-18  0.00000000E+00  0.00000000E+00
 -2.39725030E-19 -7.38896585E-17  0.00000000E+00  0.00000000E+00  1.92749695E+00
  0.00000000E+00  0.00000000E+00  0.00000000E+00  0.00000000E+00  0.00000000E+00
  0.00000000E+00  0.00000000E+00  0.00000000E+00  0.00000000E+00  0.00000000E+00
  0.00000000E+00  0.00000000E+00  0.00000000E+00  0.00000000E+00  0.00000000E+00
  0.00000000E+00  0.00000000E+00  2.41592269E-01  0.00000000E+00  0.00000000E+00
  0.00000000E+00  0.00000000E+00 -8.30916596E-02  0.00000000E+00  0.00000000E+00
  0.00000000E+00  0.00000000E+00  0.00000000E+00  0.00000000E+00  0.00000000E+00
  0.00000000E+00  0.00000000E+00  0.00000000E+00  0.00000000E+00  0.00000000E+00
  0.00000000E+00  0.00000000E+00  0.00000000E+00  0.00000000E+00  0.00000000E+00
  1.92749695E+00 -3.87387529E-01 -2.76921028E-01 -1.87565225E-01 -9.35289686E-02
  0.00000000E+00  0.00000000E+00  1.15815307E-01  0.00000000E+00  0.00000000E+00
  1.79505957E-01  0.00000000E+00  0.00000000E+00  7.74533312E-02 -4.29554029E-02
  0.00000000E+00  0.00000000E+00  8.12260965E-17  0.00000000E+00 -1.94455232E-01
  0.00000000E+00  0.00000000E+00 -6.86075932E-18  0.00000000E+00 -3.33738865E-02
 -1.40641972E-01 -1.72123880E-01 -9.86079963E-02  0.00000000E+00  0.00000000E+00
  6.28104150E-02  0.00000000E+00  0.00000000E+00  6.65149022E-02  0.00000000E+00
  0.00000000E+00 -3.56538403E-02 -2.14864594E-01  0.00000000E+00  0.00000000E+00
 -9.07304689E-18  0.00000000E+00 -5.05821475E-01  0.00000000E+00  0.00000000E+00
  0.00000000E+00  0.00000000E+00  1.72131866E-01  0.00000000E+00  0.00000000E+00
  2.01855118E-01  0.00000000E+00  0.00000000E+00  1.53862246E-01  0.00000000E+00
  0.00000000E+00  0.00000000E+00 -3.01897247E-02  0.00000000E+00  0.00000000E+00
  0.00000000E+00  0.00000000E+00 -1.75331592E-01  0.00000000E+00  0.00000000E+00
  0.00000000E+00  0.00000000E+00  0.00000000E+00  0.00000000E+00  0.00000000E+00
  2.17292702E-02  0.00000000E+00  0.00000000E+00  3.00573110E-02  0.00000000E+00
  0.00000000E+00  1.87170311E-03  0.00000000E+00  0.00000000E+00  0.00000000E+00
 -1.10129199E-01  0.00000000E+00  0.00000000E+00  0.00000000E+00  0.00000000E+00
 -3.22013976E-01  0.00000000E+00  0.00000000E+00  0.00000000E+00  0.00000000E+00
  0.00000000E+00  1.72131866E-01  0.00000000E+00  0.00000000E+00  2.01855118E-01
  0.00000000E+00  0.00000000E+00  1.53862246E-01  0.00000000E+00  0.00000000E+00
  0.00000000E+00 -3.01897247E-02  0.00000000E+00  0.00000000E+00  0.00000000E+00
  0.00000000E+00 -1.75331592E-01  0.00000000E+00  0.00000000E+00  0.00000000E+00
  0.00000000E+00  0.00000000E+00  0.00000000E+00  0.00000000E+00  2.17292702E-02
  0.00000000E+00  0.00000000E+00  3.00573110E-02  0.00000000E+00  0.00000000E+00
  1.87170311E-03  0.00000000E+00  0.00000000E+00  0.00000000E+00 -1.10129199E-01
  0.00000000E+00  0.00000000E+00  0.00000000E+00  0.00000000E+00 -3.22013976E-01
 -4.30599031E-18 -1.07549883E-17  1.58871069E-18  7.46313155E-18  0.00000000E+00
  0.00000000E+00  3.54754802E-18  0.00000000E+00  0.00000000E+00  2.40520979E-17
  0.00000000E+00  0.00000000E+00 -9.58870023E-18  1.43336996E-16  0.00000000E+00
  0.00000000E+00 -6.61160162E-02  0.00000000E+00  8.64605976E-18  0.00000000E+00
  0.00000000E+00 -1.99485140E-01  0.00000000E+00 -7.20865298E-18  4.87846557E-17
 -4.48764353E-17 -9.87980462E-18  0.00000000E+00  0.00000000E+00 -2.33474963E-19
  0.00000000E+00  0.00000000E+00 -7.72453889E-19  0.00000000E+00  0.00000000E+00
  5.18704955E-20  1.24787862E-17  0.00000000E+00  0.00000000E+00 -4.87907488E-02
  0.00000000E+00 -2.15282762E-17  0.00000000E+00  0.00000000E+00 -2.10644468E-01
  0.00000000E+00  0.00000000E+00  0.00000000E+00  0.00000000E+00  0.00000000E+00
  0.00000000E+00  0.00000000E+00  0.00000000E+00  0.00000000E+00  0.00000000E+00
  0.00000000E+00  0.00000000E+00  0.00000000E+00  0.00000000E+00  0.00000000E+00
  0.00000000E+00  0.00000000E+00 -6.61160162E-02  0.00000000E+00  0.00000000E+00
  0.00000000E+00  0.00000000E+00 -1.99485140E-01  0.00000000E+00  0.00000000E+00
  0.00000000E+00  0.00000000E+00  0.00000000E+00  0.00000000E+00  0.00000000E+00
  0.00000000E+00  0.00000000E+00  0.00000000E+00  0.00000000E+00  0.00000000E+00
  0.00000000E+00  0.00000000E+00  0.00000000E+00  0.00000000E+00  0.00000000E+00
 -4.87907488E-02  0.00000000E+00  0.00000000E+00  0.00000000E+00  0.00000000E+00
 -2.10644468E-01 -2.60955585E-04 -2.32813486E-02 -1.35356104E-01 -1.71991359E-01
  0.00000000E+00  0.00000000E+00 -5.49663734E-04  0.00000000E+00  0.00000000E+00
 -5.16349824E-02  0.00000000E+00  0.00000000E+00 -3.11938588E-01 -4.32700499E-03
  0.00000000E+00  0.00000000E+00  9.62994320E-21  0.00000000E+00 -2.23093577E-01
  0.00000000E+00  0.00000000E+00 -3.50520584E-19  0.00000000E+00 -4.29783835E-02
 -2.09381827E-01 -3.26698316E-01 -2.19697158E-01  0.00000000E+00  0.00000000E+00
 -8.78625148E-02  0.00000000E+00  0.00000000E+00 -3.80123889E-01  0.00000000E+00
  0.00000000E+00 -4.87270878E-01 -1.74877241E-01  0.00000000E+00  0.00000000E+00
 -8.87344121E-19  0.00000000E+00 -5.12694939E-01  0.00000000E+00  0.00000000E+00
  1.93328354E-18  0.00000000E+00 -3.99133229E-01 -2.77919408E-02 -1.17394048E-01
 -2.77824655E-01 -3.04252777E-01  0.00000000E+00  0.00000000E+00 -4.17987105E-02
  0.00000000E+00  0.00000000E+00 -1.95627456E-01  0.00000000E+00  0.00000000E+00
 -4.98897608E-01 -6.54669382E-02  0.00000000E+00  0.00000000E+00 -1.26012233E-18
  0.00000000E+00 -3.43711259E-01  0.00000000E+00  0.00000000E+00 -1.17681850E-18
  0.00000000E+00 -2.29863018E-01 -4.32364346E-01 -5.48185618E-01 -3.78511755E-01
  0.00000000E+00  0.00000000E+00 -1.72596740E-01  0.00000000E+00  0.00000000E+00
 -4.67751682E-01  0.00000000E+00  0.00000000E+00 -6.20199578E-01 -1.17749257E-01
  0.00000000E+00  0.00000000E+00  1.12970670E-17  0.00000000E+00 -4.43732969E-01
  0.00000000E+00  0.00000000E+00  1.33990500E-17  0.00000000E+00 -9.30152280E-01
 -1.01422299E+00 -1.63762191E-01 -3.18939754E-01 -4.80753962E-01 -4.73065241E-01
  0.00000000E+00  0.00000000E+00 -1.10370354E-01  0.00000000E+00  0.00000000E+00
 -3.04340105E-01  0.00000000E+00  0.00000000E+00 -5.72671955E-01 -9.57941668E-02
  0.00000000E+00  0.00000000E+00  6.61281614E-18  0.00000000E+00 -2.95031108E-01
  0.00000000E+00  0.00000000E+00  9.44741295E-18  0.00000000E+00 -3.88669583E-01
 -6.20432892E-01 -7.45730422E-01 -5.63079544E-01  0.00000000E+00  0.00000000E+00
 -9.20510496E-02  0.00000000E+00  0.00000000E+00 -3.09496042E-01  0.00000000E+00
  0.00000000E+00 -5.22887931E-01 -7.60853037E-02  0.00000000E+00  0.00000000E+00
  2.47566968E-17  0.00000000E+00 -2.72321866E-01  0.00000000E+00  0.00000000E+00
 -2.00030911E-17  0.00000000E+00 -6.29909972E-01 -8.62652078E-01 -9.22386766E-01
 -2.02955442E-01 -3.51060622E-01 -4.98223256E-01 -5.49863461E-01  0.00000000E+00
  0.00000000E+00 -6.32735464E-02  0.00000000E+00  0.00000000E+00 -1.62183565E-01
  0.00000000E+00  0.00000000E+00 -3.13497001E-01 -4.67461039E-02  0.00000000E+00
  0.00000000E+00  1.11949376E-18  0.00000000E+00 -1.05905885E-01  0.00000000E+00
  0.00000000E+00 -2.33764918E-17  0.00000000E+00 -2.68208949E-01 -4.58229798E-01
 -6.17709024E-01 -6.14503104E-01  0.00000000E+00  0.00000000E+00  1.44302427E-03
  0.00000000E+00  0.00000000E+00 -5.43822388E-02  0.00000000E+00  0.00000000E+00
 -1.85593847E-01 -4.35903279E-02  0.00000000E+00  0.00000000E+00 -2.55388722E-18
  0.00000000E+00 -1.03015757E-01  0.00000000E+00  0.00000000E+00  3.11638299E-18
  0.00000000E+00 -2.64125206E-01 -4.39886191E-01 -6.19341076E-01 -6.33238169E-01
  0.00000000E+00  0.00000000E+00  0.00000000E+00  0.00000000E+00 -4.93892647E-05
  0.00000000E+00  0.00000000E+00 -8.56247614E-03  0.00000000E+00  0.00000000E+00
 -4.41555911E-02  0.00000000E+00  0.00000000E+00  0.00000000E+00 -9.54080601E-04
  0.00000000E+00  0.00000000E+00  0.00000000E+00  0.00000000E+00 -5.84773402E-02
  0.00000000E+00  0.00000000E+00  0.00000000E+00  0.00000000E+00  0.00000000E+00
  0.00000000E+00  0.00000000E+00 -2.37526088E-02  0.00000000E+00  0.00000000E+00
 -8.61946129E-02  0.00000000E+00  0.00000000E+00 -1.00589076E-01  0.00000000E+00
  0.00000000E+00  0.00000000E+00 -8.77558585E-02  0.00000000E+00  0.00000000E+00
  0.00000000E+00  0.00000000E+00 -1.55061054E-01  0.00000000E+00  0.00000000E+00
  0.00000000E+00  0.00000000E+00  0.00000000E+00  0.00000000E+00  0.00000000E+00
  1.67343999E+00  0.00000000E+00  0.00000000E+00  0.00000000E+00  0.00000000E+00
  0.00000000E+00 -4.93892647E-05  0.00000000E+00  0.00000000E+00 -8.56247614E-03
  0.00000000E+00  0.00000000E+00 -4.41555911E-02  0.00000000E+00  0.00000000E+00
  0.00000000E+00 -9.54080601E-04  0.00000000E+00  0.00000000E+00  0.00000000E+00
  0.00000000E+00 -5.84773402E-02  0.00000000E+00  0.00000000E+00  0.00000000E+00
  0.00000000E+00  0.00000000E+00  0.00000000E+00  0.00000000E+00 -2.37526088E-02
  0.00000000E+00  0.00000000E+00 -8.61946129E-02  0.00000000E+00  0.00000000E+00
 -1.00589076E-01  0.00000000E+00  0.00000000E+00  0.00000000E+00 -8.77558585E-02
  0.00000000E+00  0.00000000E+00  0.00000000E+00  0.00000000E+00 -1.55061054E-01
  0.00000000E+00  0.00000000E+00  0.00000000E+00  0.00000000E+00  0.00000000E+00
  0.00000000E+00  0.00000000E+00  1.67343999E+00  5.40427073E-04  3.22788856E-02
  7.22133656E-02  3.52628932E-02  0.00000000E+00  0.00000000E+00  1.12233517E-03
  0.00000000E+00  0.00000000E+00  7.27107051E-02  0.00000000E+00  0.00000000E+00
  1.14525379E-01  9.75846955E-03  0.00000000E+00  0.00000000E+00 -1.86630808E-20
  0.00000000E+00  1.47693174E-01  0.00000000E+00  0.00000000E+00  4.50674197E-19
  0.00000000E+00  8.79764483E-02  1.66321237E-01  1.19736724E-01  3.54633936E-02
  0.00000000E+00  0.00000000E+00  1.79892726E-01  0.00000000E+00  0.00000000E+00
  2.00273516E-01  0.00000000E+00  0.00000000E+00  6.64950987E-02  2.08622402E-01
  0.00000000E+00  0.00000000E+00  1.54720895E-18  0.00000000E+00  1.95301562E-02
  0.00000000E+00  0.00000000E+00 -2.74544419E-18  0.00000000E+00  7.63746435E-02
  8.65418089E-02  5.13839732E-02  2.04710342E-02  0.00000000E+00  0.00000000E+00
  1.64218729E+00  0.00000000E+00  0.00000000E+00  0.00000000E+00  0.00000000E+00
 -9.64009940E-03  0.00000000E+00  0.00000000E+00 -5.46847181E-02  0.00000000E+00
  0.00000000E+00 -1.35817979E-01  0.00000000E+00  0.00000000E+00  0.00000000E+00
 -2.84952857E-02  0.00000000E+00  0.00000000E+00  0.00000000E+00  0.00000000E+00
 -1.65521732E-01  0.00000000E+00  0.00000000E+00  0.00000000E+00  0.00000000E+00
  0.00000000E+00  0.00000000E+00  0.00000000E+00 -9.67381674E-02  0.00000000E+00
  0.00000000E+00 -2.11481053E-01  0.00000000E+00  0.00000000E+00 -2.59444873E-01
  0.00000000E+00  0.00000000E+00  0.00000000E+00 -9.92932487E-02  0.00000000E+00
  0.00000000E+00  0.00000000E+00  0.00000000E+00 -2.53212419E-01  0.00000000E+00
  0.00000000E+00  0.00000000E+00  0.00000000E+00  0.00000000E+00  0.00000000E+00
  0.00000000E+00 -3.90085151E-02  0.00000000E+00  0.00000000E+00 -2.47490766E-01
  0.00000000E+00  0.00000000E+00  0.00000000E+00  0.00000000E+00  0.00000000E+00
 -9.64009940E-03  0.00000000E+00  0.00000000E+00 -5.46847181E-02  0.00000000E+00
  0.00000000E+00 -1.35817979E-01  0.00000000E+00  0.00000000E+00  0.00000000E+00
 -2.84952857E-02  0.00000000E+00  0.00000000E+00  0.00000000E+00  0.00000000E+00
 -1.65521732E-01  0.00000000E+00  0.00000000E+00  0.00000000E+00  0.00000000E+00
  0.00000000E+00  0.00000000E+00  0.00000000E+00 -9.67381674E-02  0.00000000E+00
  0.00000000E+00 -2.11481053E-01  0.00000000E+00  0.00000000E+00 -2.59444873E-01
  0.00000000E+00  0.00000000E+00  0.00000000E+00 -9.92932487E-02  0.00000000E+00
  0.00000000E+00  0.00000000E+00  0.00000000E+00 -2.53212419E-01  0.00000000E+00
  0.00000000E+00  0.00000000E+00  0.00000000E+00  0.00000000E+00  0.00000000E+00
  0.00000000E+00 -3.90085151E-02  0.00000000E+00  0.00000000E+00 -2.47490766E-01
  6.20563343E-02  2.03823176E-01  2.68018153E-01  1.34589778E-01  0.00000000E+00
  0.00000000E+00  9.51569817E-02  0.00000000E+00  0.00000000E+00  3.17027646E-01
  0.00000000E+00  0.00000000E+00  3.16426993E-01  1.38660981E-01  0.00000000E+00
  0.00000000E+00  1.93669365E-18  0.00000000E+00  2.98337194E-01  0.00000000E+00
  0.00000000E+00  1.14578430E-18  0.00000000E+00  4.27366438E-01  5.09069420E-01
  3.78988816E-01  1.35584390E-01  0.00000000E+00  0.00000000E+00  2.14556593E-01
  0.00000000E+00  0.00000000E+00  2.71670919E-01  0.00000000E+00  0.00000000E+00
  1.08058621E-01  6.27778297E-03  0.00000000E+00  0.00000000E+00 -4.14466411E-18
  0.00000000E+00 -4.71447854E-02  0.00000000E+00  0.00000000E+00 -1.38621527E-17
  0.00000000E+00  5.21504111E-02  1.57599247E-01  1.64172711E-01  8.56448473E-02
  0.00000000E+00  0.00000000E+00 -6.91355740E-02  0.00000000E+00  0.00000000E+00
 -3.57941580E-01  0.00000000E+00  0.00000000E+00  0.00000000E+00  0.00000000E+00
 -5.33846739E-02  0.00000000E+00  0.00000000E+00 -1.52265559E-01  0.00000000E+00
  0.00000000E+00 -2.97745569E-01  0.00000000E+00  0.00000000E+00  0.00000000E+00
 -5.30809605E-02  0.00000000E+00  0.00000000E+00  0.00000000E+00  0.00000000E+00
 -2.17822732E-01  0.00000000E+00  0.00000000E+00  0.00000000E+00  0.00000000E+00
  0.00000000E+00  0.00000000E+00  0.00000000E+00 -1.25514275E-01  0.00000000E+00
  0.00000000E+00 -2.99762092E-01  0.00000000E+00  0.00000000E+00 -4.51186640E-01
  0.00000000E+00  0.00000000E+00  0.00000000E+00 -5.06804676E-02  0.00000000E+00
  0.00000000E+00  0.00000000E+00  0.00000000E+00 -2.19933861E-01  0.00000000E+00
  0.00000000E+00  0.00000000E+00  0.00000000E+00  0.00000000E+00  0.00000000E+00
  0.00000000E+00 -1.82512515E-01  0.00000000E+00  0.00000000E+00 -3.89722744E-01
  0.00000000E+00  0.00000000E+00 -5.48155616E-01  0.00000000E+00  0.00000000E+00
  0.00000000E+00  0.00000000E+00  0.00000000E+00 -5.33846739E-02  0.00000000E+00
  0.00000000E+00 -1.52265559E-01  0.00000000E+00  0.00000000E+00 -2.97745569E-01
  0.00000000E+00  0.00000000E+00  0.00000000E+00 -5.30809605E-02  0.00000000E+00
  0.00000000E+00  0.00000000E+00  0.00000000E+00 -2.17822732E-01  0.00000000E+00
  0.00000000E+00  0.00000000E+00  0.00000000E+00  0.00000000E+00  0.00000000E+00
  0.00000000E+00 -1.25514275E-01  0.00000000E+00  0.00000000E+00 -2.99762092E-01
  0.00000000E+00  0.00000000E+00 -4.51186640E-01  0.00000000E+00  0.00000000E+00
  0.00000000E+00 -5.06804676E-02  0.00000000E+00  0.00000000E+00  0.00000000E+00
  0.00000000E+00 -2.19933861E-01  0.00000000E+00  0.00000000E+00  0.00000000E+00
  0.00000000E+00  0.00000000E+00  0.00000000E+00  0.00000000E+00 -1.82512515E-01
  0.00000000E+00  0.00000000E+00 -3.89722744E-01  0.00000000E+00  0.00000000E+00
 -5.48155616E-01  3.77840470E-01  5.97225495E-01  6.28040774E-01  3.37397170E-01
  0.00000000E+00  0.00000000E+00  1.91076276E-01  0.00000000E+00  0.00000000E+00
  4.02513131E-01  0.00000000E+00  0.00000000E+00  3.55470158E-01  1.37791545E-01
  0.00000000E+00  0.00000000E+00  2.40135304E-17  0.00000000E+00  1.78928143E-01
  0.00000000E+00  0.00000000E+00 -2.00467404E-19  0.00000000E+00  6.06680749E-01
  7.94993228E-01  6.92083117E-01  3.19450948E-01  0.00000000E+00  0.00000000E+00
 -1.32618907E-02  0.00000000E+00  0.00000000E+00 -1.78089633E-02  0.00000000E+00
  0.00000000E+00 -1.20725070E-01  5.51423465E-02  0.00000000E+00  0.00000000E+00
 -3.89291776E-17  0.00000000E+00 -5.83317519E-02  0.00000000E+00  0.00000000E+00
 -1.00348510E-17  0.00000000E+00  1.62184670E-02  1.01298956E-01  2.08480665E-01
  1.76135548E-01  0.00000000E+00  0.00000000E+00 -1.92921451E-01  0.00000000E+00
  0.00000000E+00 -4.81770434E-01  0.00000000E+00  0.00000000E+00 -7.36055417E-01
 -4.59187499E-03 -4.92224905E-02 -5.04326572E-02 -1.81094168E-02  0.00000000E+00
  0.00000000E+00 -1.05080449E-02  0.00000000E+00  0.00000000E+00 -9.90931621E-02
  0.00000000E+00  0.00000000E+00 -5.55991245E-02 -4.32751509E-02  0.00000000E+00
  0.00000000E+00  2.72638858E-20  0.00000000E+00 -7.74164789E-02  0.00000000E+00
  0.00000000E+00 -3.03914127E-18  0.00000000E+00 -1.80767769E-01 -1.24954263E-01
 -6.78479949E-02 -1.86810401E-02  0.00000000E+00  0.00000000E+00 -2.16633835E-01
  0.00000000E+00  0.00000000E+00 -1.47354316E-02  0.00000000E+00  0.00000000E+00
 -1.08249845E-02  8.75662698E-02  0.00000000E+00  0.00000000E+00 -9.31497611E-18
  0.00000000E+00  2.67068069E-02  0.00000000E+00  0.00000000E+00  9.96460741E-18
  0.00000000E+00 -1.89514239E-02 -4.38740956E-02 -3.41113708E-02 -1.51520675E-02
  0.00000000E+00  0.00000000E+00  9.42576239E-02  0.00000000E+00  0.00000000E+00
  1.29477996E-01  0.00000000E+00  0.00000000E+00  5.44574870E-02  2.19760863E+00
  0.00000000E+00  0.00000000E+00  0.00000000E+00  0.00000000E+00  9.86302756E-04
  0.00000000E+00  0.00000000E+00  2.51107919E-02  0.00000000E+00  0.00000000E+00
  3.98548950E-02  0.00000000E+00  0.00000000E+00  0.00000000E+00  9.17261126E-03
  0.00000000E+00  0.00000000E+00  0.00000000E+00  0.00000000E+00  7.49650237E-02
  0.00000000E+00  0.00000000E+00  0.00000000E+00  0.00000000E+00  0.00000000E+00
  0.00000000E+00  0.00000000E+00  8.98712329E-02  0.00000000E+00  0.00000000E+00
  9.49847810E-02  0.00000000E+00  0.00000000E+00  6.20502921E-02  0.00000000E+00
  0.00000000E+00  0.00000000E+00  1.22245486E-01  0.00000000E+00  0.00000000E+00
  0.00000000E+00  0.00000000E+00  2.75320957E-02  0.00000000E+00  0.00000000E+00
  0.00000000E+00  0.00000000E+00  0.00000000E+00  0.00000000E+00  0.00000000E+00
  6.96463613E-02  0.00000000E+00  0.00000000E+00  8.57374545E-02  0.00000000E+00
  0.00000000E+00  3.38624084E-02  0.00000000E+00  0.00000000E+00  0.00000000E+00
  2.22245303E+00  0.00000000E+00  0.00000000E+00  0.00000000E+00  0.00000000E+00
  0.00000000E+00  9.86302756E-04  0.00000000E+00  0.00000000E+00  2.51107919E-02
  0.00000000E+00  0.00000000E+00  3.98548950E-02  0.00000000E+00  0.00000000E+00
  0.00000000E+00  9.17261126E-03  0.00000000E+00  0.00000000E+00  0.00000000E+00
  0.00000000E+00  7.49650237E-02  0.00000000E+00  0.00000000E+00  0.00000000E+00
  0.00000000E+00  0.00000000E+00  0.00000000E+00  0.00000000E+00  8.98712329E-02
  0.00000000E+00  0.00000000E+00  9.49847810E-02  0.00000000E+00  0.00000000E+00
  6.20502921E-02  0.00000000E+00  0.00000000E+00  0.00000000E+00  1.22245486E-01
  0.00000000E+00  0.00000000E+00  0.00000000E+00  0.00000000E+00  2.75320957E-02
  0.00000000E+00  0.00000000E+00  0.00000000E+00  0.00000000E+00  0.00000000E+00
  0.00000000E+00  0.00000000E+00  6.96463613E-02  0.00000000E+00  0.00000000E+00
  8.57374545E-02  0.00000000E+00  0.00000000E+00  3.38624084E-02  0.00000000E+00
  0.00000000E+00  0.00000000E+00  2.22245303E+00  6.34373448E-21 -1.11940867E-18
  3.32461202E-19  7.55071007E-18  0.00000000E+00  0.00000000E+00  2.54069484E-20
  0.00000000E+00  0.00000000E+00 -2.51264652E-19  0.00000000E+00  0.00000000E+00
 -1.40141256E-17  1.01672093E-20  0.00000000E+00  0.00000000E+00 -5.73404176E-04
  0.00000000E+00  1.95032176E-18  0.00000000E+00  0.00000000E+00 -1.54936940E-02
  0.00000000E+00  2.24624603E-19 -1.02601779E-17 -1.18676756E-18  2.34978697E-18
  0.00000000E+00  0.00000000E+00 -1.59506176E-18  0.00000000E+00  0.00000000E+00
  8.75927124E-18  0.00000000E+00  0.00000000E+00  2.05115458E-17  5.73229710E-18
  0.00000000E+00  0.00000000E+00 -3.42820618E-02  0.00000000E+00 -1.44022614E-17
  0.00000000E+00  0.00000000E+00 -4.58848812E-02  0.00000000E+00 -1.49757530E-17
 -4.19600965E-17  1.59965126E-17  2.22709470E-18  0.00000000E+00  0.00000000E+00
  3.07234925E-18  0.00000000E+00  0.00000000E+00 -3.89872351E-19  0.00000000E+00
  0.00000000E+00 -1.66996937E-19 -2.45958672E-17  0.00000000E+00  0.00000000E+00
  2.25856494E+00  0.00000000E+00  0.00000000E+00  0.00000000E+00  0.00000000E+00
  0.00000000E+00  0.00000000E+00  0.00000000E+00  0.00000000E+00  0.00000000E+00
  0.00000000E+00  0.00000000E+00  0.00000000E+00  0.00000000E+00  0.00000000E+00
  0.00000000E+00  0.00000000E+00  0.00000000E+00 -5.73404176E-04  0.00000000E+00
  0.00000000E+00  0.00000000E+00  0.00000000E+00 -1.54936940E-02  0.00000000E+00
  0.00000000E+00  0.00000000E+00  0.00000000E+00  0.00000000E+00  0.00000000E+00
  0.00000000E+00  0.00000000E+00  0.00000000E+00  0.00000000E+00  0.00000000E+00
  0.00000000E+00  0.00000000E+00  0.00000000E+00  0.00000000E+00  0.00000000E+00
  0.00000000E+00 -3.42820618E-02  0.00000000E+00  0.00000000E+00  0.00000000E+00
  0.00000000E+00 -4.58848812E-02  0.00000000E+00  0.00000000E+00  0.00000000E+00
  0.00000000E+00  0.00000000E+00  0.00000000E+00  0.00000000E+00  0.00000000E+00
  0.00000000E+00  0.00000000E+00  0.00000000E+00  0.00000000E+00  0.00000000E+00
  0.00000000E+00  0.00000000E+00  0.00000000E+00  0.00000000E+00  2.25856494E+00
 -2.78630320E-01 -4.33374024E-01 -3.44447458E-01 -1.27064335E-01  0.00000000E+00
  0.00000000E+00 -2.39903744E-01  0.00000000E+00  0.00000000E+00 -4.07649218E-01
  0.00000000E+00  0.00000000E+00 -1.97482039E-01 -2.01762189E-01  0.00000000E+00
  0.00000000E+00  1.35398584E-17  0.00000000E+00 -1.57803767E-01  0.00000000E+00
  0.00000000E+00  1.09367341E-17  0.00000000E+00 -6.52196416E-01 -5.96470349E-01
 -3.70092241E-01 -1.23179973E-01  0.00000000E+00  0.00000000E+00  2.98554085E-02
  0.00000000E+00  0.00000000E+00  9.92912446E-02  0.00000000E+00  0.00000000E+00
  1.02993109E-01  1.22893878E-02  0.00000000E+00  0.00000000E+00  1.47455195E-17
  0.00000000E+00  1.91478014E-02  0.00000000E+00  0.00000000E+00 -8.75573680E-17
  0.00000000E+00 -7.22199260E-03 -6.88952296E-02 -1.27286858E-01 -8.73697057E-02
  0.00000000E+00  0.00000000E+00  3.11583054E-02  0.00000000E+00  0.00000000E+00
  1.98248298E-01  0.00000000E+00  0.00000000E+00  2.68545666E-01  2.55164738E-02
  0.00000000E+00  0.00000000E+00  6.00184587E-19  0.00000000E+00 -2.83107939E-01
  0.00000000E+00  0.00000000E+00  0.00000000E+00  0.00000000E+00  7.06114464E-02
  0.00000000E+00  0.00000000E+00  1.85898433E-01  0.00000000E+00  0.00000000E+00
  2.18377996E-01  0.00000000E+00  0.00000000E+00  0.00000000E+00  1.00912235E-01
  0.00000000E+00  0.00000000E+00  0.00000000E+00  0.00000000E+00  2.33852042E-01
  0.00000000E+00  0.00000000E+00  0.00000000E+00  0.00000000E+00  0.00000000E+00
  0.00000000E+00  0.00000000E+00  2.07591255E-01  0.00000000E+00  0.00000000E+00
  3.19694675E-01  0.00000000E+00  0.00000000E+00  2.73167696E-01  0.00000000E+00
  0.00000000E+00  0.00000000E+00  2.34829249E-02  0.00000000E+00  0.00000000E+00
  0.00000000E+00  0.00000000E+00  2.50949722E-02  0.00000000E+00  0.00000000E+00
  0.00000000E+00  0.00000000E+00  0.00000000E+00  0.00000000E+00  0.00000000E+00
  2.13287537E-02  0.00000000E+00  0.00000000E+00  1.01251845E-01  0.00000000E+00
  0.00000000E+00  1.20497773E-01  0.00000000E+00  0.00000000E+00  0.00000000E+00
  4.71929820E-02  0.00000000E+00  0.00000000E+00  0.00000000E+00  0.00000000E+00
 -1.37919345E-01  0.00000000E+00  0.00000000E+00  0.00000000E+00  0.00000000E+00
  0.00000000E+00  7.06114464E-02  0.00000000E+00  0.00000000E+00  1.85898433E-01
  0.00000000E+00  0.00000000E+00  2.18377996E-01  0.00000000E+00  0.00000000E+00
  0.00000000E+00  1.00912235E-01  0.00000000E+00  0.00000000E+00  0.00000000E+00
  0.00000000E+00  2.33852042E-01  0.00000000E+00  0.00000000E+00  0.00000000E+00
  0.00000000E+00  0.00000000E+00  0.00000000E+00  0.00000000E+00  2.07591255E-01
  0.00000000E+00  0.00000000E+00  3.19694675E-01  0.00000000E+00  0.00000000E+00
  2.73167696E-01  0.00000000E+00  0.00000000E+00  0.00000000E+00  2.34829249E-02
  0.00000000E+00  0.00000000E+00  0.00000000E+00  0.00000000E+00  2.50949722E-02
  0.00000000E+00  0.00000000E+00  0.00000000E+00  0.00000000E+00  0.00000000E+00
  0.00000000E+00  0.00000000E+00  2.13287537E-02  0.00000000E+00  0.00000000E+00
  1.01251845E-01  0.00000000E+00  0.00000000E+00  1.20497773E-01  0.00000000E+00
  0.00000000E+00  0.00000000E+00  4.71929820E-02  0.00000000E+00  0.00000000E+00
  0.00000000E+00  0.00000000E+00 -1.37919345E-01 -6.68853521E-19  4.61759782E-19
  2.23512433E-18  5.79902475E-18  0.00000000E+00  0.00000000E+00 -4.17567900E-19
  0.00000000E+00  0.00000000E+00  6.85061089E-18  0.00000000E+00  0.00000000E+00
 -1.00734507E-17  2.38246390E-17  0.00000000E+00  0.00000000E+00 -1.80097940E-02
  0.00000000E+00  5.11219389E-17  0.00000000E+00  0.00000000E+00 -8.02941775E-02
  0.00000000E+00  1.75231345E-18  4.72146936E-18  2.09679790E-18 -2.56987111E-17
  0.00000000E+00  0.00000000E+00  1.94219489E-18  0.00000000E+00  0.00000000E+00
  6.40801935E-18  0.00000000E+00  0.00000000E+00 -9.98259911E-18 -2.65514254E-18
  0.00000000E+00  0.00000000E+00 -6.06213322E-02  0.00000000E+00 -1.00898317E-16
  0.00000000E+00  0.00000000E+00 -1.51819479E-01  0.00000000E+00 -1.44613060E-18
 -2.06461803E-17 -6.10364798E-18  1.11161491E-17  0.00000000E+00  0.00000000E+00
 -2.48183148E-19  0.00000000E+00  0.00000000E+00 -2.89835833E-18  0.00000000E+00
  0.00000000E+00  1.59128074E-18  3.43309797E-18  0.00000000E+00  0.00000000E+00
  6.97840599E-02  0.00000000E+00 -2.30048927E-17  0.00000000E+00  0.00000000E+00
 -5.22544572E-02  0.00000000E+00  0.00000000E+00  0.00000000E+00  0.00000000E+00
  0.00000000E+00  0.00000000E+00  0.00000000E+00  0.00000000E+00  0.00000000E+00
  0.00000000E+00  0.00000000E+00  0.00000000E+00  0.00000000E+00  0.00000000E+00
  0.00000000E+00  0.00000000E+00  0.00000000E+00 -1.80097940E-02  0.00000000E+00
  0.00000000E+00  0.00000000E+00  0.00000000E+00 -8.02941775E-02  0.00000000E+00
  0.00000000E+00  0.00000000E+00  0.00000000E+00  0.00000000E+00  0.00000000E+00
  0.00000000E+00  0.00000000E+00  0.00000000E+00  0.00000000E+00  0.00000000E+00
  0.00000000E+00  0.00000000E+00  0.00000000E+00  0.00000000E+00  0.00000000E+00
  0.00000000E+00 -6.06213322E-02  0.00000000E+00  0.00000000E+00  0.00000000E+00
  0.00000000E+00 -1.51819479E-01  0.00000000E+00  0.00000000E+00  0.00000000E+00
  0.00000000E+00  0.00000000E+00  0.00000000E+00  0.00000000E+00  0.00000000E+00
  0.00000000E+00  0.00000000E+00  0.00000000E+00  0.00000000E+00  0.00000000E+00
  0.00000000E+00  0.00000000E+00  0.00000000E+00  0.00000000E+00  6.97840599E-02
  0.00000000E+00  0.00000000E+00  0.00000000E+00  0.00000000E+00 -5.22544572E-02
Multipole Matrix (1,0,0)                   R   N=        2415
  0.00000000E+00  0.00000000E+00  0.00000000E+00  0.00000000E+00  0.00000000E+00
  0.00000000E+00  0.00000000E+00  0.00000000E+00  0.00000000E+00  0.00000000E+00
  4.17326919E-01  4.72884226E-01  2.80778475E-01  1.11862100E-01  0.00000000E+00
  0.00000000E+00  0.00000000E+00  0.00000000E+00  0.00000000E+00  0.00000000E+00
  0.00000000E+00  0.00000000E+00  0.00000000E+00  0.00000000E+00  0.00000000E+00
  0.00000000E+00  0.00000000E+00  0.00000000E+00  2.84964978E-01  8.67674035E-01
  9.31584681E-01  4.99863277E-01  0.00000000E+00  0.00000000E+00  0.00000000E+00
  0.00000000E+00  0.00000000E+00  0.00000000E+00  0.00000000E+00  0.00000000E+00
  0.00000000E+00  0.00000000E+00  0.00000000E+00  0.00000000E+00  0.00000000E+00
  0.00000000E+00  0.00000000E+00  0.00000000E+00  0.00000000E+00  0.00000000E+00
  0.00000000E+00  0.00000000E+00  0.00000000E+00  0.00000000E+00  0.00000000E+00
  8.86326162E-02  5.87362976E-01  1.56019339E+00  1.78809431E+00  0.00000000E+00
  0.00000000E+00  0.00000000E+00  0.00000000E+00  0.00000000E+00  0.00000000E+00
  0.00000000E+00  0.00000000E+00  0.00000000E+00  0.00000000E+00  0.00000000E+00
  0.00000000E+00  0.00000000E+00  0.00000000E+00  0.00000000E+00  0.00000000E+00
  0.00000000E+00  0.00000000E+00  0.00000000E+00  0.00000000E+00  0.00000000E+00
  0.00000000E+00  0.00000000E+00  0.00000000E+00  0.00000000E+00  0.00000000E+00
  0.00000000E+00  0.00000000E+00  0.00000000E+00  0.00000000E+00  0.00000000E+00
  0.00000000E+00  0.00000000E+00  0.00000000E+00  0.00000000E+00  0.00000000E+00
 -2.34839285E-01  0.00000000E+00  0.00000000E+00 -3.03841983E-01  0.00000000E+00
  0.00000000E+00 -1.23766691E-01  0.00000000E+00  0.00000000E+00  0.00000000E+00
  0.00000000E+00  0.00000000E+00  0.00000000E+00  0.00000000E+00  0.00000000E+00
  0.00000000E+00  4.06753573E-01  0.00000000E+00  0.00000000E+00  5.26269752E-01
  0.00000000E+00  0.00000000E+00  2.14370196E-01  0.00000000E+00  0.00000000E+00
  0.00000000E+00  0.00000000E+00  0.00000000E+00  0.00000000E+00  0.00000000E+00
  0.00000000E+00  0.00000000E+00  0.00000000E+00  0.00000000E+00  0.00000000E+00
  0.00000000E+00  0.00000000E+00  0.00000000E+00  0.00000000E+00  0.00000000E+00
  0.00000000E+00  0.00000000E+00  0.00000000E+00  0.00000000E+00  0.00000000E+00
  4.06753573E-01  0.00000000E+00  0.00000000E+00  5.26269752E-01  0.00000000E+00
  0.00000000E+00  2.14370196E-01  0.00000000E+00  0.00000000E+00  0.00000000E+00
  0.00000000E+00  0.00000000E+00  0.00000000E+00  0.00000000E+00  0.00000000E+00
  0.00000000E+00  0.00000000E+00  0.00000000E+00  4.06753573E-01  0.00000000E+00
  0.00000000E+00  5.26269752E-01  0.00000000E+00  0.00000000E+00  2.14370196E-01
  0.00000000E+00  0.00000000E+00  0.00000000E+00  0.00000000E+00  0.00000000E+00
  0.00000000E+00  0.00000000E+00  0.00000000E+00  0.00000000E+00  0.00000000E+00
 -7.44264636E-02  0.00000000E+00  0.00000000E+00 -4.24195101E-01  0.00000000E+00
  0.00000000E+00 -6.48776709E-01  0.00000000E+00  0.00000000E+00  0.00000000E+00
  0.00000000E+00  0.00000000E+00  0.00000000E+00  0.00000000E+00  0.00000000E+00
  0.00000000E+00  0.00000000E+00  0.00000000E+00  0.00000000E+00  0.00000000E+00
  0.00000000E+00  1.28910416E-01  0.00000000E+00  0.00000000E+00  7.34727467E-01
  0.00000000E+00  0.00000000E+00  1.12371422E+00  0.00000000E+00  0.00000000E+00
  0.00000000E+00  0.00000000E+00  0.00000000E+00  0.00000000E+00  0.00000000E+00
  0.00000000E+00  0.00000000E+00  0.00000000E+00  0.00000000E+00  0.00000000E+00
  0.00000000E+00  0.00000000E+00  0.00000000E+00  0.00000000E+00  0.00000000E+00
  0.00000000E+00  0.00000000E+00  0.00000000E+00  0.00000000E+00  0.00000000E+00
  0.00000000E+00  0.00000000E+00  0.00000000E+00  0.00000000E+00  0.00000000E+00
  0.00000000E+00  0.00000000E+00  0.00000000E+00  0.00000000E+00  0.00000000E+00
  1.28910416E-01  0.00000000E+00  0.00000000E+00  7.34727467E-01  0.00000000E+00
  0.00000000E+00  1.12371422E+00  0.00000000E+00  0.00000000E+00  0.00000000E+00
  0.00000000E+00  0.00000000E+00  0.00000000E+00  0.00000000E+00  0.00000000E+00
  0.00000000E+00  0.00000000E+00  0.00000000E+00  0.00000000E+00  0.00000000E+00
  0.00000000E+00  0.00000000E+00  0.00000000E+00  1.28910416E-01  0.00000000E+00
  0.00000000E+00  7.34727467E-01  0.00000000E+00  0.00000000E+00  1.12371422E+00
  0.00000000E+00  0.00000000E+00  0.00000000E+00  0.00000000E+00  0.00000000E+00
  0.00000000E+00  0.00000000E+00  0.00000000E+00  0.00000000E+00  0.00000000E+00
  0.00000000E+00  0.00000000E+00  0.00000000E+00  0.00000000E+00  0.00000000E+00
  1.05251636E-01  0.00000000E+00  0.00000000E+00  1.53972932E-01  0.00000000E+00
  0.00000000E+00  7.27444617E-02  0.00000000E+00  0.00000000E+00  0.00000000E+00
  2.00604258E-01  0.00000000E+00  0.00000000E+00  0.00000000E+00  0.00000000E+00
  1.58940523E-01  0.00000000E+00  0.00000000E+00  0.00000000E+00  0.00000000E+00
  0.00000000E+00  0.00000000E+00  0.00000000E+00  0.00000000E+00  2.71001723E-01
  0.00000000E+00  0.00000000E+00  5.97720755E-01  0.00000000E+00  0.00000000E+00
  4.98780787E-01  0.00000000E+00  0.00000000E+00  0.00000000E+00  2.41920615E-01
  0.00000000E+00  0.00000000E+00  0.00000000E+00  0.00000000E+00  5.21937043E-01
  0.00000000E+00  0.00000000E+00  0.00000000E+00  0.00000000E+00  0.00000000E+00
  0.00000000E+00  0.00000000E+00  0.00000000E+00  0.00000000E+00  2.29554110E-01
  0.00000000E+00  0.00000000E+00  7.85241784E-01  0.00000000E+00  0.00000000E+00
  1.40089932E+00  0.00000000E+00  0.00000000E+00  0.00000000E+00  8.23692661E-02
  0.00000000E+00  0.00000000E+00  0.00000000E+00  0.00000000E+00  4.49140669E-01
  0.00000000E+00  0.00000000E+00  0.00000000E+00  0.00000000E+00  0.00000000E+00
  0.00000000E+00  0.00000000E+00  0.00000000E+00  0.00000000E+00  0.00000000E+00
  1.06170394E-01  0.00000000E+00  0.00000000E+00  4.75527538E-01  0.00000000E+00
  0.00000000E+00  1.71350835E+00  0.00000000E+00  0.00000000E+00  0.00000000E+00
  1.04190528E-02  0.00000000E+00  0.00000000E+00  0.00000000E+00  0.00000000E+00
  1.02857741E-01  0.00000000E+00  0.00000000E+00  0.00000000E+00  0.00000000E+00
  0.00000000E+00  0.00000000E+00  0.00000000E+00  1.05251636E-01  2.71001723E-01
  2.29554110E-01  1.06170394E-01  0.00000000E+00  0.00000000E+00  1.65032387E-01
  0.00000000E+00  0.00000000E+00  3.68687161E-01  0.00000000E+00  0.00000000E+00
  1.97798935E-01  1.57035325E-01  0.00000000E+00  0.00000000E+00  1.14206228E-01
  0.00000000E+00  1.93115948E-01  0.00000000E+00  0.00000000E+00  8.28421462E-02
  0.00000000E+00  4.17326919E-01  4.72884226E-01  2.80778475E-01  1.11862100E-01
  0.00000000E+00  0.00000000E+00  0.00000000E+00  0.00000000E+00  0.00000000E+00
  0.00000000E+00  0.00000000E+00  0.00000000E+00  0.00000000E+00  0.00000000E+00
  0.00000000E+00  0.00000000E+00  0.00000000E+00  0.00000000E+00  0.00000000E+00
  0.00000000E+00  0.00000000E+00  0.00000000E+00  1.14206228E-01  0.00000000E+00
  0.00000000E+00  0.00000000E+00  0.00000000E+00  8.28421462E-02  0.00000000E+00
  0.00000000E+00  0.00000000E+00  0.00000000E+00  0.00000000E+00  0.00000000E+00
  0.00000000E+00  0.00000000E+00  0.00000000E+00  0.00000000E+00 -1.65032387E-01
  0.00000000E+00  0.00000000E+00 -1.01670660E-01  0.00000000E+00  0.00000000E+00
 -1.43393685E-02  0.00000000E+00  0.00000000E+00  0.00000000E+00 -1.75923662E-01
  0.00000000E+00  0.00000000E+00  0.00000000E+00  0.00000000E+00  9.57973781E-03
  0.00000000E+00  0.00000000E+00  0.00000000E+00  0.00000000E+00  0.00000000E+00
  0.00000000E+00  0.00000000E+00  0.00000000E+00  0.00000000E+00  0.00000000E+00
  1.53972932E-01  5.97720755E-01  7.85241784E-01  4.75527538E-01  0.00000000E+00
  0.00000000E+00  1.01670660E-01  0.00000000E+00  0.00000000E+00  4.82206804E-01
  0.00000000E+00  0.00000000E+00  5.75789967E-01 -9.38855565E-02  0.00000000E+00
  0.00000000E+00  2.89607560E-01  0.00000000E+00 -6.64718039E-04  0.00000000E+00
  0.00000000E+00  5.34796292E-01  0.00000000E+00  2.84964978E-01  8.67674035E-01
  9.31584681E-01  4.99863277E-01  0.00000000E+00  0.00000000E+00  0.00000000E+00
  0.00000000E+00  0.00000000E+00  0.00000000E+00  0.00000000E+00  0.00000000E+00
  0.00000000E+00  0.00000000E+00  0.00000000E+00  0.00000000E+00  0.00000000E+00
  0.00000000E+00  0.00000000E+00  0.00000000E+00  0.00000000E+00  0.00000000E+00
  0.00000000E+00  0.00000000E+00  0.00000000E+00  2.89607560E-01  0.00000000E+00
  0.00000000E+00  0.00000000E+00  0.00000000E+00  5.34796292E-01  0.00000000E+00
  0.00000000E+00  0.00000000E+00  0.00000000E+00  0.00000000E+00  0.00000000E+00
  0.00000000E+00  0.00000000E+00  0.00000000E+00  0.00000000E+00  0.00000000E+00
  0.00000000E+00  0.00000000E+00 -3.68687161E-01  0.00000000E+00  0.00000000E+00
 -4.82206804E-01  0.00000000E+00  0.00000000E+00 -1.51367465E-01  0.00000000E+00
  0.00000000E+00  0.00000000E+00 -5.63501904E-02  0.00000000E+00  0.00000000E+00
  0.00000000E+00  0.00000000E+00  1.95079007E-01  0.00000000E+00  0.00000000E+00
  0.00000000E+00  0.00000000E+00  0.00000000E+00  0.00000000E+00  0.00000000E+00
  0.00000000E+00  0.00000000E+00  0.00000000E+00  0.00000000E+00  0.00000000E+00
  0.00000000E+00  7.27444617E-02  4.98780787E-01  1.40089932E+00  1.71350835E+00
  0.00000000E+00  0.00000000E+00  1.43393685E-02  0.00000000E+00  0.00000000E+00
  1.51367465E-01  0.00000000E+00  0.00000000E+00  6.51523440E-01 -9.79167877E-02
  0.00000000E+00  0.00000000E+00  1.76256261E-01  0.00000000E+00 -4.87405524E-01
  0.00000000E+00  0.00000000E+00  9.65334216E-01  0.00000000E+00  8.86326162E-02
  5.87362976E-01  1.56019339E+00  1.78809431E+00  0.00000000E+00  0.00000000E+00
  0.00000000E+00  0.00000000E+00  0.00000000E+00  0.00000000E+00  0.00000000E+00
  0.00000000E+00  0.00000000E+00  0.00000000E+00  0.00000000E+00  0.00000000E+00
  0.00000000E+00  0.00000000E+00  0.00000000E+00  0.00000000E+00  0.00000000E+00
  0.00000000E+00  0.00000000E+00  0.00000000E+00  0.00000000E+00  0.00000000E+00
  0.00000000E+00  0.00000000E+00  1.76256261E-01  0.00000000E+00  0.00000000E+00
  0.00000000E+00  0.00000000E+00  9.65334216E-01  0.00000000E+00  0.00000000E+00
  0.00000000E+00  0.00000000E+00  0.00000000E+00  0.00000000E+00  0.00000000E+00
  0.00000000E+00  0.00000000E+00  0.00000000E+00  0.00000000E+00  0.00000000E+00
  0.00000000E+00  0.00000000E+00  0.00000000E+00  0.00000000E+00 -1.97798935E-01
  0.00000000E+00  0.00000000E+00 -5.75789967E-01  0.00000000E+00  0.00000000E+00
 -6.51523440E-01  0.00000000E+00  0.00000000E+00  0.00000000E+00  1.07246491E-01
  0.00000000E+00  0.00000000E+00  0.00000000E+00  0.00000000E+00  6.72026355E-01
  0.00000000E+00  0.00000000E+00  0.00000000E+00  0.00000000E+00  0.00000000E+00
  0.00000000E+00  0.00000000E+00  0.00000000E+00  0.00000000E+00  0.00000000E+00
  0.00000000E+00  0.00000000E+00  0.00000000E+00  0.00000000E+00  0.00000000E+00
  0.00000000E+00  0.00000000E+00  0.00000000E+00  0.00000000E+00  0.00000000E+00
  1.57035325E-01  0.00000000E+00  0.00000000E+00 -9.38855565E-02  0.00000000E+00
  0.00000000E+00 -9.79167877E-02  0.00000000E+00  0.00000000E+00  0.00000000E+00
 -1.06800060E-01  0.00000000E+00  0.00000000E+00  0.00000000E+00  0.00000000E+00
 -2.41134457E-01  0.00000000E+00  0.00000000E+00  0.00000000E+00  0.00000000E+00
  0.00000000E+00  0.00000000E+00  0.00000000E+00 -2.34839285E-01  0.00000000E+00
  0.00000000E+00 -3.03841983E-01  0.00000000E+00  0.00000000E+00 -1.23766691E-01
  0.00000000E+00  0.00000000E+00  0.00000000E+00 -2.00604258E-01 -2.41920615E-01
 -8.23692661E-02 -1.04190528E-02  0.00000000E+00  0.00000000E+00 -1.75923662E-01
  0.00000000E+00  0.00000000E+00 -5.63501904E-02  0.00000000E+00  0.00000000E+00
  1.07246491E-01  1.06800060E-01  0.00000000E+00  0.00000000E+00 -2.38513358E-01
  0.00000000E+00  2.64015041E-01  0.00000000E+00  0.00000000E+00 -7.68223655E-02
  0.00000000E+00  0.00000000E+00  0.00000000E+00  0.00000000E+00  0.00000000E+00
  0.00000000E+00  0.00000000E+00  4.06753573E-01  0.00000000E+00  0.00000000E+00
  5.26269752E-01  0.00000000E+00  0.00000000E+00  2.14370196E-01  0.00000000E+00
  0.00000000E+00  0.00000000E+00  0.00000000E+00  0.00000000E+00  0.00000000E+00
  0.00000000E+00  0.00000000E+00  0.00000000E+00  0.00000000E+00  0.00000000E+00
  0.00000000E+00  0.00000000E+00  0.00000000E+00  0.00000000E+00  0.00000000E+00
  0.00000000E+00  0.00000000E+00  0.00000000E+00 -2.38513358E-01  0.00000000E+00
  0.00000000E+00  0.00000000E+00  0.00000000E+00 -7.68223655E-02  0.00000000E+00
  0.00000000E+00  0.00000000E+00  0.00000000E+00  0.00000000E+00  0.00000000E+00
  0.00000000E+00  0.00000000E+00  0.00000000E+00  0.00000000E+00  0.00000000E+00
  0.00000000E+00  0.00000000E+00  0.00000000E+00  0.00000000E+00  0.00000000E+00
  0.00000000E+00  0.00000000E+00  0.00000000E+00  0.00000000E+00  1.14206228E-01
  0.00000000E+00  0.00000000E+00  2.89607560E-01  0.00000000E+00  0.00000000E+00
  1.76256261E-01  0.00000000E+00  0.00000000E+00  0.00000000E+00  2.38513358E-01
  0.00000000E+00  0.00000000E+00  0.00000000E+00  0.00000000E+00  3.28749961E-01
  0.00000000E+00  0.00000000E+00  0.00000000E+00  0.00000000E+00  0.00000000E+00
  0.00000000E+00  0.00000000E+00  4.06753573E-01  0.00000000E+00  0.00000000E+00
  5.26269752E-01  0.00000000E+00  0.00000000E+00  2.14370196E-01  0.00000000E+00
  0.00000000E+00  0.00000000E+00  0.00000000E+00  0.00000000E+00  0.00000000E+00
  0.00000000E+00  0.00000000E+00  0.00000000E+00  0.00000000E+00  0.00000000E+00
  1.14206228E-01  0.00000000E+00  0.00000000E+00  2.89607560E-01  0.00000000E+00
  0.00000000E+00  1.76256261E-01  0.00000000E+00  0.00000000E+00  0.00000000E+00
  2.38513358E-01  0.00000000E+00  0.00000000E+00  0.00000000E+00  0.00000000E+00
  3.28749961E-01  0.00000000E+00  0.00000000E+00  0.00000000E+00  0.00000000E+00
  0.00000000E+00  0.00000000E+00  0.00000000E+00  4.06753573E-01  0.00000000E+00
  0.00000000E+00  5.26269752E-01  0.00000000E+00  0.00000000E+00  2.14370196E-01
  0.00000000E+00  0.00000000E+00  0.00000000E+00  0.00000000E+00  0.00000000E+00
  0.00000000E+00  0.00000000E+00  0.00000000E+00  0.00000000E+00  0.00000000E+00
  1.93115948E-01  0.00000000E+00  0.00000000E+00 -6.64718039E-04  0.00000000E+00
  0.00000000E+00 -4.87405524E-01  0.00000000E+00  0.00000000E+00  0.00000000E+00
 -2.64015041E-01  0.00000000E+00  0.00000000E+00  0.00000000E+00  0.00000000E+00
 -8.00926674E-01  0.00000000E+00  0.00000000E+00  0.00000000E+00  0.00000000E+00
  0.00000000E+00  0.00000000E+00  0.00000000E+00 -7.44264636E-02  0.00000000E+00
  0.00000000E+00 -4.24195101E-01  0.00000000E+00  0.00000000E+00 -6.48776709E-01
  0.00000000E+00  0.00000000E+00  0.00000000E+00  0.00000000E+00  0.00000000E+00
  0.00000000E+00  0.00000000E+00  0.00000000E+00 -1.58940523E-01 -5.21937043E-01
 -4.49140669E-01 -1.02857741E-01  0.00000000E+00  0.00000000E+00  9.57973781E-03
  0.00000000E+00  0.00000000E+00  1.95079007E-01  0.00000000E+00  0.00000000E+00
  6.72026355E-01  2.41134457E-01  0.00000000E+00  0.00000000E+00 -3.28749961E-01
  0.00000000E+00  8.00926674E-01  0.00000000E+00  0.00000000E+00 -5.59329502E-01
  0.00000000E+00  0.00000000E+00  0.00000000E+00  0.00000000E+00  0.00000000E+00
  0.00000000E+00  0.00000000E+00  1.28910416E-01  0.00000000E+00  0.00000000E+00
  7.34727467E-01  0.00000000E+00  0.00000000E+00  1.12371422E+00  0.00000000E+00
  0.00000000E+00  0.00000000E+00  0.00000000E+00  0.00000000E+00  0.00000000E+00
  0.00000000E+00  0.00000000E+00  0.00000000E+00  0.00000000E+00  0.00000000E+00
  0.00000000E+00  0.00000000E+00  0.00000000E+00  0.00000000E+00  0.00000000E+00
  0.00000000E+00  0.00000000E+00  0.00000000E+00  0.00000000E+00  0.00000000E+00
  0.00000000E+00  0.00000000E+00  0.00000000E+00 -3.28749961E-01  0.00000000E+00
  0.00000000E+00  0.00000000E+00  0.00000000E+00 -5.59329502E-01  0.00000000E+00
  0.00000000E+00  0.00000000E+00  0.00000000E+00  0.00000000E+00  0.00000000E+00
  0.00000000E+00  0.00000000E+00  0.00000000E+00  0.00000000E+00  0.00000000E+00
  0.00000000E+00  0.00000000E+00  0.00000000E+00  0.00000000E+00  0.00000000E+00
  0.00000000E+00  0.00000000E+00  0.00000000E+00  0.00000000E+00  0.00000000E+00
  0.00000000E+00  0.00000000E+00  0.00000000E+00  0.00000000E+00  8.28421462E-02
  0.00000000E+00  0.00000000E+00  5.34796292E-01  0.00000000E+00  0.00000000E+00
  9.65334216E-01  0.00000000E+00  0.00000000E+00  0.00000000E+00  7.68223655E-02
  0.00000000E+00  0.00000000E+00  0.00000000E+00  0.00000000E+00  5.59329502E-01
  0.00000000E+00  0.00000000E+00  0.00000000E+00  0.00000000E+00  0.00000000E+00
  0.00000000E+00  0.00000000E+00  1.28910416E-01  0.00000000E+00  0.00000000E+00
  7.34727467E-01  0.00000000E+00  0.00000000E+00  1.12371422E+00  0.00000000E+00
  0.00000000E+00  0.00000000E+00  0.00000000E+00  0.00000000E+00  0.00000000E+00
  0.00000000E+00  0.00000000E+00  0.00000000E+00  0.00000000E+00  0.00000000E+00
  0.00000000E+00  0.00000000E+00  0.00000000E+00  0.00000000E+00  0.00000000E+00
  8.28421462E-02  0.00000000E+00  0.00000000E+00  5.34796292E-01  0.00000000E+00
  0.00000000E+00  9.65334216E-01  0.00000000E+00  0.00000000E+00  0.00000000E+00
  7.68223655E-02  0.00000000E+00  0.00000000E+00  0.00000000E+00  0.00000000E+00
  5.59329502E-01  0.00000000E+00  0.00000000E+00  0.00000000E+00  0.00000000E+00
  0.00000000E+00  0.00000000E+00  0.00000000E+00  1.28910416E-01  0.00000000E+00
  0.00000000E+00  7.34727467E-01  0.00000000E+00  0.00000000E+00  1.12371422E+00
  0.00000000E+00  0.00000000E+00  0.00000000E+00  0.00000000E+00  0.00000000E+00
  0.00000000E+00  0.00000000E+00  0.00000000E+00  0.00000000E+00  0.00000000E+00
  0.00000000E+00  0.00000000E+00  0.00000000E+00  0.00000000E+00  0.00000000E+00
  4.05331442E-06  0.00000000E+00  0.00000000E+00  1.46552937E-03  0.00000000E+00
  0.00000000E+00  1.62696247E-02  0.00000000E+00  0.00000000E+00  0.00000000E+00
  8.32342061E-05  0.00000000E+00  0.00000000E+00  0.00000000E+00  0.00000000E+00
  1.78924224E-02  0.00000000E+00  0.00000000E+00  0.00000000E+00  0.00000000E+00
  0.00000000E+00  0.00000000E+00  0.00000000E+00  2.69626024E-03  0.00000000E+00
  0.00000000E+00  2.88770319E-02  0.00000000E+00  0.00000000E+00  4.24820190E-02
  0.00000000E+00  0.00000000E+00  0.00000000E+00  1.57318101E-02  0.00000000E+00
  0.00000000E+00  0.00000000E+00  0.00000000E+00  9.50855536E-02  0.00000000E+00
  0.00000000E+00  0.00000000E+00  0.00000000E+00  0.00000000E+00  0.00000000E+00
  0.00000000E+00  0.00000000E+00  3.97953140E-03  0.00000000E+00  0.00000000E+00
  3.54264022E-02  0.00000000E+00  0.00000000E+00  1.44420315E-01  0.00000000E+00
  0.00000000E+00  0.00000000E+00  1.33278442E-02  0.00000000E+00  0.00000000E+00
  0.00000000E+00  0.00000000E+00  1.62513150E-01  0.00000000E+00  0.00000000E+00
  0.00000000E+00  0.00000000E+00  0.00000000E+00  0.00000000E+00  0.00000000E+00
  5.95165129E-02  0.00000000E+00  0.00000000E+00  2.16663126E-01  0.00000000E+00
  0.00000000E+00  3.19592818E-01  0.00000000E+00  0.00000000E+00  0.00000000E+00
  1.12036528E-01  0.00000000E+00  0.00000000E+00  0.00000000E+00  0.00000000E+00
  4.50231700E-01  0.00000000E+00  0.00000000E+00  0.00000000E+00  0.00000000E+00
  0.00000000E+00  0.00000000E+00  0.00000000E+00  0.00000000E+00  0.00000000E+00
  4.98473262E-02  0.00000000E+00  0.00000000E+00  2.14927942E-01  0.00000000E+00
  0.00000000E+00  6.19150657E-01  0.00000000E+00  0.00000000E+00  0.00000000E+00
  5.41902321E-02  0.00000000E+00  0.00000000E+00  0.00000000E+00  0.00000000E+00
  4.13537497E-01  0.00000000E+00  0.00000000E+00  0.00000000E+00  0.00000000E+00
  0.00000000E+00  0.00000000E+00  0.00000000E+00  1.32646231E-01  0.00000000E+00
  0.00000000E+00  4.93080116E-01  0.00000000E+00  0.00000000E+00  1.04485452E+00
  0.00000000E+00  0.00000000E+00  0.00000000E+00  9.29520699E-02  0.00000000E+00
  0.00000000E+00  0.00000000E+00  0.00000000E+00  5.71874563E-01  0.00000000E+00
  0.00000000E+00  0.00000000E+00  0.00000000E+00  0.00000000E+00  0.00000000E+00
  0.00000000E+00  0.00000000E+00  0.00000000E+00  0.00000000E+00  7.14582719E-02
  0.00000000E+00  0.00000000E+00  3.25714189E-01  0.00000000E+00  0.00000000E+00
  1.24048571E+00  0.00000000E+00  0.00000000E+00  0.00000000E+00  2.05903613E-02
  0.00000000E+00  0.00000000E+00  0.00000000E+00  0.00000000E+00  2.09038921E-01
  0.00000000E+00  0.00000000E+00  0.00000000E+00  0.00000000E+00  0.00000000E+00
  0.00000000E+00  0.00000000E+00  9.20981258E-02  0.00000000E+00  0.00000000E+00
  4.15103793E-01  0.00000000E+00  0.00000000E+00  1.52581667E+00  0.00000000E+00
  0.00000000E+00  0.00000000E+00  1.74530377E-02  0.00000000E+00  0.00000000E+00
  0.00000000E+00  0.00000000E+00  1.74038282E-01  0.00000000E+00  0.00000000E+00
  0.00000000E+00  0.00000000E+00  0.00000000E+00  0.00000000E+00  0.00000000E+00
  4.05331442E-06  3.97953140E-03  4.98473262E-02  7.14582719E-02  0.00000000E+00
  0.00000000E+00  6.44892957E-06  0.00000000E+00  0.00000000E+00  8.43299206E-03
  0.00000000E+00  0.00000000E+00  1.27052765E-01  1.21389626E-04  0.00000000E+00
  0.00000000E+00  7.50365818E-06  0.00000000E+00  7.06893105E-02  0.00000000E+00
  0.00000000E+00  2.89917542E-03  0.00000000E+00  2.69626024E-03  5.95165129E-02
  1.32646231E-01  9.20981258E-02  0.00000000E+00  0.00000000E+00  5.65323205E-03
  0.00000000E+00  0.00000000E+00  1.24520920E-01  0.00000000E+00  0.00000000E+00
  2.21301540E-01  2.40519820E-02  0.00000000E+00  0.00000000E+00  3.59468487E-03
  0.00000000E+00  2.54747558E-01  0.00000000E+00  0.00000000E+00  2.48523350E-02
  0.00000000E+00  4.17326919E-01  4.72884226E-01  2.80778475E-01  1.11862100E-01
  0.00000000E+00  0.00000000E+00  0.00000000E+00  0.00000000E+00  0.00000000E+00
  0.00000000E+00  0.00000000E+00  0.00000000E+00  0.00000000E+00  0.00000000E+00
  0.00000000E+00  0.00000000E+00  0.00000000E+00  0.00000000E+00  0.00000000E+00
  0.00000000E+00  0.00000000E+00  0.00000000E+00  7.50365818E-06  0.00000000E+00
  0.00000000E+00  0.00000000E+00  0.00000000E+00  2.89917542E-03  0.00000000E+00
  0.00000000E+00  0.00000000E+00  0.00000000E+00  0.00000000E+00  0.00000000E+00
  0.00000000E+00  0.00000000E+00  0.00000000E+00  0.00000000E+00  0.00000000E+00
  0.00000000E+00  0.00000000E+00  0.00000000E+00  0.00000000E+00  0.00000000E+00
  0.00000000E+00  3.59468487E-03  0.00000000E+00  0.00000000E+00  0.00000000E+00
  0.00000000E+00  2.48523350E-02  0.00000000E+00  0.00000000E+00  0.00000000E+00
  0.00000000E+00  0.00000000E+00  0.00000000E+00  0.00000000E+00  0.00000000E+00
  0.00000000E+00  0.00000000E+00 -6.44892957E-06  0.00000000E+00  0.00000000E+00
 -2.32551593E-03  0.00000000E+00  0.00000000E+00 -9.21064822E-03  0.00000000E+00
  0.00000000E+00  0.00000000E+00 -1.56084677E-04  0.00000000E+00  0.00000000E+00
  0.00000000E+00  0.00000000E+00 -1.91037764E-02  0.00000000E+00  0.00000000E+00
  0.00000000E+00  0.00000000E+00  0.00000000E+00  0.00000000E+00  0.00000000E+00
 -5.65323205E-03  0.00000000E+00  0.00000000E+00 -3.43383916E-02  0.00000000E+00
  0.00000000E+00 -1.60431820E-02  0.00000000E+00  0.00000000E+00  0.00000000E+00
 -3.04020559E-02  0.00000000E+00  0.00000000E+00  0.00000000E+00  0.00000000E+00
 -5.69698030E-02  0.00000000E+00  0.00000000E+00  0.00000000E+00  0.00000000E+00
  0.00000000E+00  0.00000000E+00  0.00000000E+00  0.00000000E+00  0.00000000E+00
  0.00000000E+00  1.46552937E-03  3.54264022E-02  2.14927942E-01  3.25714189E-01
  0.00000000E+00  0.00000000E+00  2.32551593E-03  0.00000000E+00  0.00000000E+00
  6.39304627E-02  0.00000000E+00  0.00000000E+00  4.64920717E-01  4.98825197E-03
  0.00000000E+00  0.00000000E+00  3.12688120E-03  0.00000000E+00  2.10148297E-01
  0.00000000E+00  0.00000000E+00  4.81255572E-02  0.00000000E+00  2.88770319E-02
  2.16663126E-01  4.93080116E-01  4.15103793E-01  0.00000000E+00  0.00000000E+00
  3.43383916E-02  0.00000000E+00  0.00000000E+00  3.06117086E-01  0.00000000E+00
  0.00000000E+00  6.99367995E-01  2.07962932E-02  0.00000000E+00  0.00000000E+00
  5.69522083E-02  0.00000000E+00  3.53009787E-01  0.00000000E+00  0.00000000E+00
  2.25219657E-01  0.00000000E+00  2.84964978E-01  8.67674035E-01  9.31584681E-01
  4.99863277E-01  0.00000000E+00  0.00000000E+00  0.00000000E+00  0.00000000E+00
  0.00000000E+00  0.00000000E+00  0.00000000E+00  0.00000000E+00  0.00000000E+00
  0.00000000E+00  0.00000000E+00  0.00000000E+00  0.00000000E+00  0.00000000E+00
  0.00000000E+00  0.00000000E+00  0.00000000E+00  0.00000000E+00  0.00000000E+00
  0.00000000E+00  0.00000000E+00  3.12688120E-03  0.00000000E+00  0.00000000E+00
  0.00000000E+00  0.00000000E+00  4.81255572E-02  0.00000000E+00  0.00000000E+00
  0.00000000E+00  0.00000000E+00  0.00000000E+00  0.00000000E+00  0.00000000E+00
  0.00000000E+00  0.00000000E+00  0.00000000E+00  0.00000000E+00  0.00000000E+00
  0.00000000E+00  0.00000000E+00  0.00000000E+00  0.00000000E+00  0.00000000E+00
  5.69522083E-02  0.00000000E+00  0.00000000E+00  0.00000000E+00  0.00000000E+00
  2.25219657E-01  0.00000000E+00  0.00000000E+00  0.00000000E+00  0.00000000E+00
  0.00000000E+00  0.00000000E+00  0.00000000E+00  0.00000000E+00  0.00000000E+00
  0.00000000E+00  0.00000000E+00  0.00000000E+00  0.00000000E+00 -8.43299206E-03
  0.00000000E+00  0.00000000E+00 -6.39304627E-02  0.00000000E+00  0.00000000E+00
 -1.22221426E-01  0.00000000E+00  0.00000000E+00  0.00000000E+00 -2.89285155E-02
  0.00000000E+00  0.00000000E+00  0.00000000E+00  0.00000000E+00 -2.14224783E-01
  0.00000000E+00  0.00000000E+00  0.00000000E+00  0.00000000E+00  0.00000000E+00
  0.00000000E+00  0.00000000E+00 -1.24520920E-01  0.00000000E+00  0.00000000E+00
 -3.06117086E-01  0.00000000E+00  0.00000000E+00 -1.83854473E-01  0.00000000E+00
  0.00000000E+00  0.00000000E+00 -1.96325818E-01  0.00000000E+00  0.00000000E+00
  0.00000000E+00  0.00000000E+00 -3.07390354E-01  0.00000000E+00  0.00000000E+00
  0.00000000E+00  0.00000000E+00  0.00000000E+00  0.00000000E+00  0.00000000E+00
  0.00000000E+00  0.00000000E+00  0.00000000E+00  0.00000000E+00  0.00000000E+00
  0.00000000E+00  1.62696247E-02  1.44420315E-01  6.19150657E-01  1.24048571E+00
  0.00000000E+00  0.00000000E+00  9.21064822E-03  0.00000000E+00  0.00000000E+00
  1.22221426E-01  0.00000000E+00  0.00000000E+00  8.45894631E-01 -1.55874584E-02
  0.00000000E+00  0.00000000E+00  3.99525075E-02  0.00000000E+00  1.35243982E-02
  0.00000000E+00  0.00000000E+00  3.05103140E-01  0.00000000E+00  4.24820190E-02
  3.19592818E-01  1.04485452E+00  1.52581667E+00  0.00000000E+00  0.00000000E+00
  1.60431820E-02  0.00000000E+00  0.00000000E+00  1.83854473E-01  0.00000000E+00
  0.00000000E+00  9.38533640E-01 -5.13162435E-02  0.00000000E+00  0.00000000E+00
  1.03430717E-01  0.00000000E+00 -1.96382869E-01  0.00000000E+00  0.00000000E+00
  6.38307600E-01  0.00000000E+00  8.86326162E-02  5.87362976E-01  1.56019339E+00
  1.78809431E+00  0.00000000E+00  0.00000000E+00  0.00000000E+00  0.00000000E+00
  0.00000000E+00  0.00000000E+00  0.00000000E+00  0.00000000E+00  0.00000000E+00
  0.00000000E+00  0.00000000E+00  0.00000000E+00  0.00000000E+00  0.00000000E+00
  0.00000000E+00  0.00000000E+00  0.00000000E+00  0.00000000E+00  0.00000000E+00
  0.00000000E+00  0.00000000E+00  0.00000000E+00  0.00000000E+00  0.00000000E+00
  3.99525075E-02  0.00000000E+00  0.00000000E+00  0.00000000E+00  0.00000000E+00
  3.05103140E-01  0.00000000E+00  0.00000000E+00  0.00000000E+00  0.00000000E+00
  0.00000000E+00  0.00000000E+00  0.00000000E+00  0.00000000E+00  0.00000000E+00
  0.00000000E+00  0.00000000E+00  0.00000000E+00  0.00000000E+00  0.00000000E+00
  0.00000000E+00  0.00000000E+00  0.00000000E+00  1.03430717E-01  0.00000000E+00
  0.00000000E+00  0.00000000E+00  0.00000000E+00  6.38307600E-01  0.00000000E+00
  0.00000000E+00  0.00000000E+00  0.00000000E+00  0.00000000E+00  0.00000000E+00
  0.00000000E+00  0.00000000E+00  0.00000000E+00  0.00000000E+00  0.00000000E+00
  0.00000000E+00  0.00000000E+00  0.00000000E+00  0.00000000E+00  0.00000000E+00
 -1.27052765E-01  0.00000000E+00  0.00000000E+00 -4.64920717E-01  0.00000000E+00
  0.00000000E+00 -8.45894631E-01  0.00000000E+00  0.00000000E+00  0.00000000E+00
 -9.42889544E-02  0.00000000E+00  0.00000000E+00  0.00000000E+00  0.00000000E+00
 -4.90450164E-01  0.00000000E+00  0.00000000E+00  0.00000000E+00  0.00000000E+00
  0.00000000E+00  0.00000000E+00  0.00000000E+00 -2.21301540E-01  0.00000000E+00
  0.00000000E+00 -6.99367995E-01  0.00000000E+00  0.00000000E+00 -9.38533640E-01
  0.00000000E+00  0.00000000E+00  0.00000000E+00 -4.73303969E-02  0.00000000E+00
  0.00000000E+00  0.00000000E+00  0.00000000E+00 -8.37133388E-02  0.00000000E+00
  0.00000000E+00  0.00000000E+00  0.00000000E+00  0.00000000E+00  0.00000000E+00
  0.00000000E+00  0.00000000E+00  0.00000000E+00  0.00000000E+00  0.00000000E+00
  0.00000000E+00  0.00000000E+00  0.00000000E+00  0.00000000E+00  0.00000000E+00
  0.00000000E+00  0.00000000E+00  0.00000000E+00  0.00000000E+00  1.21389626E-04
  0.00000000E+00  0.00000000E+00  4.98825197E-03  0.00000000E+00  0.00000000E+00
 -1.55874584E-02  0.00000000E+00  0.00000000E+00  0.00000000E+00  1.41276156E-03
  0.00000000E+00  0.00000000E+00  0.00000000E+00  0.00000000E+00  5.07194673E-03
  0.00000000E+00  0.00000000E+00  0.00000000E+00  0.00000000E+00  0.00000000E+00
  0.00000000E+00  0.00000000E+00  2.40519820E-02  0.00000000E+00  0.00000000E+00
  2.07962932E-02  0.00000000E+00  0.00000000E+00 -5.13162435E-02  0.00000000E+00
  0.00000000E+00  0.00000000E+00  6.79065745E-02  0.00000000E+00  0.00000000E+00
  0.00000000E+00  0.00000000E+00 -8.53776928E-02  0.00000000E+00  0.00000000E+00
  0.00000000E+00  0.00000000E+00  0.00000000E+00  0.00000000E+00  0.00000000E+00
 -2.34839285E-01  0.00000000E+00  0.00000000E+00 -3.03841983E-01  0.00000000E+00
  0.00000000E+00 -1.23766691E-01  0.00000000E+00  0.00000000E+00  0.00000000E+00
 -8.32342061E-05 -1.33278442E-02 -5.41902321E-02 -2.05903613E-02  0.00000000E+00
  0.00000000E+00 -1.56084677E-04  0.00000000E+00  0.00000000E+00 -2.89285155E-02
  0.00000000E+00  0.00000000E+00 -9.42889544E-02 -1.41276156E-03  0.00000000E+00
  0.00000000E+00 -1.52084639E-04  0.00000000E+00 -1.13900406E-01  0.00000000E+00
  0.00000000E+00 -9.22365114E-03  0.00000000E+00 -1.57318101E-02 -1.12036528E-01
 -9.29520699E-02 -1.74530377E-02  0.00000000E+00  0.00000000E+00 -3.04020559E-02
  0.00000000E+00  0.00000000E+00 -1.96325818E-01  0.00000000E+00  0.00000000E+00
 -4.73303969E-02 -6.79065745E-02  0.00000000E+00  0.00000000E+00 -2.22710224E-02
  0.00000000E+00 -1.05059149E-01  0.00000000E+00  0.00000000E+00 -4.70628304E-02
  0.00000000E+00  0.00000000E+00  0.00000000E+00  0.00000000E+00  0.00000000E+00
  0.00000000E+00  0.00000000E+00  4.06753573E-01  0.00000000E+00  0.00000000E+00
  5.26269752E-01  0.00000000E+00  0.00000000E+00  2.14370196E-01  0.00000000E+00
  0.00000000E+00  0.00000000E+00  0.00000000E+00  0.00000000E+00  0.00000000E+00
  0.00000000E+00  0.00000000E+00  0.00000000E+00  0.00000000E+00  0.00000000E+00
  0.00000000E+00  0.00000000E+00  0.00000000E+00  0.00000000E+00  0.00000000E+00
  0.00000000E+00  0.00000000E+00  0.00000000E+00 -1.52084639E-04  0.00000000E+00
  0.00000000E+00  0.00000000E+00  0.00000000E+00 -9.22365114E-03  0.00000000E+00
  0.00000000E+00  0.00000000E+00  0.00000000E+00  0.00000000E+00  0.00000000E+00
  0.00000000E+00  0.00000000E+00  0.00000000E+00  0.00000000E+00  0.00000000E+00
  0.00000000E+00  0.00000000E+00  0.00000000E+00  0.00000000E+00  0.00000000E+00
  0.00000000E+00 -2.22710224E-02  0.00000000E+00  0.00000000E+00  0.00000000E+00
  0.00000000E+00 -4.70628304E-02  0.00000000E+00  0.00000000E+00  0.00000000E+00
  0.00000000E+00  0.00000000E+00  0.00000000E+00  0.00000000E+00  0.00000000E+00
  0.00000000E+00  0.00000000E+00  0.00000000E+00  0.00000000E+00  0.00000000E+00
  0.00000000E+00  0.00000000E+00  0.00000000E+00  0.00000000E+00  0.00000000E+00
  0.00000000E+00  0.00000000E+00  7.50365818E-06  0.00000000E+00  0.00000000E+00
  3.12688120E-03  0.00000000E+00  0.00000000E+00  3.99525075E-02  0.00000000E+00
  0.00000000E+00  0.00000000E+00  1.52084639E-04  0.00000000E+00  0.00000000E+00
  0.00000000E+00  0.00000000E+00  3.94712520E-02  0.00000000E+00  0.00000000E+00
  0.00000000E+00  0.00000000E+00  0.00000000E+00  0.00000000E+00  0.00000000E+00
  3.59468487E-03  0.00000000E+00  0.00000000E+00  5.69522083E-02  0.00000000E+00
  0.00000000E+00  1.03430717E-01  0.00000000E+00  0.00000000E+00  0.00000000E+00
  2.22710224E-02  0.00000000E+00  0.00000000E+00  0.00000000E+00  0.00000000E+00
  2.01398428E-01  0.00000000E+00  0.00000000E+00  0.00000000E+00  0.00000000E+00
  0.00000000E+00  0.00000000E+00  0.00000000E+00  4.06753573E-01  0.00000000E+00
  0.00000000E+00  5.26269752E-01  0.00000000E+00  0.00000000E+00  2.14370196E-01
  0.00000000E+00  0.00000000E+00  0.00000000E+00  0.00000000E+00  0.00000000E+00
  0.00000000E+00  0.00000000E+00  0.00000000E+00  0.00000000E+00  0.00000000E+00
  0.00000000E+00  7.50365818E-06  0.00000000E+00  0.00000000E+00  3.12688120E-03
  0.00000000E+00  0.00000000E+00  3.99525075E-02  0.00000000E+00  0.00000000E+00
  0.00000000E+00  1.52084639E-04  0.00000000E+00  0.00000000E+00  0.00000000E+00
  0.00000000E+00  3.94712520E-02  0.00000000E+00  0.00000000E+00  0.00000000E+00
  0.00000000E+00  0.00000000E+00  0.00000000E+00  0.00000000E+00  3.59468487E-03
  0.00000000E+00  0.00000000E+00  5.69522083E-02  0.00000000E+00  0.00000000E+00
  1.03430717E-01  0.00000000E+00  0.00000000E+00  0.00000000E+00  2.22710224E-02
  0.00000000E+00  0.00000000E+00  0.00000000E+00  0.00000000E+00  2.01398428E-01
  0.00000000E+00  0.00000000E+00  0.00000000E+00  0.00000000E+00  0.00000000E+00
  0.00000000E+00  0.00000000E+00  4.06753573E-01  0.00000000E+00  0.00000000E+00
  5.26269752E-01  0.00000000E+00  0.00000000E+00  2.14370196E-01  0.00000000E+00
  0.00000000E+00  0.00000000E+00  0.00000000E+00  0.00000000E+00  0.00000000E+00
  0.00000000E+00  0.00000000E+00  0.00000000E+00  0.00000000E+00  7.06893105E-02
  0.00000000E+00  0.00000000E+00  2.10148297E-01  0.00000000E+00  0.00000000E+00
  1.35243982E-02  0.00000000E+00  0.00000000E+00  0.00000000E+00  1.13900406E-01
  0.00000000E+00  0.00000000E+00  0.00000000E+00  0.00000000E+00  1.92625771E-01
  0.00000000E+00  0.00000000E+00  0.00000000E+00  0.00000000E+00  0.00000000E+00
  0.00000000E+00  0.00000000E+00  2.54747558E-01  0.00000000E+00  0.00000000E+00
  3.53009787E-01  0.00000000E+00  0.00000000E+00 -1.96382869E-01  0.00000000E+00
  0.00000000E+00  0.00000000E+00  1.05059149E-01  0.00000000E+00  0.00000000E+00
  0.00000000E+00  0.00000000E+00 -3.26958965E-01  0.00000000E+00  0.00000000E+00
  0.00000000E+00  0.00000000E+00  0.00000000E+00  0.00000000E+00  0.00000000E+00
 -7.44264636E-02  0.00000000E+00  0.00000000E+00 -4.24195101E-01  0.00000000E+00
  0.00000000E+00 -6.48776709E-01  0.00000000E+00  0.00000000E+00  0.00000000E+00
  0.00000000E+00  0.00000000E+00  0.00000000E+00  0.00000000E+00  0.00000000E+00
 -1.78924224E-02 -1.62513150E-01 -4.13537497E-01 -2.09038921E-01  0.00000000E+00
  0.00000000E+00 -1.91037764E-02  0.00000000E+00  0.00000000E+00 -2.14224783E-01
  0.00000000E+00  0.00000000E+00 -4.90450164E-01 -5.07194673E-03  0.00000000E+00
  0.00000000E+00 -3.94712520E-02  0.00000000E+00 -1.92625771E-01  0.00000000E+00
  0.00000000E+00 -2.28385560E-01  0.00000000E+00 -9.50855536E-02 -4.50231700E-01
 -5.71874563E-01 -1.74038282E-01  0.00000000E+00  0.00000000E+00 -5.69698030E-02
  0.00000000E+00  0.00000000E+00 -3.07390354E-01  0.00000000E+00  0.00000000E+00
 -8.37133388E-02  8.53776928E-02  0.00000000E+00  0.00000000E+00 -2.01398428E-01
  0.00000000E+00  3.26958965E-01  0.00000000E+00  0.00000000E+00 -5.31821846E-01
  0.00000000E+00  0.00000000E+00  0.00000000E+00  0.00000000E+00  0.00000000E+00
  0.00000000E+00  0.00000000E+00  1.28910416E-01  0.00000000E+00  0.00000000E+00
  7.34727467E-01  0.00000000E+00  0.00000000E+00  1.12371422E+00  0.00000000E+00
  0.00000000E+00  0.00000000E+00  0.00000000E+00  0.00000000E+00  0.00000000E+00
  0.00000000E+00  0.00000000E+00  0.00000000E+00  0.00000000E+00  0.00000000E+00
  0.00000000E+00  0.00000000E+00  0.00000000E+00  0.00000000E+00  0.00000000E+00
  0.00000000E+00  0.00000000E+00  0.00000000E+00  0.00000000E+00  0.00000000E+00
  0.00000000E+00  0.00000000E+00  0.00000000E+00 -3.94712520E-02  0.00000000E+00
  0.00000000E+00  0.00000000E+00  0.00000000E+00 -2.28385560E-01  0.00000000E+00
  0.00000000E+00  0.00000000E+00  0.00000000E+00  0.00000000E+00  0.00000000E+00
  0.00000000E+00  0.00000000E+00  0.00000000E+00  0.00000000E+00  0.00000000E+00
  0.00000000E+00  0.00000000E+00  0.00000000E+00  0.00000000E+00  0.00000000E+00
  0.00000000E+00 -2.01398428E-01  0.00000000E+00  0.00000000E+00  0.00000000E+00
  0.00000000E+00 -5.31821846E-01  0.00000000E+00  0.00000000E+00  0.00000000E+00
  0.00000000E+00  0.00000000E+00  0.00000000E+00  0.00000000E+00  0.00000000E+00
  0.00000000E+00  0.00000000E+00  0.00000000E+00  0.00000000E+00  0.00000000E+00
  0.00000000E+00  0.00000000E+00  0.00000000E+00  0.00000000E+00  0.00000000E+00
  0.00000000E+00  0.00000000E+00  0.00000000E+00  0.00000000E+00  0.00000000E+00
  0.00000000E+00  0.00000000E+00  2.89917542E-03  0.00000000E+00  0.00000000E+00
  4.81255572E-02  0.00000000E+00  0.00000000E+00  3.05103140E-01  0.00000000E+00
  0.00000000E+00  0.00000000E+00  9.22365114E-03  0.00000000E+00  0.00000000E+00
  0.00000000E+00  0.00000000E+00  2.28385560E-01  0.00000000E+00  0.00000000E+00
  0.00000000E+00  0.00000000E+00  0.00000000E+00  0.00000000E+00  0.00000000E+00
  2.48523350E-02  0.00000000E+00  0.00000000E+00  2.25219657E-01  0.00000000E+00
  0.00000000E+00  6.38307600E-01  0.00000000E+00  0.00000000E+00  0.00000000E+00
  4.70628304E-02  0.00000000E+00  0.00000000E+00  0.00000000E+00  0.00000000E+00
  5.31821846E-01  0.00000000E+00  0.00000000E+00  0.00000000E+00  0.00000000E+00
  0.00000000E+00  0.00000000E+00  0.00000000E+00  1.28910416E-01  0.00000000E+00
  0.00000000E+00  7.34727467E-01  0.00000000E+00  0.00000000E+00  1.12371422E+00
  0.00000000E+00  0.00000000E+00  0.00000000E+00  0.00000000E+00  0.00000000E+00
  0.00000000E+00  0.00000000E+00  0.00000000E+00  0.00000000E+00  0.00000000E+00
  0.00000000E+00  0.00000000E+00  0.00000000E+00  0.00000000E+00  0.00000000E+00
  0.00000000E+00  2.89917542E-03  0.00000000E+00  0.00000000E+00  4.81255572E-02
  0.00000000E+00  0.00000000E+00  3.05103140E-01  0.00000000E+00  0.00000000E+00
  0.00000000E+00  9.22365114E-03  0.00000000E+00  0.00000000E+00  0.00000000E+00
  0.00000000E+00  2.28385560E-01  0.00000000E+00  0.00000000E+00  0.00000000E+00
  0.00000000E+00  0.00000000E+00  0.00000000E+00  0.00000000E+00  2.48523350E-02
  0.00000000E+00  0.00000000E+00  2.25219657E-01  0.00000000E+00  0.00000000E+00
  6.38307600E-01  0.00000000E+00  0.00000000E+00  0.00000000E+00  4.70628304E-02
  0.00000000E+00  0.00000000E+00  0.00000000E+00  0.00000000E+00  5.31821846E-01
  0.00000000E+00  0.00000000E+00  0.00000000E+00  0.00000000E+00  0.00000000E+00
  0.00000000E+00  0.00000000E+00  1.28910416E-01  0.00000000E+00  0.00000000E+00
  7.34727467E-01  0.00000000E+00  0.00000000E+00  1.12371422E+00  0.00000000E+00
  0.00000000E+00  0.00000000E+00  0.00000000E+00  0.00000000E+00  0.00000000E+00
  0.00000000E+00  0.00000000E+00  0.00000000E+00  0.00000000E+00  0.00000000E+00
Multipole Matrix (0,1,0)                   R   N=        2415
  0.00000000E+00  0.00000000E+00  0.00000000E+00  0.00000000E+00  0.00000000E+00
  0.00000000E+00  0.00000000E+00  0.00000000E+00  0.00000000E+00  0.00000000E+00
  0.00000000E+00  0.00000000E+00  0.00000000E+00  0.00000000E+00  0.00000000E+00
  4.17326919E-01  4.72884226E-01  2.80778475E-01  1.11862100E-01  0.00000000E+00
  0.00000000E+00  0.00000000E+00  0.00000000E+00  0.00000000E+00  0.00000000E+00
  0.00000000E+00  0.00000000E+00  0.00000000E+00  0.00000000E+00  0.00000000E+00
  0.00000000E+00  0.00000000E+00  0.00000000E+00  0.00000000E+00  0.00000000E+00
  0.00000000E+00  2.84964978E-01  8.67674035E-01  9.31584681E-01  4.99863277E-01
  0.00000000E+00  0.00000000E+00  0.00000000E+00  0.00000000E+00  0.00000000E+00
  0.00000000E+00  0.00000000E+00  0.00000000E+00  0.00000000E+00  0.00000000E+00
  0.00000000E+00  0.00000000E+00  0.00000000E+00  0.00000000E+00  0.00000000E+00
  0.00000000E+00  0.00000000E+00  0.00000000E+00  0.00000000E+00  0.00000000E+00
  0.00000000E+00  0.00000000E+00  0.00000000E+00  0.00000000E+00  0.00000000E+00
  0.00000000E+00  8.86326162E-02  5.87362976E-01  1.56019339E+00  1.78809431E+00
  0.00000000E+00  0.00000000E+00  0.00000000E+00  0.00000000E+00  0.00000000E+00
  0.00000000E+00  0.00000000E+00  0.00000000E+00  0.00000000E+00  0.00000000E+00
  0.00000000E+00  0.00000000E+00  0.00000000E+00  0.00000000E+00  0.00000000E+00
  0.00000000E+00  0.00000000E+00  0.00000000E+00  0.00000000E+00  0.00000000E+00
  0.00000000E+00  0.00000000E+00  0.00000000E+00  0.00000000E+00  0.00000000E+00
  0.00000000E+00 -2.34839285E-01  0.00000000E+00  0.00000000E+00 -3.03841983E-01
  0.00000000E+00  0.00000000E+00 -1.23766691E-01  0.00000000E+00  0.00000000E+00
  0.00000000E+00  0.00000000E+00  0.00000000E+00  0.00000000E+00  0.00000000E+00
  0.00000000E+00  0.00000000E+00  0.00000000E+00  0.00000000E+00  0.00000000E+00
  0.00000000E+00  0.00000000E+00  0.00000000E+00  0.00000000E+00  0.00000000E+00
  0.00000000E+00  0.00000000E+00  0.00000000E+00  0.00000000E+00  0.00000000E+00
  0.00000000E+00  4.06753573E-01  0.00000000E+00  0.00000000E+00  5.26269752E-01
  0.00000000E+00  0.00000000E+00  2.14370196E-01  0.00000000E+00  0.00000000E+00
  0.00000000E+00  0.00000000E+00  0.00000000E+00  0.00000000E+00  0.00000000E+00
  0.00000000E+00 -4.06753573E-01  0.00000000E+00  0.00000000E+00 -5.26269752E-01
  0.00000000E+00  0.00000000E+00 -2.14370196E-01  0.00000000E+00  0.00000000E+00
  0.00000000E+00  0.00000000E+00  0.00000000E+00  0.00000000E+00  0.00000000E+00
  0.00000000E+00  0.00000000E+00  4.06753573E-01  0.00000000E+00  0.00000000E+00
  5.26269752E-01  0.00000000E+00  0.00000000E+00  2.14370196E-01  0.00000000E+00
  0.00000000E+00  0.00000000E+00  0.00000000E+00  0.00000000E+00  0.00000000E+00
  0.00000000E+00  0.00000000E+00  0.00000000E+00  0.00000000E+00  0.00000000E+00
  0.00000000E+00 -7.44264636E-02  0.00000000E+00  0.00000000E+00 -4.24195101E-01
  0.00000000E+00  0.00000000E+00 -6.48776709E-01  0.00000000E+00  0.00000000E+00
  0.00000000E+00  0.00000000E+00  0.00000000E+00  0.00000000E+00  0.00000000E+00
  0.00000000E+00  0.00000000E+00  0.00000000E+00  0.00000000E+00  0.00000000E+00
  0.00000000E+00  0.00000000E+00  0.00000000E+00  0.00000000E+00  0.00000000E+00
  0.00000000E+00  0.00000000E+00  0.00000000E+00  0.00000000E+00  0.00000000E+00
  0.00000000E+00  0.00000000E+00  0.00000000E+00  0.00000000E+00  0.00000000E+00
  0.00000000E+00  0.00000000E+00  0.00000000E+00  0.00000000E+00  0.00000000E+00
  0.00000000E+00  1.28910416E-01  0.00000000E+00  0.00000000E+00  7.34727467E-01
  0.00000000E+00  0.00000000E+00  1.12371422E+00  0.00000000E+00  0.00000000E+00
  0.00000000E+00  0.00000000E+00  0.00000000E+00  0.00000000E+00  0.00000000E+00
  0.00000000E+00  0.00000000E+00  0.00000000E+00  0.00000000E+00  0.00000000E+00
  0.00000000E+00 -1.28910416E-01  0.00000000E+00  0.00000000E+00 -7.34727467E-01
  0.00000000E+00  0.00000000E+00 -1.12371422E+00  0.00000000E+00  0.00000000E+00
  0.00000000E+00  0.00000000E+00  0.00000000E+00  0.00000000E+00  0.00000000E+00
  0.00000000E+00  0.00000000E+00  0.00000000E+00  0.00000000E+00  0.00000000E+00
  0.00000000E+00  0.00000000E+00  1.28910416E-01  0.00000000E+00  0.00000000E+00
  7.34727467E-01  0.00000000E+00  0.00000000E+00  1.12371422E+00  0.00000000E+00
  0.00000000E+00  0.00000000E+00  0.00000000E+00  0.00000000E+00  0.00000000E+00
  0.00000000E+00  0.00000000E+00  0.00000000E+00  0.00000000E+00  0.00000000E+00
  0.00000000E+00  0.00000000E+00  0.00000000E+00  0.00000000E+00  0.00000000E+00
  0.00000000E+00  1.05251636E-01  0.00000000E+00  0.00000000E+00  1.53972932E-01
  0.00000000E+00  0.00000000E+00  7.27444617E-02  0.00000000E+00  0.00000000E+00
  0.00000000E+00  2.00604258E-01  0.00000000E+00  0.00000000E+00  0.00000000E+00
  0.00000000E+00  1.58940523E-01  0.00000000E+00  0.00000000E+00  0.00000000E+00
  0.00000000E+00  0.00000000E+00  0.00000000E+00  0.00000000E+00  0.00000000E+00
  2.71001723E-01  0.00000000E+00  0.00000000E+00  5.97720755E-01  0.00000000E+00
  0.00000000E+00  4.98780787E-01  0.00000000E+00  0.00000000E+00  0.00000000E+00
  2.41920615E-01  0.00000000E+00  0.00000000E+00  0.00000000E+00  0.00000000E+00
  5.21937043E-01  0.00000000E+00  0.00000000E+00  0.00000000E+00  0.00000000E+00
  0.00000000E+00  0.00000000E+00  0.00000000E+00  0.00000000E+00  0.00000000E+00
  2.29554110E-01  0.00000000E+00  0.00000000E+00  7.85241784E-01  0.00000000E+00
  0.00000000E+00  1.40089932E+00  0.00000000E+00  0.00000000E+00  0.00000000E+00
  8.23692661E-02  0.00000000E+00  0.00000000E+00  0.00000000E+00  0.00000000E+00
  4.49140669E-01  0.00000000E+00  0.00000000E+00  0.00000000E+00  0.00000000E+00
  0.00000000E+00  0.00000000E+00  0.00000000E+00  0.00000000E+00  0.00000000E+00
  0.00000000E+00  1.06170394E-01  0.00000000E+00  0.00000000E+00  4.75527538E-01
  0.00000000E+00  0.00000000E+00  1.71350835E+00  0.00000000E+00  0.00000000E+00
  0.00000000E+00  1.04190528E-02  0.00000000E+00  0.00000000E+00  0.00000000E+00
  0.00000000E+00  1.02857741E-01  0.00000000E+00  0.00000000E+00  0.00000000E+00
  0.00000000E+00  0.00000000E+00  0.00000000E+00  0.00000000E+00  0.00000000E+00
  0.00000000E+00  0.00000000E+00  0.00000000E+00  0.00000000E+00  0.00000000E+00
  0.00000000E+00  0.00000000E+00  0.00000000E+00  0.00000000E+00  0.00000000E+00
  0.00000000E+00  0.00000000E+00  0.00000000E+00  0.00000000E+00  0.00000000E+00
  1.14206228E-01  0.00000000E+00  0.00000000E+00  0.00000000E+00  0.00000000E+00
  8.28421462E-02  0.00000000E+00  0.00000000E+00  0.00000000E+00  0.00000000E+00
  0.00000000E+00  1.05251636E-01  2.71001723E-01  2.29554110E-01  1.06170394E-01
  0.00000000E+00  0.00000000E+00  1.65032387E-01  0.00000000E+00  0.00000000E+00
  3.68687161E-01  0.00000000E+00  0.00000000E+00  1.97798935E-01  1.57035325E-01
  0.00000000E+00  0.00000000E+00 -1.14206228E-01  0.00000000E+00  1.93115948E-01
  0.00000000E+00  0.00000000E+00 -8.28421462E-02  0.00000000E+00  4.17326919E-01
  4.72884226E-01  2.80778475E-01  1.11862100E-01  0.00000000E+00  0.00000000E+00
  0.00000000E+00  0.00000000E+00  0.00000000E+00  0.00000000E+00  0.00000000E+00
 -1.65032387E-01  0.00000000E+00  0.00000000E+00 -1.01670660E-01  0.00000000E+00
  0.00000000E+00 -1.43393685E-02  0.00000000E+00  0.00000000E+00  0.00000000E+00
 -1.75923662E-01  0.00000000E+00  0.00000000E+00  0.00000000E+00  0.00000000E+00
  9.57973781E-03  0.00000000E+00  0.00000000E+00  0.00000000E+00  0.00000000E+00
  0.00000000E+00  0.00000000E+00  0.00000000E+00  0.00000000E+00  0.00000000E+00
  0.00000000E+00  0.00000000E+00  0.00000000E+00  0.00000000E+00  0.00000000E+00
  0.00000000E+00  0.00000000E+00  0.00000000E+00  0.00000000E+00  0.00000000E+00
  0.00000000E+00  0.00000000E+00  0.00000000E+00  0.00000000E+00  0.00000000E+00
  0.00000000E+00  0.00000000E+00  2.89607560E-01  0.00000000E+00  0.00000000E+00
  0.00000000E+00  0.00000000E+00  5.34796292E-01  0.00000000E+00  0.00000000E+00
  0.00000000E+00  0.00000000E+00  0.00000000E+00  0.00000000E+00  0.00000000E+00
  0.00000000E+00  1.53972932E-01  5.97720755E-01  7.85241784E-01  4.75527538E-01
  0.00000000E+00  0.00000000E+00  1.01670660E-01  0.00000000E+00  0.00000000E+00
  4.82206804E-01  0.00000000E+00  0.00000000E+00  5.75789967E-01 -9.38855565E-02
  0.00000000E+00  0.00000000E+00 -2.89607560E-01  0.00000000E+00 -6.64718039E-04
  0.00000000E+00  0.00000000E+00 -5.34796292E-01  0.00000000E+00  2.84964978E-01
  8.67674035E-01  9.31584681E-01  4.99863277E-01  0.00000000E+00  0.00000000E+00
  0.00000000E+00  0.00000000E+00  0.00000000E+00  0.00000000E+00  0.00000000E+00
  0.00000000E+00  0.00000000E+00  0.00000000E+00 -3.68687161E-01  0.00000000E+00
  0.00000000E+00 -4.82206804E-01  0.00000000E+00  0.00000000E+00 -1.51367465E-01
  0.00000000E+00  0.00000000E+00  0.00000000E+00 -5.63501904E-02  0.00000000E+00
  0.00000000E+00  0.00000000E+00  0.00000000E+00  1.95079007E-01  0.00000000E+00
  0.00000000E+00  0.00000000E+00  0.00000000E+00  0.00000000E+00  0.00000000E+00
  0.00000000E+00  0.00000000E+00  0.00000000E+00  0.00000000E+00  0.00000000E+00
  0.00000000E+00  0.00000000E+00  0.00000000E+00  0.00000000E+00  0.00000000E+00
  0.00000000E+00  0.00000000E+00  0.00000000E+00  0.00000000E+00  0.00000000E+00
  0.00000000E+00  0.00000000E+00  0.00000000E+00  0.00000000E+00  0.00000000E+00
  0.00000000E+00  0.00000000E+00  0.00000000E+00  1.76256261E-01  0.00000000E+00
  0.00000000E+00  0.00000000E+00  0.00000000E+00  9.65334216E-01  0.00000000E+00
  0.00000000E+00  0.00000000E+00  0.00000000E+00  0.00000000E+00  0.00000000E+00
  0.00000000E+00  0.00000000E+00  0.00000000E+00  0.00000000E+00  0.00000000E+00
  7.27444617E-02  4.98780787E-01  1.40089932E+00  1.71350835E+00  0.00000000E+00
  0.00000000E+00  1.43393685E-02  0.00000000E+00  0.00000000E+00  1.51367465E-01
  0.00000000E+00  0.00000000E+00  6.51523440E-01 -9.79167877E-02  0.00000000E+00
  0.00000000E+00 -1.76256261E-01  0.00000000E+00 -4.87405524E-01  0.00000000E+00
  0.00000000E+00 -9.65334216E-01  0.00000000E+00  8.86326162E-02  5.87362976E-01
  1.56019339E+00  1.78809431E+00  0.00000000E+00  0.00000000E+00  0.00000000E+00
  0.00000000E+00  0.00000000E+00  0.00000000E+00  0.00000000E+00  0.00000000E+00
  0.00000000E+00  0.00000000E+00  0.00000000E+00  0.00000000E+00  0.00000000E+00
 -1.97798935E-01  0.00000000E+00  0.00000000E+00 -5.75789967E-01  0.00000000E+00
  0.00000000E+00 -6.51523440E-01  0.00000000E+00  0.00000000E+00  0.00000000E+00
  1.07246491E-01  0.00000000E+00  0.00000000E+00  0.00000000E+00  0.00000000E+00
  6.72026355E-01  0.00000000E+00  0.00000000E+00  0.00000000E+00  0.00000000E+00
  0.00000000E+00  0.00000000E+00  0.00000000E+00  0.00000000E+00  0.00000000E+00
  0.00000000E+00  0.00000000E+00  0.00000000E+00  0.00000000E+00  0.00000000E+00
  0.00000000E+00  0.00000000E+00  0.00000000E+00  0.00000000E+00  0.00000000E+00
  0.00000000E+00  1.57035325E-01  0.00000000E+00  0.00000000E+00 -9.38855565E-02
  0.00000000E+00  0.00000000E+00 -9.79167877E-02  0.00000000E+00  0.00000000E+00
  0.00000000E+00 -1.06800060E-01  0.00000000E+00  0.00000000E+00  0.00000000E+00
  0.00000000E+00 -2.41134457E-01  0.00000000E+00  0.00000000E+00  0.00000000E+00
  0.00000000E+00  0.00000000E+00  0.00000000E+00  0.00000000E+00 -2.34839285E-01
  0.00000000E+00  0.00000000E+00 -3.03841983E-01  0.00000000E+00  0.00000000E+00
 -1.23766691E-01  0.00000000E+00  0.00000000E+00  0.00000000E+00  0.00000000E+00
  0.00000000E+00  0.00000000E+00  0.00000000E+00  0.00000000E+00  0.00000000E+00
  0.00000000E+00  0.00000000E+00  0.00000000E+00  0.00000000E+00  0.00000000E+00
  0.00000000E+00  0.00000000E+00  0.00000000E+00  0.00000000E+00  0.00000000E+00
 -2.38513358E-01  0.00000000E+00  0.00000000E+00  0.00000000E+00  0.00000000E+00
 -7.68223655E-02  0.00000000E+00  0.00000000E+00  0.00000000E+00  0.00000000E+00
  0.00000000E+00  0.00000000E+00  0.00000000E+00  0.00000000E+00  0.00000000E+00
  0.00000000E+00  0.00000000E+00  0.00000000E+00  0.00000000E+00  0.00000000E+00
  0.00000000E+00 -2.00604258E-01 -2.41920615E-01 -8.23692661E-02 -1.04190528E-02
  0.00000000E+00  0.00000000E+00 -1.75923662E-01  0.00000000E+00  0.00000000E+00
 -5.63501904E-02  0.00000000E+00  0.00000000E+00  1.07246491E-01  1.06800060E-01
  0.00000000E+00  0.00000000E+00  2.38513358E-01  0.00000000E+00  2.64015041E-01
  0.00000000E+00  0.00000000E+00  7.68223655E-02  0.00000000E+00  0.00000000E+00
  0.00000000E+00  0.00000000E+00  0.00000000E+00  0.00000000E+00  0.00000000E+00
  4.06753573E-01  0.00000000E+00  0.00000000E+00  5.26269752E-01  0.00000000E+00
  0.00000000E+00  2.14370196E-01  0.00000000E+00  0.00000000E+00  0.00000000E+00
  0.00000000E+00  0.00000000E+00  0.00000000E+00  0.00000000E+00  0.00000000E+00
 -1.14206228E-01  0.00000000E+00  0.00000000E+00 -2.89607560E-01  0.00000000E+00
  0.00000000E+00 -1.76256261E-01  0.00000000E+00  0.00000000E+00  0.00000000E+00
 -2.38513358E-01  0.00000000E+00  0.00000000E+00  0.00000000E+00  0.00000000E+00
 -3.28749961E-01  0.00000000E+00  0.00000000E+00  0.00000000E+00  0.00000000E+00
  0.00000000E+00  0.00000000E+00  0.00000000E+00 -4.06753573E-01  0.00000000E+00
  0.00000000E+00 -5.26269752E-01  0.00000000E+00  0.00000000E+00 -2.14370196E-01
  0.00000000E+00  0.00000000E+00  0.00000000E+00  0.00000000E+00  0.00000000E+00
  0.00000000E+00  0.00000000E+00  0.00000000E+00  0.00000000E+00  1.14206228E-01
  0.00000000E+00  0.00000000E+00  2.89607560E-01  0.00000000E+00  0.00000000E+00
  1.76256261E-01  0.00000000E+00  0.00000000E+00  0.00000000E+00  2.38513358E-01
  0.00000000E+00  0.00000000E+00  0.00000000E+00  0.00000000E+00  3.28749961E-01
  0.00000000E+00  0.00000000E+00  0.00000000E+00  0.00000000E+00  0.00000000E+00
  0.00000000E+00  0.00000000E+00  4.06753573E-01  0.00000000E+00  0.00000000E+00
  5.26269752E-01  0.00000000E+00  0.00000000E+00  2.14370196E-01  0.00000000E+00
  0.00000000E+00  0.00000000E+00  0.00000000E+00  0.00000000E+00  0.00000000E+00
  0.00000000E+00  0.00000000E+00  0.00000000E+00  0.00000000E+00  0.00000000E+00
  0.00000000E+00  1.93115948E-01  0.00000000E+00  0.00000000E+00 -6.64718039E-04
  0.00000000E+00  0.00000000E+00 -4.87405524E-01  0.00000000E+00  0.00000000E+00
  0.00000000E+00 -2.64015041E-01  0.00000000E+00  0.00000000E+00  0.00000000E+00
  0.00000000E+00 -8.00926674E-01  0.00000000E+00  0.00000000E+00  0.00000000E+00
  0.00000000E+00  0.00000000E+00  0.00000000E+00  0.00000000E+00 -7.44264636E-02
  0.00000000E+00  0.00000000E+00 -4.24195101E-01  0.00000000E+00  0.00000000E+00
 -6.48776709E-01  0.00000000E+00  0.00000000E+00  0.00000000E+00  0.00000000E+00
  0.00000000E+00  0.00000000E+00  0.00000000E+00  0.00000000E+00  0.00000000E+00
  0.00000000E+00  0.00000000E+00  0.00000000E+00  0.00000000E+00  0.00000000E+00
  0.00000000E+00  0.00000000E+00  0.00000000E+00  0.00000000E+00  0.00000000E+00
  0.00000000E+00  0.00000000E+00  0.00000000E+00  0.00000000E+00  0.00000000E+00
 -3.28749961E-01  0.00000000E+00  0.00000000E+00  0.00000000E+00  0.00000000E+00
 -5.59329502E-01  0.00000000E+00  0.00000000E+00  0.00000000E+00  0.00000000E+00
  0.00000000E+00  0.00000000E+00  0.00000000E+00  0.00000000E+00  0.00000000E+00
  0.00000000E+00  0.00000000E+00  0.00000000E+00  0.00000000E+00  0.00000000E+00
  0.00000000E+00  0.00000000E+00  0.00000000E+00  0.00000000E+00  0.00000000E+00
  0.00000000E+00 -1.58940523E-01 -5.21937043E-01 -4.49140669E-01 -1.02857741E-01
  0.00000000E+00  0.00000000E+00  9.57973781E-03  0.00000000E+00  0.00000000E+00
  1.95079007E-01  0.00000000E+00  0.00000000E+00  6.72026355E-01  2.41134457E-01
  0.00000000E+00  0.00000000E+00  3.28749961E-01  0.00000000E+00  8.00926674E-01
  0.00000000E+00  0.00000000E+00  5.59329502E-01  0.00000000E+00  0.00000000E+00
  0.00000000E+00  0.00000000E+00  0.00000000E+00  0.00000000E+00  0.00000000E+00
  1.28910416E-01  0.00000000E+00  0.00000000E+00  7.34727467E-01  0.00000000E+00
  0.00000000E+00  1.12371422E+00  0.00000000E+00  0.00000000E+00  0.00000000E+00
  0.00000000E+00  0.00000000E+00  0.00000000E+00  0.00000000E+00  0.00000000E+00
  0.00000000E+00  0.00000000E+00  0.00000000E+00  0.00000000E+00  0.00000000E+00
 -8.28421462E-02  0.00000000E+00  0.00000000E+00 -5.34796292E-01  0.00000000E+00
  0.00000000E+00 -9.65334216E-01  0.00000000E+00  0.00000000E+00  0.00000000E+00
 -7.68223655E-02  0.00000000E+00  0.00000000E+00  0.00000000E+00  0.00000000E+00
 -5.59329502E-01  0.00000000E+00  0.00000000E+00  0.00000000E+00  0.00000000E+00
  0.00000000E+00  0.00000000E+00  0.00000000E+00 -1.28910416E-01  0.00000000E+00
  0.00000000E+00 -7.34727467E-01  0.00000000E+00  0.00000000E+00 -1.12371422E+00
  0.00000000E+00  0.00000000E+00  0.00000000E+00  0.00000000E+00  0.00000000E+00
  0.00000000E+00  0.00000000E+00  0.00000000E+00  0.00000000E+00  0.00000000E+00
  0.00000000E+00  0.00000000E+00  0.00000000E+00  0.00000000E+00  8.28421462E-02
  0.00000000E+00  0.00000000E+00  5.34796292E-01  0.00000000E+00  0.00000000E+00
  9.65334216E-01  0.00000000E+00  0.00000000E+00  0.00000000E+00  7.68223655E-02
  0.00000000E+00  0.00000000E+00  0.00000000E+00  0.00000000E+00  5.59329502E-01
  0.00000000E+00  0.00000000E+00  0.00000000E+00  0.00000000E+00  0.00000000E+00
  0.00000000E+00  0.00000000E+00  1.28910416E-01  0.00000000E+00  0.00000000E+00
  7.34727467E-01  0.00000000E+00  0.00000000E+00  1.12371422E+00  0.00000000E+00
  0.00000000E+00  0.00000000E+00  0.00000000E+00  0.00000000E+00  0.00000000E+00
  0.00000000E+00  0.00000000E+00  0.00000000E+00  0.00000000E+00  0.00000000E+00
  0.00000000E+00  0.00000000E+00  0.00000000E+00  0.00000000E+00  0.00000000E+00
  0.00000000E+00  4.05331442E-06  0.00000000E+00  0.00000000E+00  1.46552937E-03
  0.00000000E+00  0.00000000E+00  1.62696247E-02  0.00000000E+00  0.00000000E+00
  0.00000000E+00  8.32342061E-05  0.00000000E+00  0.00000000E+00  0.00000000E+00
  0.00000000E+00  1.78924224E-02  0.00000000E+00  0.00000000E+00  0.00000000E+00
  0.00000000E+00  0.00000000E+00  0.00000000E+00  0.00000000E+00  2.69626024E-03
  0.00000000E+00  0.00000000E+00  2.88770319E-02  0.00000000E+00  0.00000000E+00
  4.24820190E-02  0.00000000E+00  0.00000000E+00  0.00000000E+00  1.57318101E-02
  0.00000000E+00  0.00000000E+00  0.00000000E+00  0.00000000E+00  9.50855536E-02
  0.00000000E+00  0.00000000E+00  0.00000000E+00  0.00000000E+00  0.00000000E+00
  0.00000000E+00  0.00000000E+00  0.00000000E+00  3.97953140E-03  0.00000000E+00
  0.00000000E+00  3.54264022E-02  0.00000000E+00  0.00000000E+00  1.44420315E-01
  0.00000000E+00  0.00000000E+00  0.00000000E+00  1.33278442E-02  0.00000000E+00
  0.00000000E+00  0.00000000E+00  0.00000000E+00  1.62513150E-01  0.00000000E+00
  0.00000000E+00  0.00000000E+00  0.00000000E+00  0.00000000E+00  0.00000000E+00
  0.00000000E+00  5.95165129E-02  0.00000000E+00  0.00000000E+00  2.16663126E-01
  0.00000000E+00  0.00000000E+00  3.19592818E-01  0.00000000E+00  0.00000000E+00
  0.00000000E+00  1.12036528E-01  0.00000000E+00  0.00000000E+00  0.00000000E+00
  0.00000000E+00  4.50231700E-01  0.00000000E+00  0.00000000E+00  0.00000000E+00
  0.00000000E+00  0.00000000E+00  0.00000000E+00  0.00000000E+00  0.00000000E+00
  0.00000000E+00  4.98473262E-02  0.00000000E+00  0.00000000E+00  2.14927942E-01
  0.00000000E+00  0.00000000E+00  6.19150657E-01  0.00000000E+00  0.00000000E+00
  0.00000000E+00  5.41902321E-02  0.00000000E+00  0.00000000E+00  0.00000000E+00
  0.00000000E+00  4.13537497E-01  0.00000000E+00  0.00000000E+00  0.00000000E+00
  0.00000000E+00  0.00000000E+00  0.00000000E+00  0.00000000E+00  1.32646231E-01
  0.00000000E+00  0.00000000E+00  4.93080116E-01  0.00000000E+00  0.00000000E+00
  1.04485452E+00  0.00000000E+00  0.00000000E+00  0.00000000E+00  9.29520699E-02
  0.00000000E+00  0.00000000E+00  0.00000000E+00  0.00000000E+00  5.71874563E-01
  0.00000000E+00  0.00000000E+00  0.00000000E+00  0.00000000E+00  0.00000000E+00
  0.00000000E+00  0.00000000E+00  0.00000000E+00  0.00000000E+00  0.00000000E+00
  7.14582719E-02  0.00000000E+00  0.00000000E+00  3.25714189E-01  0.00000000E+00
  0.00000000E+00  1.24048571E+00  0.00000000E+00  0.00000000E+00  0.00000000E+00
  2.05903613E-02  0.00000000E+00  0.00000000E+00  0.00000000E+00  0.00000000E+00
  2.09038921E-01  0.00000000E+00  0.00000000E+00  0.00000000E+00  0.00000000E+00
  0.00000000E+00  0.00000000E+00  0.00000000E+00  9.20981258E-02  0.00000000E+00
  0.00000000E+00  4.15103793E-01  0.00000000E+00  0.00000000E+00  1.52581667E+00
  0.00000000E+00  0.00000000E+00  0.00000000E+00  1.74530377E-02  0.00000000E+00
  0.00000000E+00  0.00000000E+00  0.00000000E+00  1.74038282E-01  0.00000000E+00
  0.00000000E+00  0.00000000E+00  0.00000000E+00  0.00000000E+00  0.00000000E+00
  0.00000000E+00  0.00000000E+00  0.00000000E+00  0.00000000E+00  0.00000000E+00
  0.00000000E+00  0.00000000E+00  0.00000000E+00  0.00000000E+00  0.00000000E+00
  0.00000000E+00  0.00000000E+00  0.00000000E+00  0.00000000E+00  0.00000000E+00
  0.00000000E+00  0.00000000E+00  7.50365818E-06  0.00000000E+00  0.00000000E+00
  0.00000000E+00  0.00000000E+00  2.89917542E-03  0.00000000E+00  0.00000000E+00
  0.00000000E+00  0.00000000E+00  0.00000000E+00  0.00000000E+00  0.00000000E+00
  0.00000000E+00  0.00000000E+00  0.00000000E+00  0.00000000E+00  0.00000000E+00
  0.00000000E+00  0.00000000E+00  0.00000000E+00  0.00000000E+00  0.00000000E+00
  3.59468487E-03  0.00000000E+00  0.00000000E+00  0.00000000E+00  0.00000000E+00
  2.48523350E-02  0.00000000E+00  0.00000000E+00  0.00000000E+00  0.00000000E+00
  0.00000000E+00  4.05331442E-06  3.97953140E-03  4.98473262E-02  7.14582719E-02
  0.00000000E+00  0.00000000E+00  6.44892957E-06  0.00000000E+00  0.00000000E+00
  8.43299206E-03  0.00000000E+00  0.00000000E+00  1.27052765E-01  1.21389626E-04
  0.00000000E+00  0.00000000E+00 -7.50365818E-06  0.00000000E+00  7.06893105E-02
  0.00000000E+00  0.00000000E+00 -2.89917542E-03  0.00000000E+00  2.69626024E-03
  5.95165129E-02  1.32646231E-01  9.20981258E-02  0.00000000E+00  0.00000000E+00
  5.65323205E-03  0.00000000E+00  0.00000000E+00  1.24520920E-01  0.00000000E+00
  0.00000000E+00  2.21301540E-01  2.40519820E-02  0.00000000E+00  0.00000000E+00
 -3.59468487E-03  0.00000000E+00  2.54747558E-01  0.00000000E+00  0.00000000E+00
 -2.48523350E-02  0.00000000E+00  4.17326919E-01  4.72884226E-01  2.80778475E-01
  1.11862100E-01  0.00000000E+00  0.00000000E+00  0.00000000E+00  0.00000000E+00
  0.00000000E+00  0.00000000E+00  0.00000000E+00 -6.44892957E-06  0.00000000E+00
  0.00000000E+00 -2.32551593E-03  0.00000000E+00  0.00000000E+00 -9.21064822E-03
  0.00000000E+00  0.00000000E+00  0.00000000E+00 -1.56084677E-04  0.00000000E+00
  0.00000000E+00  0.00000000E+00  0.00000000E+00 -1.91037764E-02  0.00000000E+00
  0.00000000E+00  0.00000000E+00  0.00000000E+00  0.00000000E+00  0.00000000E+00
  0.00000000E+00 -5.65323205E-03  0.00000000E+00  0.00000000E+00 -3.43383916E-02
  0.00000000E+00  0.00000000E+00 -1.60431820E-02  0.00000000E+00  0.00000000E+00
  0.00000000E+00 -3.04020559E-02  0.00000000E+00  0.00000000E+00  0.00000000E+00
  0.00000000E+00 -5.69698030E-02  0.00000000E+00  0.00000000E+00  0.00000000E+00
  0.00000000E+00  0.00000000E+00  0.00000000E+00  0.00000000E+00  0.00000000E+00
  0.00000000E+00  0.00000000E+00  0.00000000E+00  0.00000000E+00  0.00000000E+00
  0.00000000E+00  0.00000000E+00  0.00000000E+00  0.00000000E+00  0.00000000E+00
  0.00000000E+00  0.00000000E+00  0.00000000E+00  0.00000000E+00  0.00000000E+00
  0.00000000E+00  0.00000000E+00  0.00000000E+00  3.12688120E-03  0.00000000E+00
  0.00000000E+00  0.00000000E+00  0.00000000E+00  4.81255572E-02  0.00000000E+00
  0.00000000E+00  0.00000000E+00  0.00000000E+00  0.00000000E+00  0.00000000E+00
  0.00000000E+00  0.00000000E+00  0.00000000E+00  0.00000000E+00  0.00000000E+00
  0.00000000E+00  0.00000000E+00  0.00000000E+00  0.00000000E+00  0.00000000E+00
  0.00000000E+00  5.69522083E-02  0.00000000E+00  0.00000000E+00  0.00000000E+00
  0.00000000E+00  2.25219657E-01  0.00000000E+00  0.00000000E+00  0.00000000E+00
  0.00000000E+00  0.00000000E+00  0.00000000E+00  0.00000000E+00  0.00000000E+00
  1.46552937E-03  3.54264022E-02  2.14927942E-01  3.25714189E-01  0.00000000E+00
  0.00000000E+00  2.32551593E-03  0.00000000E+00  0.00000000E+00  6.39304627E-02
  0.00000000E+00  0.00000000E+00  4.64920717E-01  4.98825197E-03  0.00000000E+00
  0.00000000E+00 -3.12688120E-03  0.00000000E+00  2.10148297E-01  0.00000000E+00
  0.00000000E+00 -4.81255572E-02  0.00000000E+00  2.88770319E-02  2.16663126E-01
  4.93080116E-01  4.15103793E-01  0.00000000E+00  0.00000000E+00  3.43383916E-02
  0.00000000E+00  0.00000000E+00  3.06117086E-01  0.00000000E+00  0.00000000E+00
  6.99367995E-01  2.07962932E-02  0.00000000E+00  0.00000000E+00 -5.69522083E-02
  0.00000000E+00  3.53009787E-01  0.00000000E+00  0.00000000E+00 -2.25219657E-01
  0.00000000E+00  2.84964978E-01  8.67674035E-01  9.31584681E-01  4.99863277E-01
  0.00000000E+00  0.00000000E+00  0.00000000E+00  0.00000000E+00  0.00000000E+00
  0.00000000E+00  0.00000000E+00  0.00000000E+00  0.00000000E+00  0.00000000E+00
 -8.43299206E-03  0.00000000E+00  0.00000000E+00 -6.39304627E-02  0.00000000E+00
  0.00000000E+00 -1.22221426E-01  0.00000000E+00  0.00000000E+00  0.00000000E+00
 -2.89285155E-02  0.00000000E+00  0.00000000E+00  0.00000000E+00  0.00000000E+00
 -2.14224783E-01  0.00000000E+00  0.00000000E+00  0.00000000E+00  0.00000000E+00
  0.00000000E+00  0.00000000E+00  0.00000000E+00 -1.24520920E-01  0.00000000E+00
  0.00000000E+00 -3.06117086E-01  0.00000000E+00  0.00000000E+00 -1.83854473E-01
  0.00000000E+00  0.00000000E+00  0.00000000E+00 -1.96325818E-01  0.00000000E+00
  0.00000000E+00  0.00000000E+00  0.00000000E+00 -3.07390354E-01  0.00000000E+00
  0.00000000E+00  0.00000000E+00  0.00000000E+00  0.00000000E+00  0.00000000E+00
  0.00000000E+00  0.00000000E+00  0.00000000E+00  0.00000000E+00  0.00000000E+00
  0.00000000E+00  0.00000000E+00  0.00000000E+00  0.00000000E+00  0.00000000E+00
  0.00000000E+00  0.00000000E+00  0.00000000E+00  0.00000000E+00  0.00000000E+00
  0.00000000E+00  0.00000000E+00  0.00000000E+00  0.00000000E+00  0.00000000E+00
  0.00000000E+00  0.00000000E+00  0.00000000E+00  3.99525075E-02  0.00000000E+00
  0.00000000E+00  0.00000000E+00  0.00000000E+00  3.05103140E-01  0.00000000E+00
  0.00000000E+00  0.00000000E+00  0.00000000E+00  0.00000000E+00  0.00000000E+00
  0.00000000E+00  0.00000000E+00  0.00000000E+00  0.00000000E+00  0.00000000E+00
  0.00000000E+00  0.00000000E+00  0.00000000E+00  0.00000000E+00  0.00000000E+00
  0.00000000E+00  1.03430717E-01  0.00000000E+00  0.00000000E+00  0.00000000E+00
  0.00000000E+00  6.38307600E-01  0.00000000E+00  0.00000000E+00  0.00000000E+00
  0.00000000E+00  0.00000000E+00  0.00000000E+00  0.00000000E+00  0.00000000E+00
  0.00000000E+00  0.00000000E+00  0.00000000E+00  1.62696247E-02  1.44420315E-01
  6.19150657E-01  1.24048571E+00  0.00000000E+00  0.00000000E+00  9.21064822E-03
  0.00000000E+00  0.00000000E+00  1.22221426E-01  0.00000000E+00  0.00000000E+00
  8.45894631E-01 -1.55874584E-02  0.00000000E+00  0.00000000E+00 -3.99525075E-02
  0.00000000E+00  1.35243982E-02  0.00000000E+00  0.00000000E+00 -3.05103140E-01
  0.00000000E+00  4.24820190E-02  3.19592818E-01  1.04485452E+00  1.52581667E+00
  0.00000000E+00  0.00000000E+00  1.60431820E-02  0.00000000E+00  0.00000000E+00
  1.83854473E-01  0.00000000E+00  0.00000000E+00  9.38533640E-01 -5.13162435E-02
  0.00000000E+00  0.00000000E+00 -1.03430717E-01  0.00000000E+00 -1.96382869E-01
  0.00000000E+00  0.00000000E+00 -6.38307600E-01  0.00000000E+00  8.86326162E-02
  5.87362976E-01  1.56019339E+00  1.78809431E+00  0.00000000E+00  0.00000000E+00
  0.00000000E+00  0.00000000E+00  0.00000000E+00  0.00000000E+00  0.00000000E+00
  0.00000000E+00  0.00000000E+00  0.00000000E+00  0.00000000E+00  0.00000000E+00
  0.00000000E+00 -1.27052765E-01  0.00000000E+00  0.00000000E+00 -4.64920717E-01
  0.00000000E+00  0.00000000E+00 -8.45894631E-01  0.00000000E+00  0.00000000E+00
  0.00000000E+00 -9.42889544E-02  0.00000000E+00  0.00000000E+00  0.00000000E+00
  0.00000000E+00 -4.90450164E-01  0.00000000E+00  0.00000000E+00  0.00000000E+00
  0.00000000E+00  0.00000000E+00  0.00000000E+00  0.00000000E+00 -2.21301540E-01
  0.00000000E+00  0.00000000E+00 -6.99367995E-01  0.00000000E+00  0.00000000E+00
 -9.38533640E-01  0.00000000E+00  0.00000000E+00  0.00000000E+00 -4.73303969E-02
  0.00000000E+00  0.00000000E+00  0.00000000E+00  0.00000000E+00 -8.37133388E-02
  0.00000000E+00  0.00000000E+00  0.00000000E+00  0.00000000E+00  0.00000000E+00
  0.00000000E+00  0.00000000E+00  0.00000000E+00  0.00000000E+00  0.00000000E+00
  0.00000000E+00  0.00000000E+00  0.00000000E+00  0.00000000E+00  0.00000000E+00
  0.00000000E+00  0.00000000E+00  0.00000000E+00  0.00000000E+00  0.00000000E+00
  1.21389626E-04  0.00000000E+00  0.00000000E+00  4.98825197E-03  0.00000000E+00
  0.00000000E+00 -1.55874584E-02  0.00000000E+00  0.00000000E+00  0.00000000E+00
  1.41276156E-03  0.00000000E+00  0.00000000E+00  0.00000000E+00  0.00000000E+00
  5.07194673E-03  0.00000000E+00  0.00000000E+00  0.00000000E+00  0.00000000E+00
  0.00000000E+00  0.00000000E+00  0.00000000E+00  2.40519820E-02  0.00000000E+00
  0.00000000E+00  2.07962932E-02  0.00000000E+00  0.00000000E+00 -5.13162435E-02
  0.00000000E+00  0.00000000E+00  0.00000000E+00  6.79065745E-02  0.00000000E+00
  0.00000000E+00  0.00000000E+00  0.00000000E+00 -8.53776928E-02  0.00000000E+00
  0.00000000E+00  0.00000000E+00  0.00000000E+00  0.00000000E+00  0.00000000E+00
  0.00000000E+00 -2.34839285E-01  0.00000000E+00  0.00000000E+00 -3.03841983E-01
  0.00000000E+00  0.00000000E+00 -1.23766691E-01  0.00000000E+00  0.00000000E+00
  0.00000000E+00  0.00000000E+00  0.00000000E+00  0.00000000E+00  0.00000000E+00
  0.00000000E+00  0.00000000E+00  0.00000000E+00  0.00000000E+00  0.00000000E+00
  0.00000000E+00  0.00000000E+00  0.00000000E+00  0.00000000E+00  0.00000000E+00
  0.00000000E+00  0.00000000E+00 -1.52084639E-04  0.00000000E+00  0.00000000E+00
  0.00000000E+00  0.00000000E+00 -9.22365114E-03  0.00000000E+00  0.00000000E+00
  0.00000000E+00  0.00000000E+00  0.00000000E+00  0.00000000E+00  0.00000000E+00
  0.00000000E+00  0.00000000E+00  0.00000000E+00  0.00000000E+00  0.00000000E+00
  0.00000000E+00  0.00000000E+00  0.00000000E+00  0.00000000E+00  0.00000000E+00
 -2.22710224E-02  0.00000000E+00  0.00000000E+00  0.00000000E+00  0.00000000E+00
 -4.70628304E-02  0.00000000E+00  0.00000000E+00  0.00000000E+00  0.00000000E+00
  0.00000000E+00  0.00000000E+00  0.00000000E+00  0.00000000E+00  0.00000000E+00
  0.00000000E+00  0.00000000E+00  0.00000000E+00  0.00000000E+00  0.00000000E+00
  0.00000000E+00 -8.32342061E-05 -1.33278442E-02 -5.41902321E-02 -2.05903613E-02
  0.00000000E+00  0.00000000E+00 -1.56084677E-04  0.00000000E+00  0.00000000E+00
 -2.89285155E-02  0.00000000E+00  0.00000000E+00 -9.42889544E-02 -1.41276156E-03
  0.00000000E+00  0.00000000E+00  1.52084639E-04  0.00000000E+00 -1.13900406E-01
  0.00000000E+00  0.00000000E+00  9.22365114E-03  0.00000000E+00 -1.57318101E-02
 -1.12036528E-01 -9.29520699E-02 -1.74530377E-02  0.00000000E+00  0.00000000E+00
 -3.04020559E-02  0.00000000E+00  0.00000000E+00 -1.96325818E-01  0.00000000E+00
  0.00000000E+00 -4.73303969E-02 -6.79065745E-02  0.00000000E+00  0.00000000E+00
  2.22710224E-02  0.00000000E+00 -1.05059149E-01  0.00000000E+00  0.00000000E+00
  4.70628304E-02  0.00000000E+00  0.00000000E+00  0.00000000E+00  0.00000000E+00
  0.00000000E+00  0.00000000E+00  0.00000000E+00  4.06753573E-01  0.00000000E+00
  0.00000000E+00  5.26269752E-01  0.00000000E+00  0.00000000E+00  2.14370196E-01
  0.00000000E+00  0.00000000E+00  0.00000000E+00  0.00000000E+00  0.00000000E+00
  0.00000000E+00  0.00000000E+00  0.00000000E+00 -7.50365818E-06  0.00000000E+00
  0.00000000E+00 -3.12688120E-03  0.00000000E+00  0.00000000E+00 -3.99525075E-02
  0.00000000E+00  0.00000000E+00  0.00000000E+00 -1.52084639E-04  0.00000000E+00
  0.00000000E+00  0.00000000E+00  0.00000000E+00 -3.94712520E-02  0.00000000E+00
  0.00000000E+00  0.00000000E+00  0.00000000E+00  0.00000000E+00  0.00000000E+00
  0.00000000E+00 -3.59468487E-03  0.00000000E+00  0.00000000E+00 -5.69522083E-02
  0.00000000E+00  0.00000000E+00 -1.03430717E-01  0.00000000E+00  0.00000000E+00
  0.00000000E+00 -2.22710224E-02  0.00000000E+00  0.00000000E+00  0.00000000E+00
  0.00000000E+00 -2.01398428E-01  0.00000000E+00  0.00000000E+00  0.00000000E+00
  0.00000000E+00  0.00000000E+00  0.00000000E+00  0.00000000E+00 -4.06753573E-01
  0.00000000E+00  0.00000000E+00 -5.26269752E-01  0.00000000E+00  0.00000000E+00
 -2.14370196E-01  0.00000000E+00  0.00000000E+00  0.00000000E+00  0.00000000E+00
  0.00000000E+00  0.00000000E+00  0.00000000E+00  0.00000000E+00  0.00000000E+00
  7.50365818E-06  0.00000000E+00  0.00000000E+00  3.12688120E-03  0.00000000E+00
  0.00000000E+00  3.99525075E-02  0.00000000E+00  0.00000000E+00  0.00000000E+00
  1.52084639E-04  0.00000000E+00  0.00000000E+00  0.00000000E+00  0.00000000E+00
  3.94712520E-02  0.00000000E+00  0.00000000E+00  0.00000000E+00  0.00000000E+00
  0.00000000E+00  0.00000000E+00  0.00000000E+00  3.59468487E-03  0.00000000E+00
  0.00000000E+00  5.69522083E-02  0.00000000E+00  0.00000000E+00  1.03430717E-01
  0.00000000E+00  0.00000000E+00  0.00000000E+00  2.22710224E-02  0.00000000E+00
  0.00000000E+00  0.00000000E+00  0.00000000E+00  2.01398428E-01  0.00000000E+00
  0.00000000E+00  0.00000000E+00  0.00000000E+00  0.00000000E+00  0.00000000E+00
  0.00000000E+00  4.06753573E-01  0.00000000E+00  0.00000000E+00  5.26269752E-01
  0.00000000E+00  0.00000000E+00  2.14370196E-01  0.00000000E+00  0.00000000E+00
  0.00000000E+00  0.00000000E+00  0.00000000E+00  0.00000000E+00  0.00000000E+00
  0.00000000E+00  0.00000000E+00  0.00000000E+00  0.00000000E+00  0.00000000E+00
  7.06893105E-02  0.00000000E+00  0.00000000E+00  2.10148297E-01  0.00000000E+00
  0.00000000E+00  1.35243982E-02  0.00000000E+00  0.00000000E+00  0.00000000E+00
  1.13900406E-01  0.00000000E+00  0.00000000E+00  0.00000000E+00  0.00000000E+00
  1.92625771E-01  0.00000000E+00  0.00000000E+00  0.00000000E+00  0.00000000E+00
  0.00000000E+00  0.00000000E+00  0.00000000E+00  2.54747558E-01  0.00000000E+00
  0.00000000E+00  3.53009787E-01  0.00000000E+00  0.00000000E+00 -1.96382869E-01
  0.00000000E+00  0.00000000E+00  0.00000000E+00  1.05059149E-01  0.00000000E+00
  0.00000000E+00  0.00000000E+00  0.00000000E+00 -3.26958965E-01  0.00000000E+00
  0.00000000E+00  0.00000000E+00  0.00000000E+00  0.00000000E+00  0.00000000E+00
  0.00000000E+00 -7.44264636E-02  0.00000000E+00  0.00000000E+00 -4.24195101E-01
  0.00000000E+00  0.00000000E+00 -6.48776709E-01  0.00000000E+00  0.00000000E+00
  0.00000000E+00  0.00000000E+00  0.00000000E+00  0.00000000E+00  0.00000000E+00
  0.00000000E+00  0.00000000E+00  0.00000000E+00  0.00000000E+00  0.00000000E+00
  0.00000000E+00  0.00000000E+00  0.00000000E+00  0.00000000E+00  0.00000000E+00
  0.00000000E+00  0.00000000E+00  0.00000000E+00  0.00000000E+00  0.00000000E+00
  0.00000000E+00  0.00000000E+00 -3.94712520E-02  0.00000000E+00  0.00000000E+00
  0.00000000E+00  0.00000000E+00 -2.28385560E-01  0.00000000E+00  0.00000000E+00
  0.00000000E+00  0.00000000E+00  0.00000000E+00  0.00000000E+00  0.00000000E+00
  0.00000000E+00  0.00000000E+00  0.00000000E+00  0.00000000E+00  0.00000000E+00
  0.00000000E+00  0.00000000E+00  0.00000000E+00  0.00000000E+00  0.00000000E+00
 -2.01398428E-01  0.00000000E+00  0.00000000E+00  0.00000000E+00  0.00000000E+00
 -5.31821846E-01  0.00000000E+00  0.00000000E+00  0.00000000E+00  0.00000000E+00
  0.00000000E+00  0.00000000E+00  0.00000000E+00  0.00000000E+00  0.00000000E+00
  0.00000000E+00  0.00000000E+00  0.00000000E+00  0.00000000E+00  0.00000000E+00
  0.00000000E+00  0.00000000E+00  0.00000000E+00  0.00000000E+00  0.00000000E+00
  0.00000000E+00 -1.78924224E-02 -1.62513150E-01 -4.13537497E-01 -2.09038921E-01
  0.00000000E+00  0.00000000E+00 -1.91037764E-02  0.00000000E+00  0.00000000E+00
 -2.14224783E-01  0.00000000E+00  0.00000000E+00 -4.90450164E-01 -5.07194673E-03
  0.00000000E+00  0.00000000E+00  3.94712520E-02  0.00000000E+00 -1.92625771E-01
  0.00000000E+00  0.00000000E+00  2.28385560E-01  0.00000000E+00 -9.50855536E-02
 -4.50231700E-01 -5.71874563E-01 -1.74038282E-01  0.00000000E+00  0.00000000E+00
 -5.69698030E-02  0.00000000E+00  0.00000000E+00 -3.07390354E-01  0.00000000E+00
  0.00000000E+00 -8.37133388E-02  8.53776928E-02  0.00000000E+00  0.00000000E+00
  2.01398428E-01  0.00000000E+00  3.26958965E-01  0.00000000E+00  0.00000000E+00
  5.31821846E-01  0.00000000E+00  0.00000000E+00  0.00000000E+00  0.00000000E+00
  0.00000000E+00  0.00000000E+00  0.00000000E+00  1.28910416E-01  0.00000000E+00
  0.00000000E+00  7.34727467E-01  0.00000000E+00  0.00000000E+00  1.12371422E+00
  0.00000000E+00  0.00000000E+00  0.00000000E+00  0.00000000E+00  0.00000000E+00
  0.00000000E+00  0.00000000E+00  0.00000000E+00  0.00000000E+00  0.00000000E+00
  0.00000000E+00  0.00000000E+00  0.00000000E+00 -2.89917542E-03  0.00000000E+00
  0.00000000E+00 -4.81255572E-02  0.00000000E+00  0.00000000E+00 -3.05103140E-01
  0.00000000E+00  0.00000000E+00  0.00000000E+00 -9.22365114E-03  0.00000000E+00
  0.00000000E+00  0.00000000E+00  0.00000000E+00 -2.28385560E-01  0.00000000E+00
  0.00000000E+00  0.00000000E+00  0.00000000E+00  0.00000000E+00  0.00000000E+00
  0.00000000E+00 -2.48523350E-02  0.00000000E+00  0.00000000E+00 -2.25219657E-01
  0.00000000E+00  0.00000000E+00 -6.38307600E-01  0.00000000E+00  0.00000000E+00
  0.00000000E+00 -4.70628304E-02  0.00000000E+00  0.00000000E+00  0.00000000E+00
  0.00000000E+00 -5.31821846E-01  0.00000000E+00  0.00000000E+00  0.00000000E+00
  0.00000000E+00  0.00000000E+00  0.00000000E+00  0.00000000E+00 -1.28910416E-01
  0.00000000E+00  0.00000000E+00 -7.34727467E-01  0.00000000E+00  0.00000000E+00
 -1.12371422E+00  0.00000000E+00  0.00000000E+00  0.00000000E+00  0.00000000E+00
  0.00000000E+00  0.00000000E+00  0.00000000E+00  0.00000000E+00  0.00000000E+00
  0.00000000E+00  0.00000000E+00  0.00000000E+00  0.00000000E+00  0.00000000E+00
  2.89917542E-03  0.00000000E+00  0.00000000E+00  4.81255572E-02  0.00000000E+00
  0.00000000E+00  3.05103140E-01  0.00000000E+00  0.00000000E+00  0.00000000E+00
  9.22365114E-03  0.00000000E+00  0.00000000E+00  0.00000000E+00  0.00000000E+00
  2.28385560E-01  0.00000000E+00  0.00000000E+00  0.00000000E+00  0.00000000E+00
  0.00000000E+00  0.00000000E+00  0.00000000E+00  2.48523350E-02  0.00000000E+00
  0.00000000E+00  2.25219657E-01  0.00000000E+00  0.00000000E+00  6.38307600E-01
  0.00000000E+00  0.00000000E+00  0.00000000E+00  4.70628304E-02  0.00000000E+00
  0.00000000E+00  0.00000000E+00  0.00000000E+00  5.31821846E-01  0.00000000E+00
  0.00000000E+00  0.00000000E+00  0.00000000E+00  0.00000000E+00  0.00000000E+00
  0.00000000E+00  1.28910416E-01  0.00000000E+00  0.00000000E+00  7.34727467E-01
  0.00000000E+00  0.00000000E+00  1.12371422E+00  0.00000000E+00  0.00000000E+00
  0.00000000E+00  0.00000000E+00  0.00000000E+00  0.00000000E+00  0.00000000E+00
  0.00000000E+00  0.00000000E+00  0.00000000E+00  0.00000000E+00  0.00000000E+00
Multipole Matrix (0,0,1)                   R   N=        2415
 -1.45068177E+00 -1.02459484E+00 -1.45068177E+00 -5.41870037E-01 -1.14441107E+00
 -1.45068177E+00 -2.06981788E-01 -5.38993397E-01 -1.03040663E+00 -1.45068177E+00
  0.00000000E+00  0.00000000E+00  0.00000000E+00  0.00000000E+00 -1.45068177E+00
  0.00000000E+00  0.00000000E+00  0.00000000E+00  0.00000000E+00  0.00000000E+00
 -1.45068177E+00  4.17326919E-01  4.72884226E-01  2.80778475E-01  1.11862100E-01
  0.00000000E+00  0.00000000E+00 -1.45068177E+00  0.00000000E+00  0.00000000E+00
  0.00000000E+00  0.00000000E+00 -8.92058406E-01  0.00000000E+00  0.00000000E+00
 -1.45068177E+00  0.00000000E+00  0.00000000E+00  0.00000000E+00  0.00000000E+00
  0.00000000E+00 -8.92058406E-01  0.00000000E+00  0.00000000E+00 -1.45068177E+00
  2.84964978E-01  8.67674035E-01  9.31584681E-01  4.99863277E-01  0.00000000E+00
  0.00000000E+00 -8.92058406E-01  0.00000000E+00  0.00000000E+00 -1.45068177E+00
  0.00000000E+00  0.00000000E+00  0.00000000E+00  0.00000000E+00 -2.59144431E-01
  0.00000000E+00  0.00000000E+00 -8.61880024E-01  0.00000000E+00  0.00000000E+00
 -1.45068177E+00  0.00000000E+00  0.00000000E+00  0.00000000E+00  0.00000000E+00
  0.00000000E+00 -2.59144431E-01  0.00000000E+00  0.00000000E+00 -8.61880024E-01
  0.00000000E+00  0.00000000E+00 -1.45068177E+00  8.86326162E-02  5.87362976E-01
  1.56019339E+00  1.78809431E+00  0.00000000E+00  0.00000000E+00 -2.59144431E-01
  0.00000000E+00  0.00000000E+00 -8.61880024E-01  0.00000000E+00  0.00000000E+00
 -1.45068177E+00  0.00000000E+00  0.00000000E+00  0.00000000E+00  0.00000000E+00
  0.00000000E+00  0.00000000E+00  4.69678570E-01  0.00000000E+00  0.00000000E+00
  6.07683966E-01  0.00000000E+00  0.00000000E+00  2.47533381E-01 -1.45068177E+00
  0.00000000E+00  0.00000000E+00  0.00000000E+00  0.00000000E+00  4.06753573E-01
  0.00000000E+00  0.00000000E+00  5.26269752E-01  0.00000000E+00  0.00000000E+00
  2.14370196E-01  0.00000000E+00  0.00000000E+00  0.00000000E+00 -1.45068177E+00
  0.00000000E+00  0.00000000E+00  0.00000000E+00  0.00000000E+00  0.00000000E+00
  4.06753573E-01  0.00000000E+00  0.00000000E+00  5.26269752E-01  0.00000000E+00
  0.00000000E+00  2.14370196E-01  0.00000000E+00  0.00000000E+00  0.00000000E+00
 -1.45068177E+00  3.06797371E-17 -2.16351735E-17  2.37218081E-17 -1.98622503E-18
  0.00000000E+00  0.00000000E+00  1.11038724E-17  0.00000000E+00  0.00000000E+00
  4.09699414E-18  0.00000000E+00  0.00000000E+00  4.41234122E-18  1.80694656E-18
  0.00000000E+00  0.00000000E+00 -1.45068177E+00  0.00000000E+00  0.00000000E+00
  0.00000000E+00  0.00000000E+00  0.00000000E+00  0.00000000E+00  0.00000000E+00
  0.00000000E+00  0.00000000E+00  0.00000000E+00  0.00000000E+00  0.00000000E+00
  0.00000000E+00  0.00000000E+00  0.00000000E+00  0.00000000E+00  0.00000000E+00
 -1.45068177E+00  0.00000000E+00  0.00000000E+00  0.00000000E+00  0.00000000E+00
  0.00000000E+00  0.00000000E+00  1.48852927E-01  0.00000000E+00  0.00000000E+00
  8.48390202E-01  0.00000000E+00  0.00000000E+00  1.29755342E+00 -6.18096757E-01
  0.00000000E+00  0.00000000E+00 -3.96458066E-17  0.00000000E+00 -1.45068177E+00
  0.00000000E+00  0.00000000E+00  0.00000000E+00  0.00000000E+00  1.28910416E-01
  0.00000000E+00  0.00000000E+00  7.34727467E-01  0.00000000E+00  0.00000000E+00
  1.12371422E+00  0.00000000E+00  0.00000000E+00  0.00000000E+00 -6.18096757E-01
  0.00000000E+00  0.00000000E+00  0.00000000E+00  0.00000000E+00 -1.45068177E+00
  0.00000000E+00  0.00000000E+00  0.00000000E+00  0.00000000E+00  0.00000000E+00
  1.28910416E-01  0.00000000E+00  0.00000000E+00  7.34727467E-01  0.00000000E+00
  0.00000000E+00  1.12371422E+00  0.00000000E+00  0.00000000E+00  0.00000000E+00
 -6.18096757E-01  0.00000000E+00  0.00000000E+00  0.00000000E+00  0.00000000E+00
 -1.45068177E+00 -1.15871092E-17 -1.17147478E-17  1.20113244E-17 -2.95631140E-17
  0.00000000E+00  0.00000000E+00  6.56517578E-18  0.00000000E+00  0.00000000E+00
 -4.12095071E-18  0.00000000E+00  0.00000000E+00  4.87874335E-17  1.18902310E-17
  0.00000000E+00  0.00000000E+00 -6.18096757E-01  0.00000000E+00  9.24403064E-18
  0.00000000E+00  0.00000000E+00 -1.45068177E+00  0.00000000E+00  0.00000000E+00
  0.00000000E+00  0.00000000E+00  0.00000000E+00  0.00000000E+00  0.00000000E+00
  0.00000000E+00  0.00000000E+00  0.00000000E+00  0.00000000E+00  0.00000000E+00
  0.00000000E+00  0.00000000E+00  0.00000000E+00  0.00000000E+00  0.00000000E+00
 -6.18096757E-01  0.00000000E+00  0.00000000E+00  0.00000000E+00  0.00000000E+00
 -1.45068177E+00 -1.78440259E-01 -1.22480113E-01 -3.40200357E-02 -3.95631265E-03
  0.00000000E+00  0.00000000E+00 -1.81327511E-01  0.00000000E+00  0.00000000E+00
 -3.55122859E-02  0.00000000E+00  0.00000000E+00  4.40037783E-02 -4.43066155E-02
  0.00000000E+00  0.00000000E+00  1.30968062E-18  0.00000000E+00  1.04572764E-01
  0.00000000E+00  0.00000000E+00  1.25309326E-18  0.00000000E+00  0.00000000E+00
 -4.71744752E-01 -5.14822577E-01 -2.32720349E-01 -3.69155979E-02  0.00000000E+00
  0.00000000E+00 -3.07453696E-02  0.00000000E+00  0.00000000E+00  1.52188755E-01
  0.00000000E+00  0.00000000E+00  3.35703119E-01  1.32941761E-01  0.00000000E+00
  0.00000000E+00  2.57393396E-17  0.00000000E+00  4.24493654E-01  0.00000000E+00
  0.00000000E+00  8.12085232E-18  0.00000000E+00  0.00000000E+00  0.00000000E+00
 -4.09816471E-01 -7.38269618E-01 -6.51043726E-01 -1.94911962E-01  0.00000000E+00
  0.00000000E+00  1.37077210E-01  0.00000000E+00  0.00000000E+00  5.16853338E-01
  0.00000000E+00  0.00000000E+00  1.09915854E+00  7.63757596E-02  0.00000000E+00
  0.00000000E+00 -2.25774037E-17  0.00000000E+00  4.39451664E-01  0.00000000E+00
  0.00000000E+00  4.87871568E-17  0.00000000E+00  0.00000000E+00  0.00000000E+00
  0.00000000E+00 -1.92520046E-01 -4.76132295E-01 -7.92456790E-01 -7.06315612E-01
  0.00000000E+00  0.00000000E+00  9.50816256E-02  0.00000000E+00  0.00000000E+00
  4.28060550E-01  0.00000000E+00  0.00000000E+00  1.56749178E+00  1.14062620E-02
  0.00000000E+00  0.00000000E+00  1.12780340E-18  0.00000000E+00  1.13041967E-01
  0.00000000E+00  0.00000000E+00  7.15113352E-18  0.00000000E+00  0.00000000E+00
  0.00000000E+00  0.00000000E+00  0.00000000E+00  0.00000000E+00  0.00000000E+00
  0.00000000E+00  0.00000000E+00 -1.65032387E-01  0.00000000E+00  0.00000000E+00
 -1.01670660E-01  0.00000000E+00  0.00000000E+00 -1.43393685E-02  0.00000000E+00
  0.00000000E+00  0.00000000E+00 -1.75923662E-01  0.00000000E+00  0.00000000E+00
  0.00000000E+00  0.00000000E+00  9.57973781E-03  0.00000000E+00  0.00000000E+00
  0.00000000E+00  0.00000000E+00  0.00000000E+00  0.00000000E+00  0.00000000E+00
  0.00000000E+00  0.00000000E+00  0.00000000E+00  0.00000000E+00  0.00000000E+00
  0.00000000E+00 -1.65032387E-01  0.00000000E+00  0.00000000E+00 -1.01670660E-01
  0.00000000E+00  0.00000000E+00 -1.43393685E-02  0.00000000E+00  0.00000000E+00
  0.00000000E+00 -1.75923662E-01  0.00000000E+00  0.00000000E+00  0.00000000E+00
  0.00000000E+00  9.57973781E-03  0.00000000E+00  0.00000000E+00  0.00000000E+00
  0.00000000E+00  0.00000000E+00  0.00000000E+00  0.00000000E+00  0.00000000E+00
  3.76038829E-01  3.40873225E-01  2.36304201E-01  1.06369472E-01  0.00000000E+00
  0.00000000E+00  3.23628509E-01  0.00000000E+00  0.00000000E+00  2.95491989E-01
  0.00000000E+00  0.00000000E+00  1.74860165E-01  1.10354294E-01  0.00000000E+00
  0.00000000E+00  9.67212516E-18  0.00000000E+00  2.04817257E-01  0.00000000E+00
  0.00000000E+00  3.25305742E-18  0.00000000E+00  4.17326919E-01  4.72884226E-01
  2.80778475E-01  1.11862100E-01  0.00000000E+00  0.00000000E+00  0.00000000E+00
  0.00000000E+00  0.00000000E+00  0.00000000E+00  0.00000000E+00 -3.68687161E-01
  0.00000000E+00  0.00000000E+00 -4.82206804E-01  0.00000000E+00  0.00000000E+00
 -1.51367465E-01  0.00000000E+00  0.00000000E+00  0.00000000E+00 -5.63501904E-02
  0.00000000E+00  0.00000000E+00  0.00000000E+00  0.00000000E+00  1.95079007E-01
  0.00000000E+00  0.00000000E+00  0.00000000E+00  0.00000000E+00  0.00000000E+00
  0.00000000E+00  0.00000000E+00  0.00000000E+00  0.00000000E+00  0.00000000E+00
  0.00000000E+00  0.00000000E+00  0.00000000E+00  0.00000000E+00  0.00000000E+00
  0.00000000E+00 -3.68687161E-01  0.00000000E+00  0.00000000E+00 -4.82206804E-01
  0.00000000E+00  0.00000000E+00 -1.51367465E-01  0.00000000E+00  0.00000000E+00
  0.00000000E+00 -5.63501904E-02  0.00000000E+00  0.00000000E+00  0.00000000E+00
  0.00000000E+00  1.95079007E-01  0.00000000E+00  0.00000000E+00  0.00000000E+00
  0.00000000E+00  0.00000000E+00  0.00000000E+00  0.00000000E+00  0.00000000E+00
  0.00000000E+00  0.00000000E+00  0.00000000E+00  7.79981858E-01  9.71829841E-01
  8.56281716E-01  4.78617786E-01  0.00000000E+00  0.00000000E+00 -1.63756164E-01
  0.00000000E+00  0.00000000E+00 -8.84669572E-02  0.00000000E+00  0.00000000E+00
  3.24511822E-01 -1.52622911E-01  0.00000000E+00  0.00000000E+00 -4.26245977E-17
  0.00000000E+00  2.65677053E-01  0.00000000E+00  0.00000000E+00 -2.19849899E-18
  0.00000000E+00  2.84964978E-01  8.67674035E-01  9.31584681E-01  4.99863277E-01
  0.00000000E+00  0.00000000E+00  0.00000000E+00  0.00000000E+00  0.00000000E+00
  0.00000000E+00  0.00000000E+00  0.00000000E+00  0.00000000E+00  0.00000000E+00
 -1.97798935E-01  0.00000000E+00  0.00000000E+00 -5.75789967E-01  0.00000000E+00
  0.00000000E+00 -6.51523440E-01  0.00000000E+00  0.00000000E+00  0.00000000E+00
  1.07246491E-01  0.00000000E+00  0.00000000E+00  0.00000000E+00  0.00000000E+00
  6.72026355E-01  0.00000000E+00  0.00000000E+00  0.00000000E+00  0.00000000E+00
  0.00000000E+00  0.00000000E+00  0.00000000E+00  0.00000000E+00  0.00000000E+00
  0.00000000E+00  0.00000000E+00  0.00000000E+00  0.00000000E+00  0.00000000E+00
  0.00000000E+00  0.00000000E+00  0.00000000E+00  0.00000000E+00  0.00000000E+00
 -1.97798935E-01  0.00000000E+00  0.00000000E+00 -5.75789967E-01  0.00000000E+00
  0.00000000E+00 -6.51523440E-01  0.00000000E+00  0.00000000E+00  0.00000000E+00
  1.07246491E-01  0.00000000E+00  0.00000000E+00  0.00000000E+00  0.00000000E+00
  6.72026355E-01  0.00000000E+00  0.00000000E+00  0.00000000E+00  0.00000000E+00
  0.00000000E+00  0.00000000E+00  0.00000000E+00  0.00000000E+00  0.00000000E+00
  0.00000000E+00  0.00000000E+00  0.00000000E+00  0.00000000E+00  0.00000000E+00
  4.22773649E-01  1.01967004E+00  1.70471086E+00  1.74966892E+00  0.00000000E+00
  0.00000000E+00 -3.02080729E-01  0.00000000E+00  0.00000000E+00 -8.04474888E-01
  0.00000000E+00  0.00000000E+00 -5.11669558E-01  6.35964651E-02  0.00000000E+00
  0.00000000E+00 -9.68672029E-18  0.00000000E+00  5.58689702E-01  0.00000000E+00
  0.00000000E+00 -4.41262899E-17  0.00000000E+00  8.86326162E-02  5.87362976E-01
  1.56019339E+00  1.78809431E+00  0.00000000E+00  0.00000000E+00  0.00000000E+00
  0.00000000E+00  0.00000000E+00  0.00000000E+00  0.00000000E+00  0.00000000E+00
  0.00000000E+00 -6.02735790E-01 -3.24472125E-01 -9.69322665E-02 -1.20458131E-02
  0.00000000E+00  0.00000000E+00 -1.00661826E-01  0.00000000E+00  0.00000000E+00
  6.73052164E-02  0.00000000E+00  0.00000000E+00  1.33866655E-01  7.54998060E-02
  0.00000000E+00  0.00000000E+00 -2.84176614E-17  0.00000000E+00  1.85681735E-01
  0.00000000E+00  0.00000000E+00  1.57922991E-18  0.00000000E+00  0.00000000E+00
  0.00000000E+00  0.00000000E+00  0.00000000E+00  0.00000000E+00  0.00000000E+00
  4.69678570E-01  0.00000000E+00  0.00000000E+00  6.07683966E-01  0.00000000E+00
  0.00000000E+00  2.47533381E-01  0.00000000E+00  0.00000000E+00  0.00000000E+00
  0.00000000E+00  0.00000000E+00  5.00405617E-01  0.00000000E+00  0.00000000E+00
  4.16600565E-01  0.00000000E+00  0.00000000E+00  1.82915672E-01  0.00000000E+00
  0.00000000E+00  0.00000000E+00  2.92043586E-01  0.00000000E+00  0.00000000E+00
  0.00000000E+00  0.00000000E+00  2.39842790E-01  0.00000000E+00  0.00000000E+00
  0.00000000E+00  0.00000000E+00  0.00000000E+00  0.00000000E+00  0.00000000E+00
  4.06753573E-01  0.00000000E+00  0.00000000E+00  5.26269752E-01  0.00000000E+00
  0.00000000E+00  2.14370196E-01  0.00000000E+00  0.00000000E+00  0.00000000E+00
  0.00000000E+00  0.00000000E+00  0.00000000E+00  0.00000000E+00  0.00000000E+00
  0.00000000E+00  5.00405617E-01  0.00000000E+00  0.00000000E+00  4.16600565E-01
  0.00000000E+00  0.00000000E+00  1.82915672E-01  0.00000000E+00  0.00000000E+00
  0.00000000E+00  2.92043586E-01  0.00000000E+00  0.00000000E+00  0.00000000E+00
  0.00000000E+00  2.39842790E-01  0.00000000E+00  0.00000000E+00  0.00000000E+00
  0.00000000E+00  0.00000000E+00  0.00000000E+00  0.00000000E+00  4.06753573E-01
  0.00000000E+00  0.00000000E+00  5.26269752E-01  0.00000000E+00  0.00000000E+00
  2.14370196E-01  0.00000000E+00  0.00000000E+00  0.00000000E+00  0.00000000E+00
  4.39323263E-18 -3.61791760E-18  3.08005563E-18  2.69068897E-19  0.00000000E+00
  0.00000000E+00 -6.54568530E-18  0.00000000E+00  0.00000000E+00  1.50012426E-18
  0.00000000E+00  0.00000000E+00  1.68592080E-18 -3.01353401E-18  0.00000000E+00
  0.00000000E+00 -2.38513358E-01  0.00000000E+00  4.73027833E-19  0.00000000E+00
  0.00000000E+00 -7.68223655E-02  0.00000000E+00  0.00000000E+00  0.00000000E+00
  0.00000000E+00  0.00000000E+00  0.00000000E+00  0.00000000E+00  1.11038724E-17
  0.00000000E+00  0.00000000E+00  4.09699414E-18  0.00000000E+00  0.00000000E+00
  4.41234122E-18  0.00000000E+00  0.00000000E+00  0.00000000E+00  0.00000000E+00
  0.00000000E+00  0.00000000E+00  0.00000000E+00  0.00000000E+00  0.00000000E+00
  0.00000000E+00  0.00000000E+00  0.00000000E+00  0.00000000E+00  0.00000000E+00
  0.00000000E+00  0.00000000E+00  0.00000000E+00  0.00000000E+00  0.00000000E+00
  0.00000000E+00  0.00000000E+00 -2.38513358E-01  0.00000000E+00  0.00000000E+00
  0.00000000E+00  0.00000000E+00 -7.68223655E-02  0.00000000E+00  0.00000000E+00
  0.00000000E+00  0.00000000E+00  0.00000000E+00  0.00000000E+00  0.00000000E+00
  0.00000000E+00  0.00000000E+00  0.00000000E+00  0.00000000E+00  0.00000000E+00
  0.00000000E+00  0.00000000E+00  0.00000000E+00  0.00000000E+00  0.00000000E+00
  0.00000000E+00 -5.92599798E-01 -8.37715123E-01 -5.51541569E-01 -1.19355667E-01
  0.00000000E+00  0.00000000E+00  5.20813989E-01  0.00000000E+00  0.00000000E+00
  9.53844410E-01  0.00000000E+00  0.00000000E+00  9.64532812E-01 -2.31560453E-01
  0.00000000E+00  0.00000000E+00  3.33760705E-17  0.00000000E+00 -2.22049034E-01
  0.00000000E+00  0.00000000E+00 -1.42048132E-17  0.00000000E+00  0.00000000E+00
  0.00000000E+00  0.00000000E+00  0.00000000E+00  0.00000000E+00  0.00000000E+00
  1.48852927E-01  0.00000000E+00  0.00000000E+00  8.48390202E-01  0.00000000E+00
  0.00000000E+00  1.29755342E+00  0.00000000E+00  0.00000000E+00  0.00000000E+00
  0.00000000E+00  0.00000000E+00  0.00000000E+00  0.00000000E+00  0.00000000E+00
  0.00000000E+00  0.00000000E+00  5.00170926E-01  0.00000000E+00  0.00000000E+00
  1.06844126E+00  0.00000000E+00  0.00000000E+00  1.08645730E+00  0.00000000E+00
  0.00000000E+00  0.00000000E+00 -3.03642733E-01  0.00000000E+00  0.00000000E+00
  0.00000000E+00  0.00000000E+00 -2.68586688E-01  0.00000000E+00  0.00000000E+00
  0.00000000E+00  0.00000000E+00  0.00000000E+00  0.00000000E+00  0.00000000E+00
  1.28910416E-01  0.00000000E+00  0.00000000E+00  7.34727467E-01  0.00000000E+00
  0.00000000E+00  1.12371422E+00  0.00000000E+00  0.00000000E+00  0.00000000E+00
  0.00000000E+00  0.00000000E+00  0.00000000E+00  0.00000000E+00  0.00000000E+00
  0.00000000E+00  0.00000000E+00  0.00000000E+00  0.00000000E+00  0.00000000E+00
  0.00000000E+00  5.00170926E-01  0.00000000E+00  0.00000000E+00  1.06844126E+00
  0.00000000E+00  0.00000000E+00  1.08645730E+00  0.00000000E+00  0.00000000E+00
  0.00000000E+00 -3.03642733E-01  0.00000000E+00  0.00000000E+00  0.00000000E+00
  0.00000000E+00 -2.68586688E-01  0.00000000E+00  0.00000000E+00  0.00000000E+00
  0.00000000E+00  0.00000000E+00  0.00000000E+00  0.00000000E+00  1.28910416E-01
  0.00000000E+00  0.00000000E+00  7.34727467E-01  0.00000000E+00  0.00000000E+00
  1.12371422E+00  0.00000000E+00  0.00000000E+00  0.00000000E+00  0.00000000E+00
  0.00000000E+00  0.00000000E+00  0.00000000E+00  0.00000000E+00  0.00000000E+00
  3.94809991E-18  2.68871558E-17 -1.04216380E-17 -2.54785072E-18  0.00000000E+00
  0.00000000E+00  9.02559178E-20  0.00000000E+00  0.00000000E+00  1.41020372E-18
  0.00000000E+00  0.00000000E+00 -2.10456604E-17  2.58183937E-18  0.00000000E+00
  0.00000000E+00 -3.28749961E-01  0.00000000E+00 -1.48335625E-17  0.00000000E+00
  0.00000000E+00 -5.59329502E-01  0.00000000E+00  0.00000000E+00  0.00000000E+00
  0.00000000E+00  0.00000000E+00  0.00000000E+00  0.00000000E+00  6.56517578E-18
  0.00000000E+00  0.00000000E+00 -4.12095071E-18  0.00000000E+00  0.00000000E+00
  4.87874335E-17  0.00000000E+00  0.00000000E+00  0.00000000E+00  0.00000000E+00
  0.00000000E+00  0.00000000E+00  0.00000000E+00  0.00000000E+00  0.00000000E+00
  0.00000000E+00  0.00000000E+00  0.00000000E+00  0.00000000E+00  0.00000000E+00
  0.00000000E+00  0.00000000E+00  0.00000000E+00  0.00000000E+00  0.00000000E+00
  0.00000000E+00  0.00000000E+00  0.00000000E+00  0.00000000E+00  0.00000000E+00
  0.00000000E+00  0.00000000E+00 -3.28749961E-01  0.00000000E+00  0.00000000E+00
  0.00000000E+00  0.00000000E+00 -5.59329502E-01  0.00000000E+00  0.00000000E+00
  0.00000000E+00  0.00000000E+00  0.00000000E+00  0.00000000E+00  0.00000000E+00
  0.00000000E+00  0.00000000E+00  0.00000000E+00  0.00000000E+00  0.00000000E+00
  0.00000000E+00  0.00000000E+00  0.00000000E+00  0.00000000E+00  0.00000000E+00
  0.00000000E+00  0.00000000E+00  0.00000000E+00  0.00000000E+00  0.00000000E+00
  0.00000000E+00  1.39554360E-05  1.27726051E-02  1.66592570E-01  2.47596660E-01
  0.00000000E+00  0.00000000E+00  2.27769050E-05  0.00000000E+00  0.00000000E+00
  2.75968291E-02  0.00000000E+00  0.00000000E+00  4.37091472E-01  4.62533899E-04
  0.00000000E+00  0.00000000E+00  5.70710001E-22  0.00000000E+00  2.44828051E-01
  0.00000000E+00  0.00000000E+00  1.39923472E-19  0.00000000E+00  1.10382460E-02
  2.06574261E-01  4.59183067E-01  3.22341527E-01  0.00000000E+00  0.00000000E+00
  2.50656957E-02  0.00000000E+00  0.00000000E+00  4.51460836E-01  0.00000000E+00
  0.00000000E+00  8.01668256E-01  1.07928624E-01  0.00000000E+00  0.00000000E+00
 -7.48974994E-19  0.00000000E+00  1.00607212E+00  0.00000000E+00  0.00000000E+00
 -3.03626790E-19  0.00000000E+00  2.79903959E+00 -3.67105781E-03  3.55699105E-02
  3.42841346E-01  6.06609859E-01  0.00000000E+00  0.00000000E+00 -3.20153652E-03
  0.00000000E+00  0.00000000E+00  8.33992302E-02  0.00000000E+00  0.00000000E+00
  8.58584839E-01  5.81369141E-03  0.00000000E+00  0.00000000E+00 -7.99921960E-20
  0.00000000E+00  4.38767089E-01  0.00000000E+00  0.00000000E+00 -8.22128802E-19
  0.00000000E+00  5.47014722E-02  3.90576724E-01  9.10605957E-01  8.03204865E-01
  0.00000000E+00  0.00000000E+00  1.16643231E-01  0.00000000E+00  0.00000000E+00
  7.21508871E-01  0.00000000E+00  0.00000000E+00  1.56212163E+00  2.07170482E-01
  0.00000000E+00  0.00000000E+00  6.44841044E-19  0.00000000E+00  1.27466676E+00
  0.00000000E+00  0.00000000E+00 -3.06918416E-18  0.00000000E+00  1.97691980E+00
  2.79903959E+00 -7.57050232E-02 -8.32097121E-02  2.66695554E-01  9.65396431E-01
  0.00000000E+00  0.00000000E+00 -6.94916017E-04  0.00000000E+00  0.00000000E+00
  1.09633211E-01  0.00000000E+00  0.00000000E+00  9.87439149E-01  3.32333599E-02
  0.00000000E+00  0.00000000E+00 -2.53489810E-18  0.00000000E+00  4.35283779E-01
  0.00000000E+00  0.00000000E+00 -1.46397575E-18  0.00000000E+00  3.82034061E-02
  2.87044910E-01  9.35963595E-01  1.36132039E+00  0.00000000E+00  0.00000000E+00
  1.47167121E-01  0.00000000E+00  0.00000000E+00  6.59149815E-01  0.00000000E+00
  0.00000000E+00  1.88843583E+00  1.14979697E-01  0.00000000E+00  0.00000000E+00
  1.26762247E-18  0.00000000E+00  8.16382983E-01  0.00000000E+00  0.00000000E+00
  8.10048046E-18  0.00000000E+00  1.04551923E+00  2.20810102E+00  2.79903959E+00
 -1.24561114E-01 -2.78554197E-01 -3.01305026E-01  5.36676804E-01  0.00000000E+00
  0.00000000E+00  5.03520714E-02  0.00000000E+00  0.00000000E+00  2.42433538E-01
  0.00000000E+00  0.00000000E+00  1.07878536E+00  2.03263219E-02  0.00000000E+00
  0.00000000E+00  6.30030084E-18  0.00000000E+00  2.14004663E-01  0.00000000E+00
  0.00000000E+00 -1.12546114E-17  0.00000000E+00  6.62505175E-03  6.22742630E-02
  3.34829145E-01  1.26766660E+00  0.00000000E+00  0.00000000E+00  9.27410262E-02
  0.00000000E+00  0.00000000E+00  4.25146438E-01  0.00000000E+00  0.00000000E+00
  1.64569072E+00  2.02461200E-02  0.00000000E+00  0.00000000E+00 -2.49020509E-19
  0.00000000E+00  2.04652002E-01  0.00000000E+00  0.00000000E+00 -1.25384182E-18
  0.00000000E+00  3.99364100E-01  1.03996885E+00  1.98813344E+00  2.79903959E+00
  0.00000000E+00  0.00000000E+00  0.00000000E+00  0.00000000E+00  2.04612582E-06
  0.00000000E+00  0.00000000E+00  4.76047565E-03  0.00000000E+00  0.00000000E+00
  8.05379861E-02  0.00000000E+00  0.00000000E+00  0.00000000E+00  9.50846685E-05
  0.00000000E+00  0.00000000E+00  0.00000000E+00  0.00000000E+00  7.79400887E-02
  0.00000000E+00  0.00000000E+00  0.00000000E+00  0.00000000E+00  0.00000000E+00
  0.00000000E+00  0.00000000E+00  5.65323205E-03  0.00000000E+00  0.00000000E+00
  1.24520920E-01  0.00000000E+00  0.00000000E+00  2.21301540E-01  0.00000000E+00
  0.00000000E+00  0.00000000E+00  4.88486246E-02  0.00000000E+00  0.00000000E+00
  0.00000000E+00  0.00000000E+00  4.90940384E-01  0.00000000E+00  0.00000000E+00
  0.00000000E+00  0.00000000E+00  0.00000000E+00  0.00000000E+00  0.00000000E+00
  2.79903959E+00  0.00000000E+00  0.00000000E+00  0.00000000E+00  0.00000000E+00
  0.00000000E+00  2.04612582E-06  0.00000000E+00  0.00000000E+00  4.76047565E-03
  0.00000000E+00  0.00000000E+00  8.05379861E-02  0.00000000E+00  0.00000000E+00
  0.00000000E+00  9.50846685E-05  0.00000000E+00  0.00000000E+00  0.00000000E+00
  0.00000000E+00  7.79400887E-02  0.00000000E+00  0.00000000E+00  0.00000000E+00
  0.00000000E+00  0.00000000E+00  0.00000000E+00  0.00000000E+00  5.65323205E-03
  0.00000000E+00  0.00000000E+00  1.24520920E-01  0.00000000E+00  0.00000000E+00
  2.21301540E-01  0.00000000E+00  0.00000000E+00  0.00000000E+00  4.88486246E-02
  0.00000000E+00  0.00000000E+00  0.00000000E+00  0.00000000E+00  4.90940384E-01
  0.00000000E+00  0.00000000E+00  0.00000000E+00  0.00000000E+00  0.00000000E+00
  0.00000000E+00  0.00000000E+00  2.79903959E+00 -3.10637829E-05 -1.80601617E-02
 -5.93638128E-02  2.96658359E-02  0.00000000E+00  0.00000000E+00 -4.99471698E-05
  0.00000000E+00  0.00000000E+00 -4.14273443E-02  0.00000000E+00  0.00000000E+00
 -7.82864782E-02 -1.05575247E-03  0.00000000E+00  0.00000000E+00 -4.66114984E-22
  0.00000000E+00 -1.91855390E-01  0.00000000E+00  0.00000000E+00  6.51314586E-20
  0.00000000E+00 -2.41866315E-02 -1.87190954E-01 -6.62913715E-02  5.62881150E-02
  0.00000000E+00  0.00000000E+00 -5.66641203E-02  0.00000000E+00  0.00000000E+00
 -3.78702329E-01  0.00000000E+00  0.00000000E+00  9.67698512E-02 -2.03822853E-01
  0.00000000E+00  0.00000000E+00 -4.39472544E-19  0.00000000E+00 -1.44448454E-01
  0.00000000E+00  0.00000000E+00  1.26261445E-18  0.00000000E+00  4.17326919E-01
  4.72884226E-01  2.80778475E-01  1.11862100E-01  0.00000000E+00  0.00000000E+00
  2.79903959E+00  0.00000000E+00  0.00000000E+00  0.00000000E+00  0.00000000E+00
 -1.34700047E-03  0.00000000E+00  0.00000000E+00  2.02839509E-02  0.00000000E+00
  0.00000000E+00  2.64494305E-01  0.00000000E+00  0.00000000E+00  0.00000000E+00
 -6.54402879E-05  0.00000000E+00  0.00000000E+00  0.00000000E+00  0.00000000E+00
  2.30004302E-01  0.00000000E+00  0.00000000E+00  0.00000000E+00  0.00000000E+00
  0.00000000E+00  0.00000000E+00  0.00000000E+00  3.43383916E-02  0.00000000E+00
  0.00000000E+00  3.06117086E-01  0.00000000E+00  0.00000000E+00  6.99367995E-01
  0.00000000E+00  0.00000000E+00  0.00000000E+00  1.49924653E-01  0.00000000E+00
  0.00000000E+00  0.00000000E+00  0.00000000E+00  1.06187020E+00  0.00000000E+00
  0.00000000E+00  0.00000000E+00  0.00000000E+00  0.00000000E+00  0.00000000E+00
  0.00000000E+00  1.72119540E+00  0.00000000E+00  0.00000000E+00  2.79903959E+00
  0.00000000E+00  0.00000000E+00  0.00000000E+00  0.00000000E+00  0.00000000E+00
 -1.34700047E-03  0.00000000E+00  0.00000000E+00  2.02839509E-02  0.00000000E+00
  0.00000000E+00  2.64494305E-01  0.00000000E+00  0.00000000E+00  0.00000000E+00
 -6.54402879E-05  0.00000000E+00  0.00000000E+00  0.00000000E+00  0.00000000E+00
  2.30004302E-01  0.00000000E+00  0.00000000E+00  0.00000000E+00  0.00000000E+00
  0.00000000E+00  0.00000000E+00  0.00000000E+00  3.43383916E-02  0.00000000E+00
  0.00000000E+00  3.06117086E-01  0.00000000E+00  0.00000000E+00  6.99367995E-01
  0.00000000E+00  0.00000000E+00  0.00000000E+00  1.49924653E-01  0.00000000E+00
  0.00000000E+00  0.00000000E+00  0.00000000E+00  1.06187020E+00  0.00000000E+00
  0.00000000E+00  0.00000000E+00  0.00000000E+00  0.00000000E+00  0.00000000E+00
  0.00000000E+00  1.72119540E+00  0.00000000E+00  0.00000000E+00  2.79903959E+00
  7.58186758E-03 -4.88745420E-02 -1.43330914E-01  1.48143538E-01  0.00000000E+00
  0.00000000E+00  7.34273986E-03  0.00000000E+00  0.00000000E+00 -1.21852409E-01
  0.00000000E+00  0.00000000E+00 -1.64425649E-01 -1.14018742E-02  0.00000000E+00
  0.00000000E+00 -3.34271548E-19  0.00000000E+00 -3.71852709E-01  0.00000000E+00
  0.00000000E+00  1.74308215E-18  0.00000000E+00 -1.03172216E-01 -3.84565078E-01
 -1.34330235E-01  2.60846225E-01  0.00000000E+00  0.00000000E+00 -2.19484110E-01
  0.00000000E+00  0.00000000E+00 -6.24427912E-01  0.00000000E+00  0.00000000E+00
  3.29787000E-01 -3.04380002E-01  0.00000000E+00  0.00000000E+00 -5.34031553E-18
  0.00000000E+00 -4.81391966E-02  0.00000000E+00  0.00000000E+00  1.13035893E-17
  0.00000000E+00  2.84964978E-01  8.67674035E-01  9.31584681E-01  4.99863277E-01
  0.00000000E+00  0.00000000E+00  1.72119540E+00  0.00000000E+00  0.00000000E+00
  2.79903959E+00  0.00000000E+00  0.00000000E+00  0.00000000E+00  0.00000000E+00
 -3.73041307E-02  0.00000000E+00  0.00000000E+00 -7.82049862E-02  0.00000000E+00
  0.00000000E+00  2.68386688E-01  0.00000000E+00  0.00000000E+00  0.00000000E+00
  2.66012892E-03  0.00000000E+00  0.00000000E+00  0.00000000E+00  0.00000000E+00
  2.49915626E-01  0.00000000E+00  0.00000000E+00  0.00000000E+00  0.00000000E+00
  0.00000000E+00  0.00000000E+00  0.00000000E+00  1.60431820E-02  0.00000000E+00
  0.00000000E+00  1.83854473E-01  0.00000000E+00  0.00000000E+00  9.38533640E-01
  0.00000000E+00  0.00000000E+00  0.00000000E+00  1.17979093E-01  0.00000000E+00
  0.00000000E+00  0.00000000E+00  0.00000000E+00  9.36470093E-01  0.00000000E+00
  0.00000000E+00  0.00000000E+00  0.00000000E+00  0.00000000E+00  0.00000000E+00
  0.00000000E+00  5.00010090E-01  0.00000000E+00  0.00000000E+00  1.66296727E+00
  0.00000000E+00  0.00000000E+00  2.79903959E+00  0.00000000E+00  0.00000000E+00
  0.00000000E+00  0.00000000E+00  0.00000000E+00 -3.73041307E-02  0.00000000E+00
  0.00000000E+00 -7.82049862E-02  0.00000000E+00  0.00000000E+00  2.68386688E-01
  0.00000000E+00  0.00000000E+00  0.00000000E+00  2.66012892E-03  0.00000000E+00
  0.00000000E+00  0.00000000E+00  0.00000000E+00  2.49915626E-01  0.00000000E+00
  0.00000000E+00  0.00000000E+00  0.00000000E+00  0.00000000E+00  0.00000000E+00
  0.00000000E+00  1.60431820E-02  0.00000000E+00  0.00000000E+00  1.83854473E-01
  0.00000000E+00  0.00000000E+00  9.38533640E-01  0.00000000E+00  0.00000000E+00
  0.00000000E+00  1.17979093E-01  0.00000000E+00  0.00000000E+00  0.00000000E+00
  0.00000000E+00  9.36470093E-01  0.00000000E+00  0.00000000E+00  0.00000000E+00
  0.00000000E+00  0.00000000E+00  0.00000000E+00  0.00000000E+00  5.00010090E-01
  0.00000000E+00  0.00000000E+00  1.66296727E+00  0.00000000E+00  0.00000000E+00
  2.79903959E+00  2.07802249E-01  3.19353681E-01  2.58716292E-01  7.19680963E-01
  0.00000000E+00  0.00000000E+00 -2.69979438E-02  0.00000000E+00  0.00000000E+00
 -1.92753912E-01  0.00000000E+00  0.00000000E+00 -2.26017402E-01 -7.21139750E-02
  0.00000000E+00  0.00000000E+00  1.01937308E-18  0.00000000E+00 -3.57291132E-01
  0.00000000E+00  0.00000000E+00 -9.65601494E-18  0.00000000E+00 -2.00002686E-02
 -6.94125207E-02  2.07023033E-01  1.04176465E+00  0.00000000E+00  0.00000000E+00
 -2.13123197E-01  0.00000000E+00  0.00000000E+00 -5.64338536E-01  0.00000000E+00
  0.00000000E+00  1.88521835E-01 -4.16970729E-02  0.00000000E+00  0.00000000E+00
  8.41833581E-19  0.00000000E+00  2.25048032E-01  0.00000000E+00  0.00000000E+00
  1.10790098E-18  0.00000000E+00  8.86326162E-02  5.87362976E-01  1.56019339E+00
  1.78809431E+00  0.00000000E+00  0.00000000E+00  5.00010090E-01  0.00000000E+00
  0.00000000E+00  1.66296727E+00  0.00000000E+00  0.00000000E+00  2.79903959E+00
  1.76296714E-04  2.29169928E-02  3.59025652E-03 -1.68849445E-02  0.00000000E+00
  0.00000000E+00  3.27471197E-04  0.00000000E+00  0.00000000E+00  5.48371497E-02
  0.00000000E+00  0.00000000E+00 -3.54426678E-02  4.68145582E-03  0.00000000E+00
  0.00000000E+00 -3.06757110E-21  0.00000000E+00  9.53533601E-02  0.00000000E+00
  0.00000000E+00  4.32608758E-19  0.00000000E+00  6.08185570E-02  1.23045565E-01
 -2.86188368E-02 -1.62577832E-02  0.00000000E+00  0.00000000E+00  1.37398166E-01
  0.00000000E+00  0.00000000E+00  1.84834954E-01  0.00000000E+00  0.00000000E+00
 -9.34640689E-02  2.85465695E-01  0.00000000E+00  0.00000000E+00  1.65631415E-18
  0.00000000E+00 -9.73219411E-02  0.00000000E+00  0.00000000E+00  3.26490631E-18
  0.00000000E+00  0.00000000E+00  0.00000000E+00  0.00000000E+00  0.00000000E+00
  0.00000000E+00  0.00000000E+00  4.69678570E-01  0.00000000E+00  0.00000000E+00
  6.07683966E-01  0.00000000E+00  0.00000000E+00  2.47533381E-01  2.79903959E+00
  0.00000000E+00  0.00000000E+00  0.00000000E+00  0.00000000E+00 -2.59090294E-05
  0.00000000E+00  0.00000000E+00 -1.39694070E-02  0.00000000E+00  0.00000000E+00
 -4.40423382E-02  0.00000000E+00  0.00000000E+00  0.00000000E+00 -8.72887025E-04
  0.00000000E+00  0.00000000E+00  0.00000000E+00  0.00000000E+00 -1.12141086E-01
  0.00000000E+00  0.00000000E+00  0.00000000E+00  0.00000000E+00  0.00000000E+00
  0.00000000E+00  0.00000000E+00 -3.04020559E-02  0.00000000E+00  0.00000000E+00
 -1.96325818E-01  0.00000000E+00  0.00000000E+00 -4.73303969E-02  0.00000000E+00
  0.00000000E+00  0.00000000E+00 -1.62159682E-01  0.00000000E+00  0.00000000E+00
  0.00000000E+00  0.00000000E+00 -2.76093445E-01  0.00000000E+00  0.00000000E+00
  0.00000000E+00  0.00000000E+00  0.00000000E+00  0.00000000E+00  0.00000000E+00
  4.06753573E-01  0.00000000E+00  0.00000000E+00  5.26269752E-01  0.00000000E+00
  0.00000000E+00  2.14370196E-01  0.00000000E+00  0.00000000E+00  0.00000000E+00
  2.79903959E+00  0.00000000E+00  0.00000000E+00  0.00000000E+00  0.00000000E+00
  0.00000000E+00 -2.59090294E-05  0.00000000E+00  0.00000000E+00 -1.39694070E-02
  0.00000000E+00  0.00000000E+00 -4.40423382E-02  0.00000000E+00  0.00000000E+00
  0.00000000E+00 -8.72887025E-04  0.00000000E+00  0.00000000E+00  0.00000000E+00
  0.00000000E+00 -1.12141086E-01  0.00000000E+00  0.00000000E+00  0.00000000E+00
  0.00000000E+00  0.00000000E+00  0.00000000E+00  0.00000000E+00 -3.04020559E-02
  0.00000000E+00  0.00000000E+00 -1.96325818E-01  0.00000000E+00  0.00000000E+00
 -4.73303969E-02  0.00000000E+00  0.00000000E+00  0.00000000E+00 -1.62159682E-01
  0.00000000E+00  0.00000000E+00  0.00000000E+00  0.00000000E+00 -2.76093445E-01
  0.00000000E+00  0.00000000E+00  0.00000000E+00  0.00000000E+00  0.00000000E+00
  0.00000000E+00  0.00000000E+00  4.06753573E-01  0.00000000E+00  0.00000000E+00
  5.26269752E-01  0.00000000E+00  0.00000000E+00  2.14370196E-01  0.00000000E+00
  0.00000000E+00  0.00000000E+00  2.79903959E+00 -2.13779758E-22  6.54732598E-19
 -7.03507335E-18 -1.16922018E-17  0.00000000E+00  0.00000000E+00  9.36631389E-22
  0.00000000E+00  0.00000000E+00  1.28446733E-18  0.00000000E+00  0.00000000E+00
 -9.87518779E-18  1.64650300E-20  0.00000000E+00  0.00000000E+00  4.82536371E-05
  0.00000000E+00  1.18493261E-17  0.00000000E+00  0.00000000E+00  2.28487956E-02
  0.00000000E+00 -3.84453287E-19 -1.14598435E-17 -3.52322085E-18  1.15685353E-17
  0.00000000E+00  0.00000000E+00  8.37032789E-19  0.00000000E+00  0.00000000E+00
  2.65424767E-17  0.00000000E+00  0.00000000E+00 -1.42226549E-17 -2.15283768E-18
  0.00000000E+00  0.00000000E+00  2.22710224E-02  0.00000000E+00 -7.45434023E-18
  0.00000000E+00  0.00000000E+00  2.01398428E-01  0.00000000E+00  6.48150451E-17
  5.23859394E-17 -6.02283377E-17 -2.43470918E-17  0.00000000E+00  0.00000000E+00
  1.11038724E-17  0.00000000E+00  0.00000000E+00  4.09699414E-18  0.00000000E+00
  0.00000000E+00  4.41234122E-18 -1.02435142E-17  0.00000000E+00  0.00000000E+00
  2.79903959E+00  0.00000000E+00  0.00000000E+00  0.00000000E+00  0.00000000E+00
  0.00000000E+00  0.00000000E+00  0.00000000E+00  0.00000000E+00  0.00000000E+00
  0.00000000E+00  0.00000000E+00  0.00000000E+00  0.00000000E+00  0.00000000E+00
  0.00000000E+00  0.00000000E+00  0.00000000E+00  4.82536371E-05  0.00000000E+00
  0.00000000E+00  0.00000000E+00  0.00000000E+00  2.28487956E-02  0.00000000E+00
  0.00000000E+00  0.00000000E+00  0.00000000E+00  0.00000000E+00  0.00000000E+00
  0.00000000E+00  0.00000000E+00  0.00000000E+00  0.00000000E+00  0.00000000E+00
  0.00000000E+00  0.00000000E+00  0.00000000E+00  0.00000000E+00  0.00000000E+00
  0.00000000E+00  2.22710224E-02  0.00000000E+00  0.00000000E+00  0.00000000E+00
  0.00000000E+00  2.01398428E-01  0.00000000E+00  0.00000000E+00  0.00000000E+00
  0.00000000E+00  0.00000000E+00  0.00000000E+00  0.00000000E+00  0.00000000E+00
  0.00000000E+00  0.00000000E+00  0.00000000E+00  0.00000000E+00  0.00000000E+00
  0.00000000E+00  0.00000000E+00  0.00000000E+00  0.00000000E+00  2.79903959E+00
 -1.00155106E-01 -8.84393129E-02 -1.54274719E-01 -1.79066869E-01  0.00000000E+00
  0.00000000E+00 -4.09977109E-02  0.00000000E+00  0.00000000E+00  5.45641022E-02
  0.00000000E+00  0.00000000E+00 -2.32201657E-01  4.04599383E-02  0.00000000E+00
  0.00000000E+00  6.48960062E-18  0.00000000E+00  1.22118527E-01  0.00000000E+00
  0.00000000E+00 -4.54787661E-18  0.00000000E+00  6.59375900E-02  5.23444764E-02
 -2.85059912E-01 -1.64881087E-01  0.00000000E+00  0.00000000E+00  2.64362806E-01
  0.00000000E+00  0.00000000E+00  2.40287960E-01  0.00000000E+00  0.00000000E+00
 -2.86708029E-01  1.21607164E-01  0.00000000E+00  0.00000000E+00  1.36050120E-18
  0.00000000E+00 -1.76528460E-01  0.00000000E+00  0.00000000E+00  6.08149863E-19
  0.00000000E+00  0.00000000E+00  0.00000000E+00  0.00000000E+00  0.00000000E+00
  0.00000000E+00  0.00000000E+00  1.48852927E-01  0.00000000E+00  0.00000000E+00
  8.48390202E-01  0.00000000E+00  0.00000000E+00  1.29755342E+00  1.19259601E+00
  0.00000000E+00  0.00000000E+00 -2.62683345E-17  0.00000000E+00  2.79903959E+00
  0.00000000E+00  0.00000000E+00  0.00000000E+00  0.00000000E+00  3.11919631E-02
  0.00000000E+00  0.00000000E+00  1.60095577E-02  0.00000000E+00  0.00000000E+00
 -1.06734564E-01  0.00000000E+00  0.00000000E+00  0.00000000E+00  1.58601326E-02
  0.00000000E+00  0.00000000E+00  0.00000000E+00  0.00000000E+00 -2.50782044E-01
  0.00000000E+00  0.00000000E+00  0.00000000E+00  0.00000000E+00  0.00000000E+00
  0.00000000E+00  0.00000000E+00 -5.69698030E-02  0.00000000E+00  0.00000000E+00
 -3.07390354E-01  0.00000000E+00  0.00000000E+00 -8.37133388E-02  0.00000000E+00
  0.00000000E+00  0.00000000E+00 -2.54918354E-01  0.00000000E+00  0.00000000E+00
  0.00000000E+00  0.00000000E+00 -4.97334153E-01  0.00000000E+00  0.00000000E+00
  0.00000000E+00  0.00000000E+00  0.00000000E+00  0.00000000E+00  0.00000000E+00
  1.28910416E-01  0.00000000E+00  0.00000000E+00  7.34727467E-01  0.00000000E+00
  0.00000000E+00  1.12371422E+00  0.00000000E+00  0.00000000E+00  0.00000000E+00
  1.19259601E+00  0.00000000E+00  0.00000000E+00  0.00000000E+00  0.00000000E+00
  2.79903959E+00  0.00000000E+00  0.00000000E+00  0.00000000E+00  0.00000000E+00
  0.00000000E+00  3.11919631E-02  0.00000000E+00  0.00000000E+00  1.60095577E-02
  0.00000000E+00  0.00000000E+00 -1.06734564E-01  0.00000000E+00  0.00000000E+00
  0.00000000E+00  1.58601326E-02  0.00000000E+00  0.00000000E+00  0.00000000E+00
  0.00000000E+00 -2.50782044E-01  0.00000000E+00  0.00000000E+00  0.00000000E+00
  0.00000000E+00  0.00000000E+00  0.00000000E+00  0.00000000E+00 -5.69698030E-02
  0.00000000E+00  0.00000000E+00 -3.07390354E-01  0.00000000E+00  0.00000000E+00
 -8.37133388E-02  0.00000000E+00  0.00000000E+00  0.00000000E+00 -2.54918354E-01
  0.00000000E+00  0.00000000E+00  0.00000000E+00  0.00000000E+00 -4.97334153E-01
  0.00000000E+00  0.00000000E+00  0.00000000E+00  0.00000000E+00  0.00000000E+00
  0.00000000E+00  0.00000000E+00  1.28910416E-01  0.00000000E+00  0.00000000E+00
  7.34727467E-01  0.00000000E+00  0.00000000E+00  1.12371422E+00  0.00000000E+00
  0.00000000E+00  0.00000000E+00  1.19259601E+00  0.00000000E+00  0.00000000E+00
  0.00000000E+00  0.00000000E+00  2.79903959E+00  4.11795350E-20  3.85381900E-19
 -5.42847031E-18  3.43807891E-17  0.00000000E+00  0.00000000E+00  5.19080581E-20
  0.00000000E+00  0.00000000E+00  7.32793435E-19  0.00000000E+00  0.00000000E+00
  4.63181153E-17  8.98492710E-20  0.00000000E+00  0.00000000E+00 -7.39880534E-03
  0.00000000E+00 -5.53087810E-18  0.00000000E+00  0.00000000E+00  7.24625052E-02
  0.00000000E+00  1.60738967E-19  8.30931547E-19  3.81678055E-17 -2.05577576E-17
  0.00000000E+00  0.00000000E+00  9.23324938E-19  0.00000000E+00  0.00000000E+00
 -2.44339089E-17  0.00000000E+00  0.00000000E+00  1.08020564E-16 -4.38026366E-19
  0.00000000E+00  0.00000000E+00  4.70628304E-02  0.00000000E+00 -2.06440571E-17
  0.00000000E+00  0.00000000E+00  5.31821846E-01  0.00000000E+00  1.26196620E-17
 -1.02573034E-17 -3.41742170E-17  1.11009794E-16  0.00000000E+00  0.00000000E+00
  6.56517578E-18  0.00000000E+00  0.00000000E+00 -4.12095071E-18  0.00000000E+00
  0.00000000E+00  4.87874335E-17  1.13941664E-17  0.00000000E+00  0.00000000E+00
  1.19259601E+00  0.00000000E+00 -3.99918505E-17  0.00000000E+00  0.00000000E+00
  2.79903959E+00  0.00000000E+00  0.00000000E+00  0.00000000E+00  0.00000000E+00
  0.00000000E+00  0.00000000E+00  0.00000000E+00  0.00000000E+00  0.00000000E+00
  0.00000000E+00  0.00000000E+00  0.00000000E+00  0.00000000E+00  0.00000000E+00
  0.00000000E+00  0.00000000E+00  0.00000000E+00 -7.39880534E-03  0.00000000E+00
  0.00000000E+00  0.00000000E+00  0.00000000E+00  7.24625052E-02  0.00000000E+00
  0.00000000E+00  0.00000000E+00  0.00000000E+00  0.00000000E+00  0.00000000E+00
  0.00000000E+00  0.00000000E+00  0.00000000E+00  0.00000000E+00  0.00000000E+00
  0.00000000E+00  0.00000000E+00  0.00000000E+00  0.00000000E+00  0.00000000E+00
  0.00000000E+00  4.70628304E-02  0.00000000E+00  0.00000000E+00  0.00000000E+00
  0.00000000E+00  5.31821846E-01  0.00000000E+00  0.00000000E+00  0.00000000E+00
  0.00000000E+00  0.00000000E+00  0.00000000E+00  0.00000000E+00  0.00000000E+00
  0.00000000E+00  0.00000000E+00  0.00000000E+00  0.00000000E+00  0.00000000E+00
  0.00000000E+00  0.00000000E+00  0.00000000E+00  0.00000000E+00  1.19259601E+00
  0.00000000E+00  0.00000000E+00  0.00000000E+00  0.00000000E+00  2.79903959E+00
Multipole Matrix (2,0,0)                   R   N=        2415
  1.76393444E-01  2.21880681E-01  7.67341928E-01  1.39282807E-01  9.20511195E-01
  2.43427459E+00  5.68664226E-02  5.29175765E-01  2.77544267E+00  9.89707047E+00
  0.00000000E+00  0.00000000E+00  0.00000000E+00  0.00000000E+00  5.33049041E-01
  0.00000000E+00  0.00000000E+00  0.00000000E+00  0.00000000E+00  0.00000000E+00
  1.77683014E-01  0.00000000E+00  0.00000000E+00  0.00000000E+00  0.00000000E+00
  0.00000000E+00  0.00000000E+00  1.77683014E-01  0.00000000E+00  0.00000000E+00
  0.00000000E+00  0.00000000E+00  5.13863703E-01  0.00000000E+00  0.00000000E+00
  1.93298969E+00  0.00000000E+00  0.00000000E+00  0.00000000E+00  0.00000000E+00
  0.00000000E+00  1.71287901E-01  0.00000000E+00  0.00000000E+00  6.44329897E-01
  0.00000000E+00  0.00000000E+00  0.00000000E+00  0.00000000E+00  0.00000000E+00
  0.00000000E+00  1.71287901E-01  0.00000000E+00  0.00000000E+00  6.44329897E-01
  0.00000000E+00  0.00000000E+00  0.00000000E+00  0.00000000E+00  1.77570879E-01
  0.00000000E+00  0.00000000E+00  1.81873674E+00  0.00000000E+00  0.00000000E+00
  7.35294118E+00  0.00000000E+00  0.00000000E+00  0.00000000E+00  0.00000000E+00
  0.00000000E+00  5.91902931E-02  0.00000000E+00  0.00000000E+00  6.06245580E-01
  0.00000000E+00  0.00000000E+00  2.45098039E+00  0.00000000E+00  0.00000000E+00
  0.00000000E+00  0.00000000E+00  0.00000000E+00  0.00000000E+00  5.91902931E-02
  0.00000000E+00  0.00000000E+00  6.06245580E-01  0.00000000E+00  0.00000000E+00
  2.45098039E+00 -1.07745898E-01 -2.49557776E-01 -1.94349589E-01 -8.64529820E-02
  0.00000000E+00  0.00000000E+00  0.00000000E+00  0.00000000E+00  0.00000000E+00
  0.00000000E+00  0.00000000E+00  0.00000000E+00  0.00000000E+00  3.94197414E-01
  0.00000000E+00  0.00000000E+00  0.00000000E+00  0.00000000E+00  0.00000000E+00
  0.00000000E+00  0.00000000E+00  0.00000000E+00  0.00000000E+00  0.00000000E+00
  0.00000000E+00  0.00000000E+00  0.00000000E+00  0.00000000E+00  7.09555345E-01
  0.00000000E+00  0.00000000E+00  0.00000000E+00  0.00000000E+00  0.00000000E+00
  0.00000000E+00  0.00000000E+00  0.00000000E+00  0.00000000E+00  0.00000000E+00
  0.00000000E+00  0.00000000E+00  0.00000000E+00  0.00000000E+00  0.00000000E+00
  2.36518448E-01  1.86621370E-01  4.32246747E-01  3.36623363E-01  1.49740957E-01
  0.00000000E+00  0.00000000E+00  0.00000000E+00  0.00000000E+00  0.00000000E+00
  0.00000000E+00  0.00000000E+00  0.00000000E+00  0.00000000E+00 -2.73107980E-01
  0.00000000E+00  0.00000000E+00  7.09555345E-01  0.00000000E+00  0.00000000E+00
  0.00000000E+00  0.00000000E+00  0.00000000E+00  0.00000000E+00  0.00000000E+00
  0.00000000E+00  0.00000000E+00  0.00000000E+00  0.00000000E+00  0.00000000E+00
  0.00000000E+00  0.00000000E+00  0.00000000E+00  0.00000000E+00  0.00000000E+00
  7.09555345E-01 -4.10760608E-02 -4.28456575E-01 -1.01378802E+00 -8.50326284E-01
  0.00000000E+00  0.00000000E+00  0.00000000E+00  0.00000000E+00  0.00000000E+00
  0.00000000E+00  0.00000000E+00  0.00000000E+00  0.00000000E+00  2.72286101E-01
  0.00000000E+00  0.00000000E+00 -1.88645345E-01  0.00000000E+00  1.68690958E+00
  0.00000000E+00  0.00000000E+00  0.00000000E+00  0.00000000E+00  0.00000000E+00
  0.00000000E+00  0.00000000E+00  0.00000000E+00  0.00000000E+00  0.00000000E+00
  0.00000000E+00  0.00000000E+00  0.00000000E+00  0.00000000E+00  4.90114982E-01
  0.00000000E+00  0.00000000E+00  0.00000000E+00  0.00000000E+00  3.03643725E+00
  0.00000000E+00  0.00000000E+00  0.00000000E+00  0.00000000E+00  0.00000000E+00
  0.00000000E+00  0.00000000E+00  0.00000000E+00  0.00000000E+00  0.00000000E+00
  0.00000000E+00  0.00000000E+00  0.00000000E+00  0.00000000E+00  0.00000000E+00
  1.63371661E-01  0.00000000E+00  0.00000000E+00  0.00000000E+00  0.00000000E+00
  1.01214575E+00  7.11458243E-02  7.42108557E-01  1.75593236E+00  1.47280833E+00
  0.00000000E+00  0.00000000E+00  0.00000000E+00  0.00000000E+00  0.00000000E+00
  0.00000000E+00  0.00000000E+00  0.00000000E+00  0.00000000E+00 -1.88645345E-01
  0.00000000E+00  0.00000000E+00  4.90114982E-01  0.00000000E+00 -1.16872524E+00
  0.00000000E+00  0.00000000E+00  3.03643725E+00  0.00000000E+00  0.00000000E+00
  0.00000000E+00  0.00000000E+00  0.00000000E+00  0.00000000E+00  0.00000000E+00
  0.00000000E+00  0.00000000E+00  0.00000000E+00  0.00000000E+00  0.00000000E+00
  0.00000000E+00  0.00000000E+00  0.00000000E+00  0.00000000E+00  0.00000000E+00
  4.90114982E-01  0.00000000E+00  0.00000000E+00  0.00000000E+00  0.00000000E+00
  3.03643725E+00  4.87227556E-02  1.29572354E-01  1.14172674E-01  5.39827629E-02
  0.00000000E+00  0.00000000E+00  7.02018147E-02  0.00000000E+00  0.00000000E+00
  1.68322224E-01  0.00000000E+00  0.00000000E+00  9.71168904E-02  5.66280229E-02
  0.00000000E+00  0.00000000E+00  5.77667998E-02  0.00000000E+00  8.34259005E-02
  0.00000000E+00  0.00000000E+00  4.63319704E-02  0.00000000E+00  1.76393444E-01
  1.29572354E-01  5.44633504E-01  7.81019301E-01  5.03702852E-01  0.00000000E+00
  0.00000000E+00  7.39174280E-02  0.00000000E+00  0.00000000E+00  3.95771965E-01
  0.00000000E+00  0.00000000E+00  5.51051476E-01 -1.00021420E-01  0.00000000E+00
  0.00000000E+00  2.55929088E-01  0.00000000E+00 -7.01458391E-02  0.00000000E+00
  0.00000000E+00  5.52159935E-01  0.00000000E+00  2.21880681E-01  7.67341928E-01
  1.14172674E-01  7.81019301E-01  2.18493018E+00  2.65951839E+00  0.00000000E+00
  0.00000000E+00  2.26535889E-02  0.00000000E+00  0.00000000E+00  2.38413005E-01
  0.00000000E+00  0.00000000E+00  1.01960435E+00 -1.53490224E-01  0.00000000E+00
  0.00000000E+00  2.76434729E-01  0.00000000E+00 -7.59784079E-01  0.00000000E+00
  0.00000000E+00  1.50733502E+00  0.00000000E+00  1.39282807E-01  9.20511195E-01
  2.43427459E+00  5.39827629E-02  5.03702852E-01  2.65951839E+00  9.63747600E+00
  0.00000000E+00  0.00000000E+00  2.71635837E-03  0.00000000E+00  0.00000000E+00
  4.21655531E-02  0.00000000E+00  0.00000000E+00  4.93400751E-01 -8.18753346E-02
  0.00000000E+00  0.00000000E+00  1.42165018E-01  0.00000000E+00 -8.02297924E-01
  0.00000000E+00  0.00000000E+00  1.40346467E+00  0.00000000E+00  5.68664226E-02
  5.29175765E-01  2.77544267E+00  9.89707047E+00  0.00000000E+00  0.00000000E+00
  0.00000000E+00  0.00000000E+00  1.21281396E-01  0.00000000E+00  0.00000000E+00
  2.70946173E-01  0.00000000E+00  0.00000000E+00  1.45361353E-01  0.00000000E+00
  0.00000000E+00  0.00000000E+00  2.83815814E-01  0.00000000E+00  0.00000000E+00
  0.00000000E+00  0.00000000E+00  3.06692632E-01  0.00000000E+00  0.00000000E+00
  0.00000000E+00  0.00000000E+00  0.00000000E+00  0.00000000E+00  0.00000000E+00
  5.33049041E-01  0.00000000E+00  0.00000000E+00  0.00000000E+00  0.00000000E+00
  0.00000000E+00  4.04271320E-02  0.00000000E+00  0.00000000E+00  9.03153912E-02
  0.00000000E+00  0.00000000E+00  4.84537844E-02  0.00000000E+00  0.00000000E+00
  0.00000000E+00  9.46052713E-02  0.00000000E+00  0.00000000E+00  0.00000000E+00
  0.00000000E+00  1.02230877E-01  0.00000000E+00  0.00000000E+00  0.00000000E+00
  0.00000000E+00  0.00000000E+00  0.00000000E+00  0.00000000E+00  1.77683014E-01
 -7.02018147E-02 -7.39174280E-02 -2.26535889E-02 -2.71635837E-03  0.00000000E+00
  0.00000000E+00 -7.92776055E-02  0.00000000E+00  0.00000000E+00 -2.52951520E-02
  0.00000000E+00  0.00000000E+00  2.90580139E-02  1.15161815E-02  0.00000000E+00
  0.00000000E+00 -7.10716217E-02  0.00000000E+00  7.62098961E-02  0.00000000E+00
  0.00000000E+00 -1.79467141E-02  0.00000000E+00  0.00000000E+00  0.00000000E+00
  0.00000000E+00  0.00000000E+00  0.00000000E+00  0.00000000E+00  1.77683014E-01
  0.00000000E+00  0.00000000E+00  0.00000000E+00  0.00000000E+00  2.70946173E-01
  0.00000000E+00  0.00000000E+00  1.28505203E+00  0.00000000E+00  0.00000000E+00
  1.53444552E+00  0.00000000E+00  0.00000000E+00  0.00000000E+00  3.38428697E-01
  0.00000000E+00  0.00000000E+00  0.00000000E+00  0.00000000E+00  1.42213163E+00
  0.00000000E+00  0.00000000E+00  0.00000000E+00  0.00000000E+00  0.00000000E+00
  0.00000000E+00  0.00000000E+00  5.13863703E-01  0.00000000E+00  0.00000000E+00
  1.93298969E+00  0.00000000E+00  0.00000000E+00  0.00000000E+00  0.00000000E+00
  0.00000000E+00  9.03153912E-02  0.00000000E+00  0.00000000E+00  4.28350678E-01
  0.00000000E+00  0.00000000E+00  5.11481838E-01  0.00000000E+00  0.00000000E+00
  0.00000000E+00  1.12809566E-01  0.00000000E+00  0.00000000E+00  0.00000000E+00
  0.00000000E+00  4.74043878E-01  0.00000000E+00  0.00000000E+00  0.00000000E+00
  0.00000000E+00  0.00000000E+00  0.00000000E+00  0.00000000E+00  1.71287901E-01
  0.00000000E+00  0.00000000E+00  6.44329897E-01 -1.68322224E-01 -3.95771965E-01
 -2.38413005E-01 -4.21655531E-02  0.00000000E+00  0.00000000E+00 -2.52951520E-02
  0.00000000E+00  0.00000000E+00  7.85863674E-02  0.00000000E+00  0.00000000E+00
  3.37605559E-01  2.29888502E-01  0.00000000E+00  0.00000000E+00 -3.07318842E-01
  0.00000000E+00  5.47753808E-01  0.00000000E+00  0.00000000E+00 -3.01775355E-01
  0.00000000E+00  0.00000000E+00  0.00000000E+00  0.00000000E+00  0.00000000E+00
  0.00000000E+00  0.00000000E+00  1.71287901E-01  0.00000000E+00  0.00000000E+00
  6.44329897E-01  0.00000000E+00  0.00000000E+00  0.00000000E+00  0.00000000E+00
  1.45361353E-01  0.00000000E+00  0.00000000E+00  1.53444552E+00  0.00000000E+00
  0.00000000E+00  6.60463738E+00  0.00000000E+00  0.00000000E+00  0.00000000E+00
  6.75079156E-02  0.00000000E+00  0.00000000E+00  0.00000000E+00  0.00000000E+00
  1.22785152E+00  0.00000000E+00  0.00000000E+00  0.00000000E+00  0.00000000E+00
  0.00000000E+00  0.00000000E+00  0.00000000E+00  1.77570879E-01  0.00000000E+00
  0.00000000E+00  1.81873674E+00  0.00000000E+00  0.00000000E+00  7.35294118E+00
  0.00000000E+00  0.00000000E+00  0.00000000E+00  0.00000000E+00  0.00000000E+00
  4.84537844E-02  0.00000000E+00  0.00000000E+00  5.11481838E-01  0.00000000E+00
  0.00000000E+00  2.20154579E+00  0.00000000E+00  0.00000000E+00  0.00000000E+00
  2.25026385E-02  0.00000000E+00  0.00000000E+00  0.00000000E+00  0.00000000E+00
  4.09283841E-01  0.00000000E+00  0.00000000E+00  0.00000000E+00  0.00000000E+00
  0.00000000E+00  0.00000000E+00  0.00000000E+00  5.91902931E-02  0.00000000E+00
  0.00000000E+00  6.06245580E-01  0.00000000E+00  0.00000000E+00  2.45098039E+00
 -9.71168904E-02 -5.51051476E-01 -1.01960435E+00 -4.93400751E-01  0.00000000E+00
  0.00000000E+00  2.90580139E-02  0.00000000E+00  0.00000000E+00  3.37605559E-01
  0.00000000E+00  0.00000000E+00  1.72896920E+00  1.55528871E-01  0.00000000E+00
  0.00000000E+00 -2.33189107E-01  0.00000000E+00  9.73019660E-01  0.00000000E+00
  0.00000000E+00 -9.91108910E-01  0.00000000E+00  0.00000000E+00  0.00000000E+00
  0.00000000E+00  0.00000000E+00  0.00000000E+00  0.00000000E+00  5.91902931E-02
  0.00000000E+00  0.00000000E+00  6.06245580E-01  0.00000000E+00  0.00000000E+00
  2.45098039E+00  5.66280229E-02 -1.00021420E-01 -1.53490224E-01 -8.18753346E-02
  0.00000000E+00  0.00000000E+00 -1.15161815E-02  0.00000000E+00  0.00000000E+00
 -2.29888502E-01  0.00000000E+00  0.00000000E+00 -1.55528871E-01 -8.81050947E-02
  0.00000000E+00  0.00000000E+00  1.00776977E-02  0.00000000E+00 -5.23032629E-02
  0.00000000E+00  0.00000000E+00 -1.11594517E-01  0.00000000E+00 -1.07745898E-01
 -2.49557776E-01 -1.94349589E-01 -8.64529820E-02  0.00000000E+00  0.00000000E+00
  0.00000000E+00  0.00000000E+00  0.00000000E+00  0.00000000E+00  0.00000000E+00
  0.00000000E+00  0.00000000E+00  3.94197414E-01  0.00000000E+00  0.00000000E+00
  0.00000000E+00  0.00000000E+00 -2.83815814E-01  0.00000000E+00  0.00000000E+00
 -3.38428697E-01  0.00000000E+00  0.00000000E+00 -6.75079156E-02  0.00000000E+00
  0.00000000E+00  0.00000000E+00 -2.85687862E-01  0.00000000E+00  0.00000000E+00
  0.00000000E+00  0.00000000E+00  5.05896650E-02  0.00000000E+00  0.00000000E+00
  0.00000000E+00  0.00000000E+00  0.00000000E+00  0.00000000E+00  0.00000000E+00
  0.00000000E+00  0.00000000E+00  0.00000000E+00  0.00000000E+00  0.00000000E+00
  0.00000000E+00  0.00000000E+00  0.00000000E+00  0.00000000E+00  0.00000000E+00
  7.09555345E-01  0.00000000E+00  0.00000000E+00  0.00000000E+00  0.00000000E+00
  0.00000000E+00 -9.46052713E-02  0.00000000E+00  0.00000000E+00 -1.12809566E-01
  0.00000000E+00  0.00000000E+00 -2.25026385E-02  0.00000000E+00  0.00000000E+00
  0.00000000E+00 -9.52292875E-02  0.00000000E+00  0.00000000E+00  0.00000000E+00
  0.00000000E+00  1.68632217E-02  0.00000000E+00  0.00000000E+00  0.00000000E+00
  0.00000000E+00  0.00000000E+00  0.00000000E+00  0.00000000E+00  0.00000000E+00
  0.00000000E+00  0.00000000E+00  0.00000000E+00  0.00000000E+00  0.00000000E+00
  0.00000000E+00  0.00000000E+00  0.00000000E+00  0.00000000E+00  2.36518448E-01
  5.77667998E-02  2.55929088E-01  2.76434729E-01  1.42165018E-01  0.00000000E+00
  0.00000000E+00  7.10716217E-02  0.00000000E+00  0.00000000E+00  3.07318842E-01
  0.00000000E+00  0.00000000E+00  2.33189107E-01  1.00776977E-02  0.00000000E+00
  0.00000000E+00  2.33322609E-01  0.00000000E+00  9.94078219E-02  0.00000000E+00
  0.00000000E+00  3.21595400E-01  0.00000000E+00  1.86621370E-01  4.32246747E-01
  3.36623363E-01  1.49740957E-01  0.00000000E+00  0.00000000E+00  0.00000000E+00
  0.00000000E+00  0.00000000E+00  0.00000000E+00  0.00000000E+00  0.00000000E+00
  0.00000000E+00 -2.73107980E-01  0.00000000E+00  0.00000000E+00  7.09555345E-01
  0.00000000E+00  0.00000000E+00  0.00000000E+00  0.00000000E+00  0.00000000E+00
  0.00000000E+00  0.00000000E+00  0.00000000E+00  0.00000000E+00  0.00000000E+00
  0.00000000E+00  0.00000000E+00  0.00000000E+00  0.00000000E+00  0.00000000E+00
  0.00000000E+00  0.00000000E+00  2.33322609E-01  0.00000000E+00  0.00000000E+00
  0.00000000E+00  0.00000000E+00  3.21595400E-01  0.00000000E+00  0.00000000E+00
  0.00000000E+00  0.00000000E+00  0.00000000E+00  0.00000000E+00  0.00000000E+00
  0.00000000E+00  0.00000000E+00  0.00000000E+00  0.00000000E+00  0.00000000E+00
  0.00000000E+00  0.00000000E+00  0.00000000E+00  0.00000000E+00  0.00000000E+00
  7.09555345E-01  8.34259005E-02 -7.01458391E-02 -7.59784079E-01 -8.02297924E-01
  0.00000000E+00  0.00000000E+00 -7.62098961E-02  0.00000000E+00  0.00000000E+00
 -5.47753808E-01  0.00000000E+00  0.00000000E+00 -9.73019660E-01 -5.23032629E-02
  0.00000000E+00  0.00000000E+00  9.94078219E-02  0.00000000E+00  5.59707272E-01
  0.00000000E+00  0.00000000E+00 -6.67001246E-01  0.00000000E+00 -4.10760608E-02
 -4.28456575E-01 -1.01378802E+00 -8.50326284E-01  0.00000000E+00  0.00000000E+00
  0.00000000E+00  0.00000000E+00  0.00000000E+00  0.00000000E+00  0.00000000E+00
  0.00000000E+00  0.00000000E+00  2.72286101E-01  0.00000000E+00  0.00000000E+00
 -1.88645345E-01  0.00000000E+00  1.68690958E+00  0.00000000E+00  0.00000000E+00
  0.00000000E+00  0.00000000E+00 -3.06692632E-01  0.00000000E+00  0.00000000E+00
 -1.42213163E+00  0.00000000E+00  0.00000000E+00 -1.22785152E+00  0.00000000E+00
  0.00000000E+00  0.00000000E+00  5.05896650E-02  0.00000000E+00  0.00000000E+00
  0.00000000E+00  0.00000000E+00  1.12436323E+00  0.00000000E+00  0.00000000E+00
  0.00000000E+00  0.00000000E+00  0.00000000E+00  0.00000000E+00  0.00000000E+00
  0.00000000E+00  0.00000000E+00  0.00000000E+00  0.00000000E+00  0.00000000E+00
  0.00000000E+00  0.00000000E+00  0.00000000E+00  0.00000000E+00  0.00000000E+00
  4.90114982E-01  0.00000000E+00  0.00000000E+00  0.00000000E+00  0.00000000E+00
  3.03643725E+00  0.00000000E+00  0.00000000E+00  0.00000000E+00  0.00000000E+00
  0.00000000E+00 -1.02230877E-01  0.00000000E+00  0.00000000E+00 -4.74043878E-01
  0.00000000E+00  0.00000000E+00 -4.09283841E-01  0.00000000E+00  0.00000000E+00
  0.00000000E+00  1.68632217E-02  0.00000000E+00  0.00000000E+00  0.00000000E+00
  0.00000000E+00  3.74787745E-01  0.00000000E+00  0.00000000E+00  0.00000000E+00
  0.00000000E+00  0.00000000E+00  0.00000000E+00  0.00000000E+00  0.00000000E+00
  0.00000000E+00  0.00000000E+00  0.00000000E+00  0.00000000E+00  0.00000000E+00
  0.00000000E+00  0.00000000E+00  0.00000000E+00  0.00000000E+00  1.63371661E-01
  0.00000000E+00  0.00000000E+00  0.00000000E+00  0.00000000E+00  1.01214575E+00
  4.63319704E-02  5.52159935E-01  1.50733502E+00  1.40346467E+00  0.00000000E+00
  0.00000000E+00  1.79467141E-02  0.00000000E+00  0.00000000E+00  3.01775355E-01
  0.00000000E+00  0.00000000E+00  9.91108910E-01 -1.11594517E-01  0.00000000E+00
  0.00000000E+00  3.21595400E-01  0.00000000E+00 -6.67001246E-01  0.00000000E+00
  0.00000000E+00  2.34147690E+00  0.00000000E+00  7.11458243E-02  7.42108557E-01
  1.75593236E+00  1.47280833E+00  0.00000000E+00  0.00000000E+00  0.00000000E+00
  0.00000000E+00  0.00000000E+00  0.00000000E+00  0.00000000E+00  0.00000000E+00
  0.00000000E+00 -1.88645345E-01  0.00000000E+00  0.00000000E+00  4.90114982E-01
  0.00000000E+00 -1.16872524E+00  0.00000000E+00  0.00000000E+00  3.03643725E+00
  0.00000000E+00  0.00000000E+00  0.00000000E+00  0.00000000E+00  0.00000000E+00
  0.00000000E+00  0.00000000E+00  0.00000000E+00  0.00000000E+00  0.00000000E+00
  0.00000000E+00  0.00000000E+00  0.00000000E+00  0.00000000E+00  0.00000000E+00
  0.00000000E+00  0.00000000E+00  3.21595400E-01  0.00000000E+00  0.00000000E+00
  0.00000000E+00  0.00000000E+00  2.34147690E+00  0.00000000E+00  0.00000000E+00
  0.00000000E+00  0.00000000E+00  0.00000000E+00  0.00000000E+00  0.00000000E+00
  0.00000000E+00  0.00000000E+00  0.00000000E+00  0.00000000E+00  0.00000000E+00
  0.00000000E+00  0.00000000E+00  0.00000000E+00  0.00000000E+00  0.00000000E+00
  4.90114982E-01  0.00000000E+00  0.00000000E+00  0.00000000E+00  0.00000000E+00
  3.03643725E+00  4.46384939E-06  2.21051802E-03  2.52949536E-02  3.63832378E-02
  0.00000000E+00  0.00000000E+00  7.78040375E-06  0.00000000E+00  0.00000000E+00
  4.67511408E-03  0.00000000E+00  0.00000000E+00  6.36222359E-02  1.01948878E-04
  0.00000000E+00  0.00000000E+00  8.44782888E-06  0.00000000E+00  3.52402214E-02
  0.00000000E+00  0.00000000E+00  1.79457939E-03  0.00000000E+00  1.68251052E-03
  2.99922396E-02  6.64496356E-02  4.68507871E-02  0.00000000E+00  0.00000000E+00
  3.41305156E-03  0.00000000E+00  0.00000000E+00  6.07946227E-02  0.00000000E+00
  0.00000000E+00  1.09425292E-01  1.19555929E-02  0.00000000E+00  0.00000000E+00
  2.41221912E-03  0.00000000E+00  1.18770266E-01  0.00000000E+00  0.00000000E+00
  1.44131323E-02  0.00000000E+00  1.76393444E-01  2.21051802E-03  4.04852233E-02
  2.24683730E-01  3.46522179E-01  0.00000000E+00  0.00000000E+00  3.17976506E-03
  0.00000000E+00  0.00000000E+00  6.87166598E-02  0.00000000E+00  0.00000000E+00
  4.67411125E-01  4.92582099E-03  0.00000000E+00  0.00000000E+00  4.81302785E-03
  0.00000000E+00  1.92913181E-01  0.00000000E+00  0.00000000E+00  5.86876848E-02
  0.00000000E+00  2.99922396E-02  2.14149094E-01  4.99275632E-01  4.40388747E-01
  0.00000000E+00  0.00000000E+00  3.13219765E-02  0.00000000E+00  0.00000000E+00
  2.76801591E-01  0.00000000E+00  0.00000000E+00  6.81265431E-01  7.19219934E-03
  0.00000000E+00  0.00000000E+00  6.14284454E-02  0.00000000E+00  2.71316964E-01
  0.00000000E+00  0.00000000E+00  2.46857287E-01  0.00000000E+00  2.21880681E-01
  7.67341928E-01  2.52949536E-02  2.24683730E-01  9.62964279E-01  1.92450248E+00
  0.00000000E+00  0.00000000E+00  1.44106016E-02  0.00000000E+00  0.00000000E+00
  1.91164710E-01  0.00000000E+00  0.00000000E+00  1.32010779E+00 -2.40680131E-02
  0.00000000E+00  0.00000000E+00  6.20812018E-02  0.00000000E+00  2.44589617E-02
  0.00000000E+00  0.00000000E+00  4.73755211E-01  0.00000000E+00  6.64496356E-02
  4.99275632E-01  1.62798154E+00  2.36783191E+00  0.00000000E+00  0.00000000E+00
  2.52571152E-02  0.00000000E+00  0.00000000E+00  2.88855683E-01  0.00000000E+00
  0.00000000E+00  1.46729510E+00 -8.00420786E-02  0.00000000E+00  0.00000000E+00
  1.61677500E-01  0.00000000E+00 -3.02880379E-01  0.00000000E+00  0.00000000E+00
  9.94698123E-01  0.00000000E+00  1.39282807E-01  9.20511195E-01  2.43427459E+00
  3.63832378E-02  3.46522179E-01  1.92450248E+00  7.87851424E+00  0.00000000E+00
  0.00000000E+00  5.35580120E-03  0.00000000E+00  0.00000000E+00  8.46071584E-02
  0.00000000E+00  0.00000000E+00  1.04639016E+00 -5.41914993E-02  0.00000000E+00
  0.00000000E+00  9.59047612E-02  0.00000000E+00 -5.14552018E-01  0.00000000E+00
  0.00000000E+00  9.73651094E-01  0.00000000E+00  4.68507871E-02  4.40388747E-01
  2.36783191E+00  8.96463612E+00  0.00000000E+00  0.00000000E+00  4.54643846E-03
  0.00000000E+00  0.00000000E+00  7.10191906E-02  0.00000000E+00  0.00000000E+00
  8.47720769E-01 -7.06004237E-02  0.00000000E+00  0.00000000E+00  1.23423723E-01
  0.00000000E+00 -6.84483907E-01  0.00000000E+00  0.00000000E+00  1.23075725E+00
  0.00000000E+00  5.68664226E-02  5.29175765E-01  2.77544267E+00  9.89707047E+00
  0.00000000E+00  0.00000000E+00  0.00000000E+00  0.00000000E+00  1.61779817E-06
  0.00000000E+00  0.00000000E+00  2.11552614E-03  0.00000000E+00  0.00000000E+00
  3.18728447E-02  0.00000000E+00  0.00000000E+00  0.00000000E+00  5.46271002E-05
  0.00000000E+00  0.00000000E+00  0.00000000E+00  0.00000000E+00  3.14423355E-02
  0.00000000E+00  0.00000000E+00  0.00000000E+00  0.00000000E+00  0.00000000E+00
  0.00000000E+00  0.00000000E+00  2.15320278E-03  0.00000000E+00  0.00000000E+00
  4.74275228E-02  0.00000000E+00  0.00000000E+00  8.42893213E-02  0.00000000E+00
  0.00000000E+00  0.00000000E+00  1.72363186E-02  0.00000000E+00  0.00000000E+00
  0.00000000E+00  0.00000000E+00  1.77523596E-01  0.00000000E+00  0.00000000E+00
  0.00000000E+00  0.00000000E+00  0.00000000E+00  0.00000000E+00  0.00000000E+00
  5.33049041E-01  0.00000000E+00  0.00000000E+00  0.00000000E+00  0.00000000E+00
  0.00000000E+00  5.39266056E-07  0.00000000E+00  0.00000000E+00  7.05175381E-04
  0.00000000E+00  0.00000000E+00  1.06242816E-02  0.00000000E+00  0.00000000E+00
  0.00000000E+00  1.82090334E-05  0.00000000E+00  0.00000000E+00  0.00000000E+00
  0.00000000E+00  1.04807785E-02  0.00000000E+00  0.00000000E+00  0.00000000E+00
  0.00000000E+00  0.00000000E+00  0.00000000E+00  0.00000000E+00  7.17734261E-04
  0.00000000E+00  0.00000000E+00  1.58091743E-02  0.00000000E+00  0.00000000E+00
  2.80964404E-02  0.00000000E+00  0.00000000E+00  0.00000000E+00  5.74543955E-03
  0.00000000E+00  0.00000000E+00  0.00000000E+00  0.00000000E+00  5.91745321E-02
  0.00000000E+00  0.00000000E+00  0.00000000E+00  0.00000000E+00  0.00000000E+00
  0.00000000E+00  0.00000000E+00  1.77683014E-01 -7.78040375E-06 -3.17976506E-03
 -1.44106016E-02 -5.35580120E-03  0.00000000E+00  0.00000000E+00 -1.31638108E-05
  0.00000000E+00  0.00000000E+00 -7.04139410E-03  0.00000000E+00  0.00000000E+00
 -2.58725791E-02 -2.00271420E-04  0.00000000E+00  0.00000000E+00 -1.36794231E-05
  0.00000000E+00 -3.27595315E-02  0.00000000E+00  0.00000000E+00 -1.83990923E-03
  0.00000000E+00 -3.41305156E-03 -3.13219765E-02 -2.52571152E-02 -4.54643846E-03
  0.00000000E+00  0.00000000E+00 -7.19407590E-03  0.00000000E+00  0.00000000E+00
 -5.95296149E-02  0.00000000E+00  0.00000000E+00 -1.37736993E-02 -2.22455388E-02
  0.00000000E+00  0.00000000E+00 -4.31622573E-03  0.00000000E+00 -3.81541951E-02
  0.00000000E+00  0.00000000E+00 -1.03881375E-02  0.00000000E+00  0.00000000E+00
  0.00000000E+00  0.00000000E+00  0.00000000E+00  0.00000000E+00  0.00000000E+00
  1.77683014E-01  0.00000000E+00  0.00000000E+00  0.00000000E+00  0.00000000E+00
  2.11552614E-03  0.00000000E+00  0.00000000E+00  5.81576601E-02  0.00000000E+00
  0.00000000E+00  4.22939236E-01  0.00000000E+00  0.00000000E+00  0.00000000E+00
  1.07042679E-02  0.00000000E+00  0.00000000E+00  0.00000000E+00  0.00000000E+00
  3.74900036E-01  0.00000000E+00  0.00000000E+00  0.00000000E+00  0.00000000E+00
  0.00000000E+00  0.00000000E+00  0.00000000E+00  4.74275228E-02  0.00000000E+00
  0.00000000E+00  4.22803002E-01  0.00000000E+00  0.00000000E+00  9.65953556E-01
  0.00000000E+00  0.00000000E+00  0.00000000E+00  1.28411744E-01  0.00000000E+00
  0.00000000E+00  0.00000000E+00  0.00000000E+00  1.15556556E+00  0.00000000E+00
  0.00000000E+00  0.00000000E+00  0.00000000E+00  0.00000000E+00  0.00000000E+00
  0.00000000E+00  5.13863703E-01  0.00000000E+00  0.00000000E+00  1.93298969E+00
  0.00000000E+00  0.00000000E+00  0.00000000E+00  0.00000000E+00  0.00000000E+00
  7.05175381E-04  0.00000000E+00  0.00000000E+00  1.93858867E-02  0.00000000E+00
  0.00000000E+00  1.40979745E-01  0.00000000E+00  0.00000000E+00  0.00000000E+00
  3.56808931E-03  0.00000000E+00  0.00000000E+00  0.00000000E+00  0.00000000E+00
  1.24966679E-01  0.00000000E+00  0.00000000E+00  0.00000000E+00  0.00000000E+00
  0.00000000E+00  0.00000000E+00  0.00000000E+00  1.58091743E-02  0.00000000E+00
  0.00000000E+00  1.40934334E-01  0.00000000E+00  0.00000000E+00  3.21984519E-01
  0.00000000E+00  0.00000000E+00  0.00000000E+00  4.28039145E-02  0.00000000E+00
  0.00000000E+00  0.00000000E+00  0.00000000E+00  3.85188520E-01  0.00000000E+00
  0.00000000E+00  0.00000000E+00  0.00000000E+00  0.00000000E+00  0.00000000E+00
  0.00000000E+00  1.71287901E-01  0.00000000E+00  0.00000000E+00  6.44329897E-01
 -4.67511408E-03 -6.87166598E-02 -1.91164710E-01 -8.46071584E-02  0.00000000E+00
  0.00000000E+00 -7.04139410E-03  0.00000000E+00  0.00000000E+00 -1.16457440E-01
  0.00000000E+00  0.00000000E+00 -2.70305801E-01 -1.13865038E-02  0.00000000E+00
  0.00000000E+00 -9.72028455E-03  0.00000000E+00 -2.03084708E-01  0.00000000E+00
  0.00000000E+00 -7.95535299E-02  0.00000000E+00 -6.07946227E-02 -2.76801591E-01
 -2.88855683E-01 -7.10191906E-02  0.00000000E+00  0.00000000E+00 -5.95296149E-02
  0.00000000E+00  0.00000000E+00 -2.87482588E-01  0.00000000E+00  0.00000000E+00
 -8.55072939E-02  6.84605048E-03  0.00000000E+00  0.00000000E+00 -1.16607571E-01
  0.00000000E+00  6.04343556E-02  0.00000000E+00  0.00000000E+00 -2.45210218E-01
  0.00000000E+00  0.00000000E+00  0.00000000E+00  0.00000000E+00  0.00000000E+00
  0.00000000E+00  0.00000000E+00  1.71287901E-01  0.00000000E+00  0.00000000E+00
  6.44329897E-01  0.00000000E+00  0.00000000E+00  0.00000000E+00  0.00000000E+00
  3.18728447E-02  0.00000000E+00  0.00000000E+00  4.22939236E-01  0.00000000E+00
  0.00000000E+00  2.92716295E+00  0.00000000E+00  0.00000000E+00  0.00000000E+00
  4.48272904E-02  0.00000000E+00  0.00000000E+00  0.00000000E+00  0.00000000E+00
  1.13684991E+00  0.00000000E+00  0.00000000E+00  0.00000000E+00  0.00000000E+00
  0.00000000E+00  0.00000000E+00  0.00000000E+00  8.42893213E-02  0.00000000E+00
  0.00000000E+00  9.65953556E-01  0.00000000E+00  0.00000000E+00  4.93096465E+00
  0.00000000E+00  0.00000000E+00  0.00000000E+00  7.64357565E-02  0.00000000E+00
  0.00000000E+00  0.00000000E+00  0.00000000E+00  1.56651680E+00  0.00000000E+00
  0.00000000E+00  0.00000000E+00  0.00000000E+00  0.00000000E+00  0.00000000E+00
  0.00000000E+00  1.77570879E-01  0.00000000E+00  0.00000000E+00  1.81873674E+00
  0.00000000E+00  0.00000000E+00  7.35294118E+00  0.00000000E+00  0.00000000E+00
  0.00000000E+00  0.00000000E+00  0.00000000E+00  1.06242816E-02  0.00000000E+00
  0.00000000E+00  1.40979745E-01  0.00000000E+00  0.00000000E+00  9.75720983E-01
  0.00000000E+00  0.00000000E+00  0.00000000E+00  1.49424301E-02  0.00000000E+00
  0.00000000E+00  0.00000000E+00  0.00000000E+00  3.78949971E-01  0.00000000E+00
  0.00000000E+00  0.00000000E+00  0.00000000E+00  0.00000000E+00  0.00000000E+00
  0.00000000E+00  2.80964404E-02  0.00000000E+00  0.00000000E+00  3.21984519E-01
  0.00000000E+00  0.00000000E+00  1.64365488E+00  0.00000000E+00  0.00000000E+00
  0.00000000E+00  2.54785855E-02  0.00000000E+00  0.00000000E+00  0.00000000E+00
  0.00000000E+00  5.22172266E-01  0.00000000E+00  0.00000000E+00  0.00000000E+00
  0.00000000E+00  0.00000000E+00  0.00000000E+00  0.00000000E+00  5.91902931E-02
  0.00000000E+00  0.00000000E+00  6.06245580E-01  0.00000000E+00  0.00000000E+00
  2.45098039E+00 -6.36222359E-02 -4.67411125E-01 -1.32010779E+00 -1.04639016E+00
  0.00000000E+00  0.00000000E+00 -2.58725791E-02  0.00000000E+00  0.00000000E+00
 -2.70305801E-01  0.00000000E+00  0.00000000E+00 -8.21687260E-01  7.76666026E-02
  0.00000000E+00  0.00000000E+00 -1.54844595E-01  0.00000000E+00  3.96896641E-01
  0.00000000E+00  0.00000000E+00 -9.17653362E-01  0.00000000E+00 -1.09425292E-01
 -6.81265431E-01 -1.46729510E+00 -8.47720769E-01  0.00000000E+00  0.00000000E+00
 -1.37736993E-02  0.00000000E+00  0.00000000E+00 -8.55072939E-02  0.00000000E+00
  0.00000000E+00  3.30158475E-01  1.60415357E-01  0.00000000E+00  0.00000000E+00
 -2.64028087E-01  0.00000000E+00  9.91983560E-01  0.00000000E+00  0.00000000E+00
 -1.26447598E+00  0.00000000E+00  0.00000000E+00  0.00000000E+00  0.00000000E+00
  0.00000000E+00  0.00000000E+00  0.00000000E+00  5.91902931E-02  0.00000000E+00
  0.00000000E+00  6.06245580E-01  0.00000000E+00  0.00000000E+00  2.45098039E+00
  1.01948878E-04  4.92582099E-03 -2.40680131E-02 -5.41914993E-02  0.00000000E+00
  0.00000000E+00  2.00271420E-04  0.00000000E+00  0.00000000E+00  1.13865038E-02
  0.00000000E+00  0.00000000E+00 -7.76666026E-02  1.43821577E-03  0.00000000E+00
  0.00000000E+00  1.67028333E-04  0.00000000E+00 -6.24723222E-03  0.00000000E+00
  0.00000000E+00 -7.86543450E-04  0.00000000E+00  1.19555929E-02  7.19219934E-03
 -8.00420786E-02 -7.06004237E-02  0.00000000E+00  0.00000000E+00  2.22455388E-02
  0.00000000E+00  0.00000000E+00 -6.84605048E-03  0.00000000E+00  0.00000000E+00
 -1.60415357E-01  2.99736613E-02  0.00000000E+00  0.00000000E+00  1.36492207E-02
  0.00000000E+00 -1.34614215E-01  0.00000000E+00  0.00000000E+00 -2.48956277E-02
  0.00000000E+00 -1.07745898E-01 -2.49557776E-01 -1.94349589E-01 -8.64529820E-02
  0.00000000E+00  0.00000000E+00  0.00000000E+00  0.00000000E+00  0.00000000E+00
  0.00000000E+00  0.00000000E+00  0.00000000E+00  0.00000000E+00  3.94197414E-01
  0.00000000E+00  0.00000000E+00  0.00000000E+00  0.00000000E+00 -5.46271002E-05
  0.00000000E+00  0.00000000E+00 -1.07042679E-02  0.00000000E+00  0.00000000E+00
 -4.48272904E-02  0.00000000E+00  0.00000000E+00  0.00000000E+00 -9.18690344E-04
  0.00000000E+00  0.00000000E+00  0.00000000E+00  0.00000000E+00 -8.21389016E-02
  0.00000000E+00  0.00000000E+00  0.00000000E+00  0.00000000E+00  0.00000000E+00
  0.00000000E+00  0.00000000E+00 -1.72363186E-02  0.00000000E+00  0.00000000E+00
 -1.28411744E-01  0.00000000E+00  0.00000000E+00 -7.64357565E-02  0.00000000E+00
  0.00000000E+00  0.00000000E+00 -8.22148207E-02  0.00000000E+00  0.00000000E+00
  0.00000000E+00  0.00000000E+00 -2.18227158E-01  0.00000000E+00  0.00000000E+00
  0.00000000E+00  0.00000000E+00  0.00000000E+00  0.00000000E+00  0.00000000E+00
  0.00000000E+00  0.00000000E+00  0.00000000E+00  0.00000000E+00  0.00000000E+00
  0.00000000E+00  0.00000000E+00  0.00000000E+00  0.00000000E+00  0.00000000E+00
  7.09555345E-01  0.00000000E+00  0.00000000E+00  0.00000000E+00  0.00000000E+00
  0.00000000E+00 -1.82090334E-05  0.00000000E+00  0.00000000E+00 -3.56808931E-03
  0.00000000E+00  0.00000000E+00 -1.49424301E-02  0.00000000E+00  0.00000000E+00
  0.00000000E+00 -3.06230115E-04  0.00000000E+00  0.00000000E+00  0.00000000E+00
  0.00000000E+00 -2.73796339E-02  0.00000000E+00  0.00000000E+00  0.00000000E+00
  0.00000000E+00  0.00000000E+00  0.00000000E+00  0.00000000E+00 -5.74543955E-03
  0.00000000E+00  0.00000000E+00 -4.28039145E-02  0.00000000E+00  0.00000000E+00
 -2.54785855E-02  0.00000000E+00  0.00000000E+00  0.00000000E+00 -2.74049402E-02
  0.00000000E+00  0.00000000E+00  0.00000000E+00  0.00000000E+00 -7.27423861E-02
  0.00000000E+00  0.00000000E+00  0.00000000E+00  0.00000000E+00  0.00000000E+00
  0.00000000E+00  0.00000000E+00  0.00000000E+00  0.00000000E+00  0.00000000E+00
  0.00000000E+00  0.00000000E+00  0.00000000E+00  0.00000000E+00  0.00000000E+00
  0.00000000E+00  0.00000000E+00  2.36518448E-01  8.44782888E-06  4.81302785E-03
  6.20812018E-02  9.59047612E-02  0.00000000E+00  0.00000000E+00  1.36794231E-05
  0.00000000E+00  0.00000000E+00  9.72028455E-03  0.00000000E+00  0.00000000E+00
  1.54844595E-01  1.67028333E-04  0.00000000E+00  0.00000000E+00  5.07856678E-05
  0.00000000E+00  7.34282979E-02  0.00000000E+00  0.00000000E+00  1.31806467E-02
  0.00000000E+00  2.41221912E-03  6.14284454E-02  1.61677500E-01  1.23423723E-01
  0.00000000E+00  0.00000000E+00  4.31622573E-03  0.00000000E+00  0.00000000E+00
  1.16607571E-01  0.00000000E+00  0.00000000E+00  2.64028087E-01  1.36492207E-02
  0.00000000E+00  0.00000000E+00  1.12913894E-02  0.00000000E+00  2.24514751E-01
  0.00000000E+00  0.00000000E+00  1.02108832E-01  0.00000000E+00  1.86621370E-01
  4.32246747E-01  3.36623363E-01  1.49740957E-01  0.00000000E+00  0.00000000E+00
  0.00000000E+00  0.00000000E+00  0.00000000E+00  0.00000000E+00  0.00000000E+00
  0.00000000E+00  0.00000000E+00 -2.73107980E-01  0.00000000E+00  0.00000000E+00
  7.09555345E-01  0.00000000E+00  0.00000000E+00  0.00000000E+00  0.00000000E+00
  0.00000000E+00  0.00000000E+00  0.00000000E+00  0.00000000E+00  0.00000000E+00
  0.00000000E+00  0.00000000E+00  0.00000000E+00  0.00000000E+00  0.00000000E+00
  0.00000000E+00  0.00000000E+00  0.00000000E+00  5.07856678E-05  0.00000000E+00
  0.00000000E+00  0.00000000E+00  0.00000000E+00  1.31806467E-02  0.00000000E+00
  0.00000000E+00  0.00000000E+00  0.00000000E+00  0.00000000E+00  0.00000000E+00
  0.00000000E+00  0.00000000E+00  0.00000000E+00  0.00000000E+00  0.00000000E+00
  0.00000000E+00  0.00000000E+00  0.00000000E+00  0.00000000E+00  0.00000000E+00
  0.00000000E+00  1.12913894E-02  0.00000000E+00  0.00000000E+00  0.00000000E+00
  0.00000000E+00  1.02108832E-01  0.00000000E+00  0.00000000E+00  0.00000000E+00
  0.00000000E+00  0.00000000E+00  0.00000000E+00  0.00000000E+00  0.00000000E+00
  0.00000000E+00  0.00000000E+00  0.00000000E+00  0.00000000E+00  0.00000000E+00
  0.00000000E+00  0.00000000E+00  0.00000000E+00  0.00000000E+00  7.09555345E-01
  3.52402214E-02  1.92913181E-01  2.44589617E-02 -5.14552018E-01  0.00000000E+00
  0.00000000E+00  3.27595315E-02  0.00000000E+00  0.00000000E+00  2.03084708E-01
  0.00000000E+00  0.00000000E+00 -3.96896641E-01 -6.24723222E-03  0.00000000E+00
  0.00000000E+00  7.34282979E-02  0.00000000E+00 -6.76629068E-02  0.00000000E+00
  0.00000000E+00  1.54563235E-01  0.00000000E+00  1.18770266E-01  2.71316964E-01
 -3.02880379E-01 -6.84483907E-01  0.00000000E+00  0.00000000E+00  3.81541951E-02
  0.00000000E+00  0.00000000E+00 -6.04343556E-02  0.00000000E+00  0.00000000E+00
 -9.91983560E-01 -1.34614215E-01  0.00000000E+00  0.00000000E+00  2.24514751E-01
  0.00000000E+00 -3.67451487E-01  0.00000000E+00  0.00000000E+00 -1.44001671E-02
  0.00000000E+00 -4.10760608E-02 -4.28456575E-01 -1.01378802E+00 -8.50326284E-01
  0.00000000E+00  0.00000000E+00  0.00000000E+00  0.00000000E+00  0.00000000E+00
  0.00000000E+00  0.00000000E+00  0.00000000E+00  0.00000000E+00  2.72286101E-01
  0.00000000E+00  0.00000000E+00 -1.88645345E-01  0.00000000E+00  1.68690958E+00
  0.00000000E+00  0.00000000E+00  0.00000000E+00  0.00000000E+00 -3.14423355E-02
  0.00000000E+00  0.00000000E+00 -3.74900036E-01  0.00000000E+00  0.00000000E+00
 -1.13684991E+00  0.00000000E+00  0.00000000E+00  0.00000000E+00 -8.21389016E-02
  0.00000000E+00  0.00000000E+00  0.00000000E+00  0.00000000E+00 -1.12949831E+00
  0.00000000E+00  0.00000000E+00  0.00000000E+00  0.00000000E+00  0.00000000E+00
  0.00000000E+00  0.00000000E+00 -1.77523596E-01  0.00000000E+00  0.00000000E+00
 -1.15556556E+00  0.00000000E+00  0.00000000E+00 -1.56651680E+00  0.00000000E+00
  0.00000000E+00  0.00000000E+00 -2.18227158E-01  0.00000000E+00  0.00000000E+00
  0.00000000E+00  0.00000000E+00 -1.07903007E+00  0.00000000E+00  0.00000000E+00
  0.00000000E+00  0.00000000E+00  0.00000000E+00  0.00000000E+00  0.00000000E+00
  0.00000000E+00  0.00000000E+00  0.00000000E+00  0.00000000E+00  0.00000000E+00
  0.00000000E+00  0.00000000E+00  0.00000000E+00  0.00000000E+00  0.00000000E+00
  4.90114982E-01  0.00000000E+00  0.00000000E+00  0.00000000E+00  0.00000000E+00
  3.03643725E+00  0.00000000E+00  0.00000000E+00  0.00000000E+00  0.00000000E+00
  0.00000000E+00 -1.04807785E-02  0.00000000E+00  0.00000000E+00 -1.24966679E-01
  0.00000000E+00  0.00000000E+00 -3.78949971E-01  0.00000000E+00  0.00000000E+00
  0.00000000E+00 -2.73796339E-02  0.00000000E+00  0.00000000E+00  0.00000000E+00
  0.00000000E+00 -3.76499437E-01  0.00000000E+00  0.00000000E+00  0.00000000E+00
  0.00000000E+00  0.00000000E+00  0.00000000E+00  0.00000000E+00 -5.91745321E-02
  0.00000000E+00  0.00000000E+00 -3.85188520E-01  0.00000000E+00  0.00000000E+00
 -5.22172266E-01  0.00000000E+00  0.00000000E+00  0.00000000E+00 -7.27423861E-02
  0.00000000E+00  0.00000000E+00  0.00000000E+00  0.00000000E+00 -3.59676691E-01
  0.00000000E+00  0.00000000E+00  0.00000000E+00  0.00000000E+00  0.00000000E+00
  0.00000000E+00  0.00000000E+00  0.00000000E+00  0.00000000E+00  0.00000000E+00
  0.00000000E+00  0.00000000E+00  0.00000000E+00  0.00000000E+00  0.00000000E+00
  0.00000000E+00  0.00000000E+00  1.63371661E-01  0.00000000E+00  0.00000000E+00
  0.00000000E+00  0.00000000E+00  1.01214575E+00  1.79457939E-03  5.86876848E-02
  4.73755211E-01  9.73651094E-01  0.00000000E+00  0.00000000E+00  1.83990923E-03
  0.00000000E+00  0.00000000E+00  7.95535299E-02  0.00000000E+00  0.00000000E+00
  9.17653362E-01 -7.86543450E-04  0.00000000E+00  0.00000000E+00  1.31806467E-02
  0.00000000E+00  1.54563235E-01  0.00000000E+00  0.00000000E+00  3.26364184E-01
  0.00000000E+00  1.44131323E-02  2.46857287E-01  9.94698123E-01  1.23075725E+00
  0.00000000E+00  0.00000000E+00  1.03881375E-02  0.00000000E+00  0.00000000E+00
  2.45210218E-01  0.00000000E+00  0.00000000E+00  1.26447598E+00 -2.48956277E-02
  0.00000000E+00  0.00000000E+00  1.02108832E-01  0.00000000E+00 -1.44001671E-02
  0.00000000E+00  0.00000000E+00  1.15385553E+00  0.00000000E+00  7.11458243E-02
  7.42108557E-01  1.75593236E+00  1.47280833E+00  0.00000000E+00  0.00000000E+00
  0.00000000E+00  0.00000000E+00  0.00000000E+00  0.00000000E+00  0.00000000E+00
  0.00000000E+00  0.00000000E+00 -1.88645345E-01  0.00000000E+00  0.00000000E+00
  4.90114982E-01  0.00000000E+00 -1.16872524E+00  0.00000000E+00  0.00000000E+00
  3.03643725E+00  0.00000000E+00  0.00000000E+00  0.00000000E+00  0.00000000E+00
  0.00000000E+00  0.00000000E+00  0.00000000E+00  0.00000000E+00  0.00000000E+00
  0.00000000E+00  0.00000000E+00  0.00000000E+00  0.00000000E+00  0.00000000E+00
  0.00000000E+00  0.00000000E+00  0.00000000E+00  1.31806467E-02  0.00000000E+00
  0.00000000E+00  0.00000000E+00  0.00000000E+00  3.26364184E-01  0.00000000E+00
  0.00000000E+00  0.00000000E+00  0.00000000E+00  0.00000000E+00  0.00000000E+00
  0.00000000E+00  0.00000000E+00  0.00000000E+00  0.00000000E+00  0.00000000E+00
  0.00000000E+00  0.00000000E+00  0.00000000E+00  0.00000000E+00  0.00000000E+00
  0.00000000E+00  1.02108832E-01  0.00000000E+00  0.00000000E+00  0.00000000E+00
  0.00000000E+00  1.15385553E+00  0.00000000E+00  0.00000000E+00  0.00000000E+00
  0.00000000E+00  0.00000000E+00  0.00000000E+00  0.00000000E+00  0.00000000E+00
  0.00000000E+00  0.00000000E+00  0.00000000E+00  0.00000000E+00  0.00000000E+00
  0.00000000E+00  0.00000000E+00  0.00000000E+00  0.00000000E+00  4.90114982E-01
  0.00000000E+00  0.00000000E+00  0.00000000E+00  0.00000000E+00  3.03643725E+00
Multipole Matrix (1,1,0)                   R   N=        2415
  0.00000000E+00  0.00000000E+00  0.00000000E+00  0.00000000E+00  0.00000000E+00
  0.00000000E+00  0.00000000E+00  0.00000000E+00  0.00000000E+00  0.00000000E+00
  0.00000000E+00  0.00000000E+00  0.00000000E+00  0.00000000E+00  0.00000000E+00
  0.00000000E+00  0.00000000E+00  0.00000000E+00  0.00000000E+00  1.77683014E-01
  0.00000000E+00  0.00000000E+00  0.00000000E+00  0.00000000E+00  0.00000000E+00
  0.00000000E+00  0.00000000E+00  0.00000000E+00  0.00000000E+00  0.00000000E+00
  0.00000000E+00  0.00000000E+00  0.00000000E+00  1.71287901E-01  0.00000000E+00
  0.00000000E+00  0.00000000E+00  0.00000000E+00  0.00000000E+00  0.00000000E+00
  1.71287901E-01  0.00000000E+00  0.00000000E+00  6.44329897E-01  0.00000000E+00
  0.00000000E+00  0.00000000E+00  0.00000000E+00  0.00000000E+00  0.00000000E+00
  0.00000000E+00  0.00000000E+00  0.00000000E+00  0.00000000E+00  0.00000000E+00
  0.00000000E+00  0.00000000E+00  0.00000000E+00  0.00000000E+00  0.00000000E+00
  5.91902931E-02  0.00000000E+00  0.00000000E+00  6.06245580E-01  0.00000000E+00
  0.00000000E+00  0.00000000E+00  0.00000000E+00  0.00000000E+00  0.00000000E+00
  5.91902931E-02  0.00000000E+00  0.00000000E+00  6.06245580E-01  0.00000000E+00
  0.00000000E+00  2.45098039E+00  0.00000000E+00  0.00000000E+00  0.00000000E+00
  0.00000000E+00  0.00000000E+00  0.00000000E+00  0.00000000E+00  0.00000000E+00
  0.00000000E+00  0.00000000E+00  0.00000000E+00  0.00000000E+00  0.00000000E+00
  0.00000000E+00  0.00000000E+00  0.00000000E+00  0.00000000E+00  0.00000000E+00
  0.00000000E+00  0.00000000E+00  0.00000000E+00  0.00000000E+00  0.00000000E+00
  0.00000000E+00  0.00000000E+00  0.00000000E+00  0.00000000E+00  0.00000000E+00
  0.00000000E+00  0.00000000E+00  0.00000000E+00  0.00000000E+00  0.00000000E+00
  0.00000000E+00  0.00000000E+00  0.00000000E+00  0.00000000E+00  0.00000000E+00
  0.00000000E+00  0.00000000E+00  0.00000000E+00  0.00000000E+00  0.00000000E+00
  0.00000000E+00  0.00000000E+00  0.00000000E+00  0.00000000E+00  0.00000000E+00
  0.00000000E+00  0.00000000E+00  0.00000000E+00  0.00000000E+00  0.00000000E+00
  0.00000000E+00  0.00000000E+00  0.00000000E+00  0.00000000E+00  2.36518448E-01
  0.00000000E+00  0.00000000E+00  0.00000000E+00  0.00000000E+00  0.00000000E+00
  0.00000000E+00  0.00000000E+00  0.00000000E+00  0.00000000E+00  0.00000000E+00
  0.00000000E+00  0.00000000E+00  0.00000000E+00  0.00000000E+00  0.00000000E+00
  0.00000000E+00  0.00000000E+00  0.00000000E+00  1.86621370E-01  4.32246747E-01
  3.36623363E-01  1.49740957E-01  0.00000000E+00  0.00000000E+00  0.00000000E+00
  0.00000000E+00  0.00000000E+00  0.00000000E+00  0.00000000E+00  0.00000000E+00
  0.00000000E+00 -2.73107980E-01  0.00000000E+00  0.00000000E+00 -1.36344984E-17
  0.00000000E+00  0.00000000E+00  0.00000000E+00  0.00000000E+00  0.00000000E+00
  0.00000000E+00  0.00000000E+00  0.00000000E+00  0.00000000E+00  0.00000000E+00
  0.00000000E+00  0.00000000E+00  0.00000000E+00  0.00000000E+00  0.00000000E+00
  0.00000000E+00  0.00000000E+00  0.00000000E+00 -1.88645345E-01  0.00000000E+00
  0.00000000E+00  0.00000000E+00  0.00000000E+00  0.00000000E+00  0.00000000E+00
  0.00000000E+00  0.00000000E+00  0.00000000E+00  0.00000000E+00  0.00000000E+00
  0.00000000E+00  0.00000000E+00  0.00000000E+00  0.00000000E+00  0.00000000E+00
  1.63371661E-01  0.00000000E+00  0.00000000E+00  0.00000000E+00  0.00000000E+00
  0.00000000E+00  0.00000000E+00  0.00000000E+00  0.00000000E+00  0.00000000E+00
  0.00000000E+00  0.00000000E+00  0.00000000E+00  0.00000000E+00  0.00000000E+00
  0.00000000E+00  0.00000000E+00  0.00000000E+00  0.00000000E+00  1.63371661E-01
  0.00000000E+00  0.00000000E+00  0.00000000E+00  0.00000000E+00  1.01214575E+00
  0.00000000E+00  0.00000000E+00  0.00000000E+00  0.00000000E+00  0.00000000E+00
  0.00000000E+00  0.00000000E+00  0.00000000E+00  0.00000000E+00  0.00000000E+00
  0.00000000E+00  0.00000000E+00  0.00000000E+00  0.00000000E+00  0.00000000E+00
  0.00000000E+00  0.00000000E+00  0.00000000E+00 -7.53121970E-18  0.00000000E+00
  0.00000000E+00  0.00000000E+00  0.00000000E+00  7.11458243E-02  7.42108557E-01
  1.75593236E+00  1.47280833E+00  0.00000000E+00  0.00000000E+00  0.00000000E+00
  0.00000000E+00  0.00000000E+00  0.00000000E+00  0.00000000E+00  0.00000000E+00
  0.00000000E+00 -1.88645345E-01  0.00000000E+00  0.00000000E+00 -7.53121970E-18
  0.00000000E+00 -1.16872524E+00  0.00000000E+00  0.00000000E+00 -1.53212036E-17
  0.00000000E+00  0.00000000E+00  0.00000000E+00  0.00000000E+00  0.00000000E+00
  0.00000000E+00  0.00000000E+00  0.00000000E+00  0.00000000E+00  0.00000000E+00
  0.00000000E+00  0.00000000E+00  0.00000000E+00  0.00000000E+00  0.00000000E+00
  0.00000000E+00  0.00000000E+00  0.00000000E+00  5.77667998E-02  0.00000000E+00
  0.00000000E+00  0.00000000E+00  0.00000000E+00  4.63319704E-02  0.00000000E+00
  0.00000000E+00  0.00000000E+00  0.00000000E+00  0.00000000E+00  0.00000000E+00
  0.00000000E+00  0.00000000E+00  0.00000000E+00  0.00000000E+00  0.00000000E+00
  0.00000000E+00  0.00000000E+00  0.00000000E+00  0.00000000E+00  0.00000000E+00
  0.00000000E+00  0.00000000E+00  2.55929088E-01  0.00000000E+00  0.00000000E+00
  0.00000000E+00  0.00000000E+00  5.52159935E-01  0.00000000E+00  0.00000000E+00
  0.00000000E+00  0.00000000E+00  0.00000000E+00  0.00000000E+00  0.00000000E+00
  0.00000000E+00  0.00000000E+00  0.00000000E+00  0.00000000E+00  0.00000000E+00
  0.00000000E+00  0.00000000E+00  0.00000000E+00  0.00000000E+00  0.00000000E+00
  0.00000000E+00  0.00000000E+00  2.76434729E-01  0.00000000E+00  0.00000000E+00
  0.00000000E+00  0.00000000E+00  1.50733502E+00  0.00000000E+00  0.00000000E+00
  0.00000000E+00  0.00000000E+00  0.00000000E+00  0.00000000E+00  0.00000000E+00
  0.00000000E+00  0.00000000E+00  0.00000000E+00  0.00000000E+00  0.00000000E+00
  0.00000000E+00  0.00000000E+00  0.00000000E+00  0.00000000E+00  0.00000000E+00
  0.00000000E+00  0.00000000E+00  0.00000000E+00  1.42165018E-01  0.00000000E+00
  0.00000000E+00  0.00000000E+00  0.00000000E+00  1.40346467E+00  0.00000000E+00
  0.00000000E+00  0.00000000E+00  0.00000000E+00  0.00000000E+00  0.00000000E+00
  0.00000000E+00  0.00000000E+00  0.00000000E+00  4.04271320E-02  0.00000000E+00
  0.00000000E+00  9.03153912E-02  0.00000000E+00  0.00000000E+00  4.84537844E-02
  0.00000000E+00  0.00000000E+00  0.00000000E+00  9.46052713E-02  0.00000000E+00
  0.00000000E+00  0.00000000E+00  0.00000000E+00  1.02230877E-01  0.00000000E+00
  0.00000000E+00  0.00000000E+00  0.00000000E+00  0.00000000E+00  0.00000000E+00
  0.00000000E+00  0.00000000E+00  0.00000000E+00  0.00000000E+00  0.00000000E+00
  4.04271320E-02  0.00000000E+00  0.00000000E+00  9.03153912E-02  0.00000000E+00
  0.00000000E+00  4.84537844E-02  0.00000000E+00  0.00000000E+00  0.00000000E+00
  9.46052713E-02  0.00000000E+00  0.00000000E+00  0.00000000E+00  0.00000000E+00
  1.02230877E-01  0.00000000E+00  0.00000000E+00  0.00000000E+00  0.00000000E+00
  0.00000000E+00  0.00000000E+00  0.00000000E+00  1.77683014E-01  0.00000000E+00
  0.00000000E+00  0.00000000E+00  0.00000000E+00  0.00000000E+00  0.00000000E+00
  0.00000000E+00  0.00000000E+00  0.00000000E+00  0.00000000E+00  0.00000000E+00
  0.00000000E+00  0.00000000E+00  0.00000000E+00  0.00000000E+00  0.00000000E+00
  0.00000000E+00  0.00000000E+00 -7.10716217E-02  0.00000000E+00  0.00000000E+00
  0.00000000E+00  0.00000000E+00 -1.79467141E-02  0.00000000E+00  0.00000000E+00
  0.00000000E+00  0.00000000E+00  0.00000000E+00  0.00000000E+00  0.00000000E+00
  0.00000000E+00  0.00000000E+00  0.00000000E+00  0.00000000E+00  0.00000000E+00
  9.03153912E-02  0.00000000E+00  0.00000000E+00  4.28350678E-01  0.00000000E+00
  0.00000000E+00  5.11481838E-01  0.00000000E+00  0.00000000E+00  0.00000000E+00
  1.12809566E-01  0.00000000E+00  0.00000000E+00  0.00000000E+00  0.00000000E+00
  4.74043878E-01  0.00000000E+00  0.00000000E+00  0.00000000E+00  0.00000000E+00
  0.00000000E+00  0.00000000E+00  0.00000000E+00  1.71287901E-01  0.00000000E+00
  0.00000000E+00  0.00000000E+00  0.00000000E+00  0.00000000E+00  0.00000000E+00
  9.03153912E-02  0.00000000E+00  0.00000000E+00  4.28350678E-01  0.00000000E+00
  0.00000000E+00  5.11481838E-01  0.00000000E+00  0.00000000E+00  0.00000000E+00
  1.12809566E-01  0.00000000E+00  0.00000000E+00  0.00000000E+00  0.00000000E+00
  4.74043878E-01  0.00000000E+00  0.00000000E+00  0.00000000E+00  0.00000000E+00
  0.00000000E+00  0.00000000E+00  0.00000000E+00  1.71287901E-01  0.00000000E+00
  0.00000000E+00  6.44329897E-01  0.00000000E+00  0.00000000E+00  0.00000000E+00
  0.00000000E+00  0.00000000E+00  0.00000000E+00  0.00000000E+00  0.00000000E+00
  0.00000000E+00  0.00000000E+00  0.00000000E+00  0.00000000E+00  0.00000000E+00
  0.00000000E+00  0.00000000E+00  0.00000000E+00  0.00000000E+00  0.00000000E+00
 -3.07318842E-01  0.00000000E+00  0.00000000E+00  0.00000000E+00  0.00000000E+00
 -3.01775355E-01  0.00000000E+00  0.00000000E+00  0.00000000E+00  0.00000000E+00
  0.00000000E+00  0.00000000E+00  0.00000000E+00  0.00000000E+00  0.00000000E+00
  0.00000000E+00  0.00000000E+00  0.00000000E+00  0.00000000E+00  0.00000000E+00
  0.00000000E+00  4.84537844E-02  0.00000000E+00  0.00000000E+00  5.11481838E-01
  0.00000000E+00  0.00000000E+00  2.20154579E+00  0.00000000E+00  0.00000000E+00
  0.00000000E+00  2.25026385E-02  0.00000000E+00  0.00000000E+00  0.00000000E+00
  0.00000000E+00  4.09283841E-01  0.00000000E+00  0.00000000E+00  0.00000000E+00
  0.00000000E+00  0.00000000E+00  0.00000000E+00  0.00000000E+00  5.91902931E-02
  0.00000000E+00  0.00000000E+00  6.06245580E-01  0.00000000E+00  0.00000000E+00
  0.00000000E+00  0.00000000E+00  0.00000000E+00  0.00000000E+00  4.84537844E-02
  0.00000000E+00  0.00000000E+00  5.11481838E-01  0.00000000E+00  0.00000000E+00
  2.20154579E+00  0.00000000E+00  0.00000000E+00  0.00000000E+00  2.25026385E-02
  0.00000000E+00  0.00000000E+00  0.00000000E+00  0.00000000E+00  4.09283841E-01
  0.00000000E+00  0.00000000E+00  0.00000000E+00  0.00000000E+00  0.00000000E+00
  0.00000000E+00  0.00000000E+00  5.91902931E-02  0.00000000E+00  0.00000000E+00
  6.06245580E-01  0.00000000E+00  0.00000000E+00  2.45098039E+00  0.00000000E+00
  0.00000000E+00  0.00000000E+00  0.00000000E+00  0.00000000E+00  0.00000000E+00
  0.00000000E+00  0.00000000E+00  0.00000000E+00  0.00000000E+00  0.00000000E+00
  0.00000000E+00  0.00000000E+00  0.00000000E+00  0.00000000E+00  0.00000000E+00
  0.00000000E+00  0.00000000E+00 -2.33189107E-01  0.00000000E+00  0.00000000E+00
  0.00000000E+00  0.00000000E+00 -9.91108910E-01  0.00000000E+00  0.00000000E+00
  0.00000000E+00  0.00000000E+00  0.00000000E+00  0.00000000E+00  0.00000000E+00
  0.00000000E+00  0.00000000E+00  0.00000000E+00  0.00000000E+00  0.00000000E+00
  0.00000000E+00  0.00000000E+00  0.00000000E+00  0.00000000E+00  0.00000000E+00
  0.00000000E+00  0.00000000E+00  0.00000000E+00  0.00000000E+00  0.00000000E+00
  0.00000000E+00  0.00000000E+00  0.00000000E+00  0.00000000E+00  0.00000000E+00
  0.00000000E+00  0.00000000E+00  0.00000000E+00  1.00776977E-02  0.00000000E+00
  0.00000000E+00  0.00000000E+00  0.00000000E+00 -1.11594517E-01  0.00000000E+00
  0.00000000E+00  0.00000000E+00  0.00000000E+00  0.00000000E+00  0.00000000E+00
  0.00000000E+00  0.00000000E+00  0.00000000E+00  0.00000000E+00  0.00000000E+00
  0.00000000E+00  0.00000000E+00  0.00000000E+00  0.00000000E+00  0.00000000E+00
  0.00000000E+00  0.00000000E+00  0.00000000E+00 -9.46052713E-02  0.00000000E+00
  0.00000000E+00 -1.12809566E-01  0.00000000E+00  0.00000000E+00 -2.25026385E-02
  0.00000000E+00  0.00000000E+00  0.00000000E+00 -9.52292875E-02  0.00000000E+00
  0.00000000E+00  0.00000000E+00  0.00000000E+00  1.68632217E-02  0.00000000E+00
  0.00000000E+00  0.00000000E+00  0.00000000E+00  0.00000000E+00  0.00000000E+00
  0.00000000E+00  0.00000000E+00  0.00000000E+00  0.00000000E+00  0.00000000E+00
  0.00000000E+00  0.00000000E+00  0.00000000E+00  0.00000000E+00  0.00000000E+00
  0.00000000E+00  0.00000000E+00  0.00000000E+00  0.00000000E+00  0.00000000E+00
 -9.46052713E-02  0.00000000E+00  0.00000000E+00 -1.12809566E-01  0.00000000E+00
  0.00000000E+00 -2.25026385E-02  0.00000000E+00  0.00000000E+00  0.00000000E+00
 -9.52292875E-02  0.00000000E+00  0.00000000E+00  0.00000000E+00  0.00000000E+00
  1.68632217E-02  0.00000000E+00  0.00000000E+00  0.00000000E+00  0.00000000E+00
  0.00000000E+00  0.00000000E+00  0.00000000E+00  0.00000000E+00  0.00000000E+00
  0.00000000E+00  0.00000000E+00  0.00000000E+00  0.00000000E+00  0.00000000E+00
  0.00000000E+00  0.00000000E+00  0.00000000E+00  2.36518448E-01  0.00000000E+00
  0.00000000E+00  0.00000000E+00  0.00000000E+00  0.00000000E+00  0.00000000E+00
  0.00000000E+00  0.00000000E+00  0.00000000E+00  0.00000000E+00  0.00000000E+00
  0.00000000E+00  0.00000000E+00  0.00000000E+00  0.00000000E+00  0.00000000E+00
  0.00000000E+00  0.00000000E+00 -5.48289932E-18  0.00000000E+00  0.00000000E+00
  0.00000000E+00  0.00000000E+00  4.18540981E-18  0.00000000E+00  0.00000000E+00
  0.00000000E+00  0.00000000E+00  0.00000000E+00  0.00000000E+00  0.00000000E+00
  0.00000000E+00  0.00000000E+00  0.00000000E+00  0.00000000E+00  0.00000000E+00
  0.00000000E+00  0.00000000E+00  0.00000000E+00  0.00000000E+00  0.00000000E+00
  5.77667998E-02  2.55929088E-01  2.76434729E-01  1.42165018E-01  0.00000000E+00
  0.00000000E+00  7.10716217E-02  0.00000000E+00  0.00000000E+00  3.07318842E-01
  0.00000000E+00  0.00000000E+00  2.33189107E-01  1.00776977E-02  0.00000000E+00
  0.00000000E+00 -5.48289932E-18  0.00000000E+00  9.94078219E-02  0.00000000E+00
  0.00000000E+00  4.18540981E-18  0.00000000E+00  1.86621370E-01  4.32246747E-01
  3.36623363E-01  1.49740957E-01  0.00000000E+00  0.00000000E+00  0.00000000E+00
  0.00000000E+00  0.00000000E+00  0.00000000E+00  0.00000000E+00  0.00000000E+00
  0.00000000E+00 -2.73107980E-01  0.00000000E+00  0.00000000E+00 -1.36344984E-17
  0.00000000E+00  0.00000000E+00  0.00000000E+00  0.00000000E+00  0.00000000E+00
  0.00000000E+00  0.00000000E+00  0.00000000E+00  0.00000000E+00  0.00000000E+00
  0.00000000E+00  0.00000000E+00  0.00000000E+00  0.00000000E+00  0.00000000E+00
  0.00000000E+00  0.00000000E+00  0.00000000E+00  9.94078219E-02  0.00000000E+00
  0.00000000E+00  0.00000000E+00  0.00000000E+00 -6.67001246E-01  0.00000000E+00
  0.00000000E+00  0.00000000E+00  0.00000000E+00  0.00000000E+00  0.00000000E+00
  0.00000000E+00  0.00000000E+00  0.00000000E+00  0.00000000E+00  0.00000000E+00
  0.00000000E+00  0.00000000E+00  0.00000000E+00  0.00000000E+00  0.00000000E+00
  0.00000000E+00 -1.88645345E-01  0.00000000E+00  0.00000000E+00  0.00000000E+00
  0.00000000E+00  0.00000000E+00  0.00000000E+00 -1.02230877E-01  0.00000000E+00
  0.00000000E+00 -4.74043878E-01  0.00000000E+00  0.00000000E+00 -4.09283841E-01
  0.00000000E+00  0.00000000E+00  0.00000000E+00  1.68632217E-02  0.00000000E+00
  0.00000000E+00  0.00000000E+00  0.00000000E+00  3.74787745E-01  0.00000000E+00
  0.00000000E+00  0.00000000E+00  0.00000000E+00  0.00000000E+00  0.00000000E+00
  0.00000000E+00  0.00000000E+00  0.00000000E+00  0.00000000E+00  0.00000000E+00
  0.00000000E+00  0.00000000E+00  0.00000000E+00  0.00000000E+00  0.00000000E+00
  0.00000000E+00  1.63371661E-01  0.00000000E+00  0.00000000E+00  0.00000000E+00
  0.00000000E+00  0.00000000E+00  0.00000000E+00  0.00000000E+00  0.00000000E+00
 -1.02230877E-01  0.00000000E+00  0.00000000E+00 -4.74043878E-01  0.00000000E+00
  0.00000000E+00 -4.09283841E-01  0.00000000E+00  0.00000000E+00  0.00000000E+00
  1.68632217E-02  0.00000000E+00  0.00000000E+00  0.00000000E+00  0.00000000E+00
  3.74787745E-01  0.00000000E+00  0.00000000E+00  0.00000000E+00  0.00000000E+00
  0.00000000E+00  0.00000000E+00  0.00000000E+00  0.00000000E+00  0.00000000E+00
  0.00000000E+00  0.00000000E+00  0.00000000E+00  0.00000000E+00  0.00000000E+00
  0.00000000E+00  0.00000000E+00  0.00000000E+00  1.63371661E-01  0.00000000E+00
  0.00000000E+00  0.00000000E+00  0.00000000E+00  1.01214575E+00  0.00000000E+00
  0.00000000E+00  0.00000000E+00  0.00000000E+00  0.00000000E+00  0.00000000E+00
  0.00000000E+00  0.00000000E+00  0.00000000E+00  0.00000000E+00  0.00000000E+00
  0.00000000E+00  0.00000000E+00  0.00000000E+00  0.00000000E+00  0.00000000E+00
  0.00000000E+00  0.00000000E+00  4.18540981E-18  0.00000000E+00  0.00000000E+00
  0.00000000E+00  0.00000000E+00  1.00557242E-16  0.00000000E+00  0.00000000E+00
  0.00000000E+00  0.00000000E+00  0.00000000E+00  0.00000000E+00  0.00000000E+00
  0.00000000E+00  0.00000000E+00  0.00000000E+00  0.00000000E+00  0.00000000E+00
  0.00000000E+00  0.00000000E+00  0.00000000E+00  0.00000000E+00  0.00000000E+00
 -7.53121970E-18  0.00000000E+00  0.00000000E+00  0.00000000E+00  0.00000000E+00
  4.63319704E-02  5.52159935E-01  1.50733502E+00  1.40346467E+00  0.00000000E+00
  0.00000000E+00  1.79467141E-02  0.00000000E+00  0.00000000E+00  3.01775355E-01
  0.00000000E+00  0.00000000E+00  9.91108910E-01 -1.11594517E-01  0.00000000E+00
  0.00000000E+00  4.18540981E-18  0.00000000E+00 -6.67001246E-01  0.00000000E+00
  0.00000000E+00  1.00557242E-16  0.00000000E+00  7.11458243E-02  7.42108557E-01
  1.75593236E+00  1.47280833E+00  0.00000000E+00  0.00000000E+00  0.00000000E+00
  0.00000000E+00  0.00000000E+00  0.00000000E+00  0.00000000E+00  0.00000000E+00
  0.00000000E+00 -1.88645345E-01  0.00000000E+00  0.00000000E+00 -7.53121970E-18
  0.00000000E+00 -1.16872524E+00  0.00000000E+00  0.00000000E+00 -1.53212036E-17
  0.00000000E+00  0.00000000E+00  0.00000000E+00  0.00000000E+00  0.00000000E+00
  0.00000000E+00  0.00000000E+00  0.00000000E+00  0.00000000E+00  0.00000000E+00
  0.00000000E+00  0.00000000E+00  0.00000000E+00  0.00000000E+00  0.00000000E+00
  0.00000000E+00  0.00000000E+00  0.00000000E+00  8.44782888E-06  0.00000000E+00
  0.00000000E+00  0.00000000E+00  0.00000000E+00  1.79457939E-03  0.00000000E+00
  0.00000000E+00  0.00000000E+00  0.00000000E+00  0.00000000E+00  0.00000000E+00
  0.00000000E+00  0.00000000E+00  0.00000000E+00  0.00000000E+00  0.00000000E+00
  0.00000000E+00  0.00000000E+00  0.00000000E+00  0.00000000E+00  0.00000000E+00
  0.00000000E+00  2.41221912E-03  0.00000000E+00  0.00000000E+00  0.00000000E+00
  0.00000000E+00  1.44131323E-02  0.00000000E+00  0.00000000E+00  0.00000000E+00
  0.00000000E+00  0.00000000E+00  0.00000000E+00  0.00000000E+00  0.00000000E+00
  0.00000000E+00  0.00000000E+00  0.00000000E+00  0.00000000E+00  0.00000000E+00
  0.00000000E+00  0.00000000E+00  0.00000000E+00  0.00000000E+00  0.00000000E+00
  4.81302785E-03  0.00000000E+00  0.00000000E+00  0.00000000E+00  0.00000000E+00
  5.86876848E-02  0.00000000E+00  0.00000000E+00  0.00000000E+00  0.00000000E+00
  0.00000000E+00  0.00000000E+00  0.00000000E+00  0.00000000E+00  0.00000000E+00
  0.00000000E+00  0.00000000E+00  0.00000000E+00  0.00000000E+00  0.00000000E+00
  0.00000000E+00  0.00000000E+00  0.00000000E+00  6.14284454E-02  0.00000000E+00
  0.00000000E+00  0.00000000E+00  0.00000000E+00  2.46857287E-01  0.00000000E+00
  0.00000000E+00  0.00000000E+00  0.00000000E+00  0.00000000E+00  0.00000000E+00
  0.00000000E+00  0.00000000E+00  0.00000000E+00  0.00000000E+00  0.00000000E+00
  0.00000000E+00  0.00000000E+00  0.00000000E+00  0.00000000E+00  0.00000000E+00
  0.00000000E+00  0.00000000E+00  0.00000000E+00  6.20812018E-02  0.00000000E+00
  0.00000000E+00  0.00000000E+00  0.00000000E+00  4.73755211E-01  0.00000000E+00
  0.00000000E+00  0.00000000E+00  0.00000000E+00  0.00000000E+00  0.00000000E+00
  0.00000000E+00  0.00000000E+00  0.00000000E+00  0.00000000E+00  0.00000000E+00
  0.00000000E+00  0.00000000E+00  0.00000000E+00  0.00000000E+00  0.00000000E+00
  0.00000000E+00  1.61677500E-01  0.00000000E+00  0.00000000E+00  0.00000000E+00
  0.00000000E+00  9.94698123E-01  0.00000000E+00  0.00000000E+00  0.00000000E+00
  0.00000000E+00  0.00000000E+00  0.00000000E+00  0.00000000E+00  0.00000000E+00
  0.00000000E+00  0.00000000E+00  0.00000000E+00  0.00000000E+00  0.00000000E+00
  0.00000000E+00  0.00000000E+00  0.00000000E+00  0.00000000E+00  0.00000000E+00
  0.00000000E+00  0.00000000E+00  9.59047612E-02  0.00000000E+00  0.00000000E+00
  0.00000000E+00  0.00000000E+00  9.73651094E-01  0.00000000E+00  0.00000000E+00
  0.00000000E+00  0.00000000E+00  0.00000000E+00  0.00000000E+00  0.00000000E+00
  0.00000000E+00  0.00000000E+00  0.00000000E+00  0.00000000E+00  0.00000000E+00
  0.00000000E+00  0.00000000E+00  0.00000000E+00  0.00000000E+00  0.00000000E+00
  1.23423723E-01  0.00000000E+00  0.00000000E+00  0.00000000E+00  0.00000000E+00
  1.23075725E+00  0.00000000E+00  0.00000000E+00  0.00000000E+00  0.00000000E+00
  0.00000000E+00  0.00000000E+00  0.00000000E+00  0.00000000E+00  0.00000000E+00
  5.39266056E-07  0.00000000E+00  0.00000000E+00  7.05175381E-04  0.00000000E+00
  0.00000000E+00  1.06242816E-02  0.00000000E+00  0.00000000E+00  0.00000000E+00
  1.82090334E-05  0.00000000E+00  0.00000000E+00  0.00000000E+00  0.00000000E+00
  1.04807785E-02  0.00000000E+00  0.00000000E+00  0.00000000E+00  0.00000000E+00
  0.00000000E+00  0.00000000E+00  0.00000000E+00  7.17734261E-04  0.00000000E+00
  0.00000000E+00  1.58091743E-02  0.00000000E+00  0.00000000E+00  2.80964404E-02
  0.00000000E+00  0.00000000E+00  0.00000000E+00  5.74543955E-03  0.00000000E+00
  0.00000000E+00  0.00000000E+00  0.00000000E+00  5.91745321E-02  0.00000000E+00
  0.00000000E+00  0.00000000E+00  0.00000000E+00  0.00000000E+00  0.00000000E+00
  0.00000000E+00  0.00000000E+00  0.00000000E+00  0.00000000E+00  0.00000000E+00
  5.39266056E-07  0.00000000E+00  0.00000000E+00  7.05175381E-04  0.00000000E+00
  0.00000000E+00  1.06242816E-02  0.00000000E+00  0.00000000E+00  0.00000000E+00
  1.82090334E-05  0.00000000E+00  0.00000000E+00  0.00000000E+00  0.00000000E+00
  1.04807785E-02  0.00000000E+00  0.00000000E+00  0.00000000E+00  0.00000000E+00
  0.00000000E+00  0.00000000E+00  0.00000000E+00  7.17734261E-04  0.00000000E+00
  0.00000000E+00  1.58091743E-02  0.00000000E+00  0.00000000E+00  2.80964404E-02
  0.00000000E+00  0.00000000E+00  0.00000000E+00  5.74543955E-03  0.00000000E+00
  0.00000000E+00  0.00000000E+00  0.00000000E+00  5.91745321E-02  0.00000000E+00
  0.00000000E+00  0.00000000E+00  0.00000000E+00  0.00000000E+00  0.00000000E+00
  0.00000000E+00  1.77683014E-01  0.00000000E+00  0.00000000E+00  0.00000000E+00
  0.00000000E+00  0.00000000E+00  0.00000000E+00  0.00000000E+00  0.00000000E+00
  0.00000000E+00  0.00000000E+00  0.00000000E+00  0.00000000E+00  0.00000000E+00
  0.00000000E+00  0.00000000E+00  0.00000000E+00  0.00000000E+00  0.00000000E+00
 -1.36794231E-05  0.00000000E+00  0.00000000E+00  0.00000000E+00  0.00000000E+00
 -1.83990923E-03  0.00000000E+00  0.00000000E+00  0.00000000E+00  0.00000000E+00
  0.00000000E+00  0.00000000E+00  0.00000000E+00  0.00000000E+00  0.00000000E+00
  0.00000000E+00  0.00000000E+00  0.00000000E+00  0.00000000E+00  0.00000000E+00
  0.00000000E+00  0.00000000E+00  0.00000000E+00 -4.31622573E-03  0.00000000E+00
  0.00000000E+00  0.00000000E+00  0.00000000E+00 -1.03881375E-02  0.00000000E+00
  0.00000000E+00  0.00000000E+00  0.00000000E+00  0.00000000E+00  0.00000000E+00
  0.00000000E+00  0.00000000E+00  0.00000000E+00  0.00000000E+00  0.00000000E+00
  0.00000000E+00  7.05175381E-04  0.00000000E+00  0.00000000E+00  1.93858867E-02
  0.00000000E+00  0.00000000E+00  1.40979745E-01  0.00000000E+00  0.00000000E+00
  0.00000000E+00  3.56808931E-03  0.00000000E+00  0.00000000E+00  0.00000000E+00
  0.00000000E+00  1.24966679E-01  0.00000000E+00  0.00000000E+00  0.00000000E+00
  0.00000000E+00  0.00000000E+00  0.00000000E+00  0.00000000E+00  1.58091743E-02
  0.00000000E+00  0.00000000E+00  1.40934334E-01  0.00000000E+00  0.00000000E+00
  3.21984519E-01  0.00000000E+00  0.00000000E+00  0.00000000E+00  4.28039145E-02
  0.00000000E+00  0.00000000E+00  0.00000000E+00  0.00000000E+00  3.85188520E-01
  0.00000000E+00  0.00000000E+00  0.00000000E+00  0.00000000E+00  0.00000000E+00
  0.00000000E+00  0.00000000E+00  1.71287901E-01  0.00000000E+00  0.00000000E+00
  0.00000000E+00  0.00000000E+00  0.00000000E+00  0.00000000E+00  7.05175381E-04
  0.00000000E+00  0.00000000E+00  1.93858867E-02  0.00000000E+00  0.00000000E+00
  1.40979745E-01  0.00000000E+00  0.00000000E+00  0.00000000E+00  3.56808931E-03
  0.00000000E+00  0.00000000E+00  0.00000000E+00  0.00000000E+00  1.24966679E-01
  0.00000000E+00  0.00000000E+00  0.00000000E+00  0.00000000E+00  0.00000000E+00
  0.00000000E+00  0.00000000E+00  1.58091743E-02  0.00000000E+00  0.00000000E+00
  1.40934334E-01  0.00000000E+00  0.00000000E+00  3.21984519E-01  0.00000000E+00
  0.00000000E+00  0.00000000E+00  4.28039145E-02  0.00000000E+00  0.00000000E+00
  0.00000000E+00  0.00000000E+00  3.85188520E-01  0.00000000E+00  0.00000000E+00
  0.00000000E+00  0.00000000E+00  0.00000000E+00  0.00000000E+00  0.00000000E+00
  1.71287901E-01  0.00000000E+00  0.00000000E+00  6.44329897E-01  0.00000000E+00
  0.00000000E+00  0.00000000E+00  0.00000000E+00  0.00000000E+00  0.00000000E+00
  0.00000000E+00  0.00000000E+00  0.00000000E+00  0.00000000E+00  0.00000000E+00
  0.00000000E+00  0.00000000E+00  0.00000000E+00  0.00000000E+00  0.00000000E+00
  0.00000000E+00  0.00000000E+00 -9.72028455E-03  0.00000000E+00  0.00000000E+00
  0.00000000E+00  0.00000000E+00 -7.95535299E-02  0.00000000E+00  0.00000000E+00
  0.00000000E+00  0.00000000E+00  0.00000000E+00  0.00000000E+00  0.00000000E+00
  0.00000000E+00  0.00000000E+00  0.00000000E+00  0.00000000E+00  0.00000000E+00
  0.00000000E+00  0.00000000E+00  0.00000000E+00  0.00000000E+00  0.00000000E+00
 -1.16607571E-01  0.00000000E+00  0.00000000E+00  0.00000000E+00  0.00000000E+00
 -2.45210218E-01  0.00000000E+00  0.00000000E+00  0.00000000E+00  0.00000000E+00
  0.00000000E+00  0.00000000E+00  0.00000000E+00  0.00000000E+00  0.00000000E+00
  0.00000000E+00  0.00000000E+00  0.00000000E+00  0.00000000E+00  0.00000000E+00
  0.00000000E+00  1.06242816E-02  0.00000000E+00  0.00000000E+00  1.40979745E-01
  0.00000000E+00  0.00000000E+00  9.75720983E-01  0.00000000E+00  0.00000000E+00
  0.00000000E+00  1.49424301E-02  0.00000000E+00  0.00000000E+00  0.00000000E+00
  0.00000000E+00  3.78949971E-01  0.00000000E+00  0.00000000E+00  0.00000000E+00
  0.00000000E+00  0.00000000E+00  0.00000000E+00  0.00000000E+00  2.80964404E-02
  0.00000000E+00  0.00000000E+00  3.21984519E-01  0.00000000E+00  0.00000000E+00
  1.64365488E+00  0.00000000E+00  0.00000000E+00  0.00000000E+00  2.54785855E-02
  0.00000000E+00  0.00000000E+00  0.00000000E+00  0.00000000E+00  5.22172266E-01
  0.00000000E+00  0.00000000E+00  0.00000000E+00  0.00000000E+00  0.00000000E+00
  0.00000000E+00  0.00000000E+00  5.91902931E-02  0.00000000E+00  0.00000000E+00
  6.06245580E-01  0.00000000E+00  0.00000000E+00  0.00000000E+00  0.00000000E+00
  0.00000000E+00  0.00000000E+00  1.06242816E-02  0.00000000E+00  0.00000000E+00
  1.40979745E-01  0.00000000E+00  0.00000000E+00  9.75720983E-01  0.00000000E+00
  0.00000000E+00  0.00000000E+00  1.49424301E-02  0.00000000E+00  0.00000000E+00
  0.00000000E+00  0.00000000E+00  3.78949971E-01  0.00000000E+00  0.00000000E+00
  0.00000000E+00  0.00000000E+00  0.00000000E+00  0.00000000E+00  0.00000000E+00
  2.80964404E-02  0.00000000E+00  0.00000000E+00  3.21984519E-01  0.00000000E+00
  0.00000000E+00  1.64365488E+00  0.00000000E+00  0.00000000E+00  0.00000000E+00
  2.54785855E-02  0.00000000E+00  0.00000000E+00  0.00000000E+00  0.00000000E+00
  5.22172266E-01  0.00000000E+00  0.00000000E+00  0.00000000E+00  0.00000000E+00
  0.00000000E+00  0.00000000E+00  0.00000000E+00  5.91902931E-02  0.00000000E+00
  0.00000000E+00  6.06245580E-01  0.00000000E+00  0.00000000E+00  2.45098039E+00
  0.00000000E+00  0.00000000E+00  0.00000000E+00  0.00000000E+00  0.00000000E+00
  0.00000000E+00  0.00000000E+00  0.00000000E+00  0.00000000E+00  0.00000000E+00
  0.00000000E+00  0.00000000E+00  0.00000000E+00  0.00000000E+00  0.00000000E+00
  0.00000000E+00  0.00000000E+00  0.00000000E+00 -1.54844595E-01  0.00000000E+00
  0.00000000E+00  0.00000000E+00  0.00000000E+00 -9.17653362E-01  0.00000000E+00
  0.00000000E+00  0.00000000E+00  0.00000000E+00  0.00000000E+00  0.00000000E+00
  0.00000000E+00  0.00000000E+00  0.00000000E+00  0.00000000E+00  0.00000000E+00
  0.00000000E+00  0.00000000E+00  0.00000000E+00  0.00000000E+00  0.00000000E+00
  0.00000000E+00 -2.64028087E-01  0.00000000E+00  0.00000000E+00  0.00000000E+00
  0.00000000E+00 -1.26447598E+00  0.00000000E+00  0.00000000E+00  0.00000000E+00
  0.00000000E+00  0.00000000E+00  0.00000000E+00  0.00000000E+00  0.00000000E+00
  0.00000000E+00  0.00000000E+00  0.00000000E+00  0.00000000E+00  0.00000000E+00
  0.00000000E+00  0.00000000E+00  0.00000000E+00  0.00000000E+00  0.00000000E+00
  0.00000000E+00  0.00000000E+00  0.00000000E+00  0.00000000E+00  0.00000000E+00
  0.00000000E+00  0.00000000E+00  0.00000000E+00  0.00000000E+00  0.00000000E+00
  0.00000000E+00  0.00000000E+00  1.67028333E-04  0.00000000E+00  0.00000000E+00
  0.00000000E+00  0.00000000E+00 -7.86543450E-04  0.00000000E+00  0.00000000E+00
  0.00000000E+00  0.00000000E+00  0.00000000E+00  0.00000000E+00  0.00000000E+00
  0.00000000E+00  0.00000000E+00  0.00000000E+00  0.00000000E+00  0.00000000E+00
  0.00000000E+00  0.00000000E+00  0.00000000E+00  0.00000000E+00  0.00000000E+00
  1.36492207E-02  0.00000000E+00  0.00000000E+00  0.00000000E+00  0.00000000E+00
 -2.48956277E-02  0.00000000E+00  0.00000000E+00  0.00000000E+00  0.00000000E+00
  0.00000000E+00  0.00000000E+00  0.00000000E+00  0.00000000E+00  0.00000000E+00
  0.00000000E+00  0.00000000E+00  0.00000000E+00  0.00000000E+00  0.00000000E+00
  0.00000000E+00  0.00000000E+00  0.00000000E+00  0.00000000E+00  0.00000000E+00
 -1.82090334E-05  0.00000000E+00  0.00000000E+00 -3.56808931E-03  0.00000000E+00
  0.00000000E+00 -1.49424301E-02  0.00000000E+00  0.00000000E+00  0.00000000E+00
 -3.06230115E-04  0.00000000E+00  0.00000000E+00  0.00000000E+00  0.00000000E+00
 -2.73796339E-02  0.00000000E+00  0.00000000E+00  0.00000000E+00  0.00000000E+00
  0.00000000E+00  0.00000000E+00  0.00000000E+00 -5.74543955E-03  0.00000000E+00
  0.00000000E+00 -4.28039145E-02  0.00000000E+00  0.00000000E+00 -2.54785855E-02
  0.00000000E+00  0.00000000E+00  0.00000000E+00 -2.74049402E-02  0.00000000E+00
  0.00000000E+00  0.00000000E+00  0.00000000E+00 -7.27423861E-02  0.00000000E+00
  0.00000000E+00  0.00000000E+00  0.00000000E+00  0.00000000E+00  0.00000000E+00
  0.00000000E+00  0.00000000E+00  0.00000000E+00  0.00000000E+00  0.00000000E+00
  0.00000000E+00  0.00000000E+00  0.00000000E+00  0.00000000E+00  0.00000000E+00
  0.00000000E+00  0.00000000E+00  0.00000000E+00  0.00000000E+00  0.00000000E+00
 -1.82090334E-05  0.00000000E+00  0.00000000E+00 -3.56808931E-03  0.00000000E+00
  0.00000000E+00 -1.49424301E-02  0.00000000E+00  0.00000000E+00  0.00000000E+00
 -3.06230115E-04  0.00000000E+00  0.00000000E+00  0.00000000E+00  0.00000000E+00
 -2.73796339E-02  0.00000000E+00  0.00000000E+00  0.00000000E+00  0.00000000E+00
  0.00000000E+00  0.00000000E+00  0.00000000E+00 -5.74543955E-03  0.00000000E+00
  0.00000000E+00 -4.28039145E-02  0.00000000E+00  0.00000000E+00 -2.54785855E-02
  0.00000000E+00  0.00000000E+00  0.00000000E+00 -2.74049402E-02  0.00000000E+00
  0.00000000E+00  0.00000000E+00  0.00000000E+00 -7.27423861E-02  0.00000000E+00
  0.00000000E+00  0.00000000E+00  0.00000000E+00  0.00000000E+00  0.00000000E+00
  0.00000000E+00  0.00000000E+00  0.00000000E+00  0.00000000E+00  0.00000000E+00
  0.00000000E+00  0.00000000E+00  0.00000000E+00  0.00000000E+00  0.00000000E+00
  0.00000000E+00  2.36518448E-01  0.00000000E+00  0.00000000E+00  0.00000000E+00
  0.00000000E+00  0.00000000E+00  0.00000000E+00  0.00000000E+00  0.00000000E+00
  0.00000000E+00  0.00000000E+00  0.00000000E+00  0.00000000E+00  0.00000000E+00
  0.00000000E+00  0.00000000E+00  0.00000000E+00  0.00000000E+00  0.00000000E+00
 -1.56333949E-22  0.00000000E+00  0.00000000E+00  0.00000000E+00  0.00000000E+00
  4.16930180E-19  0.00000000E+00  0.00000000E+00  0.00000000E+00  0.00000000E+00
  0.00000000E+00  0.00000000E+00  0.00000000E+00  0.00000000E+00  0.00000000E+00
  0.00000000E+00  0.00000000E+00  0.00000000E+00  0.00000000E+00  0.00000000E+00
  0.00000000E+00  0.00000000E+00  0.00000000E+00 -3.98142844E-19  0.00000000E+00
  0.00000000E+00  0.00000000E+00  0.00000000E+00 -1.56614713E-18  0.00000000E+00
  0.00000000E+00  0.00000000E+00  0.00000000E+00  0.00000000E+00  0.00000000E+00
  0.00000000E+00  0.00000000E+00  0.00000000E+00  0.00000000E+00  0.00000000E+00
  0.00000000E+00  0.00000000E+00  0.00000000E+00  0.00000000E+00  0.00000000E+00
  0.00000000E+00  8.44782888E-06  4.81302785E-03  6.20812018E-02  9.59047612E-02
  0.00000000E+00  0.00000000E+00  1.36794231E-05  0.00000000E+00  0.00000000E+00
  9.72028455E-03  0.00000000E+00  0.00000000E+00  1.54844595E-01  1.67028333E-04
  0.00000000E+00  0.00000000E+00 -1.56333949E-22  0.00000000E+00  7.34282979E-02
  0.00000000E+00  0.00000000E+00  4.16930180E-19  0.00000000E+00  2.41221912E-03
  6.14284454E-02  1.61677500E-01  1.23423723E-01  0.00000000E+00  0.00000000E+00
  4.31622573E-03  0.00000000E+00  0.00000000E+00  1.16607571E-01  0.00000000E+00
  0.00000000E+00  2.64028087E-01  1.36492207E-02  0.00000000E+00  0.00000000E+00
 -3.98142844E-19  0.00000000E+00  2.24514751E-01  0.00000000E+00  0.00000000E+00
 -1.56614713E-18  0.00000000E+00  1.86621370E-01  4.32246747E-01  3.36623363E-01
  1.49740957E-01  0.00000000E+00  0.00000000E+00  0.00000000E+00  0.00000000E+00
  0.00000000E+00  0.00000000E+00  0.00000000E+00  0.00000000E+00  0.00000000E+00
 -2.73107980E-01  0.00000000E+00  0.00000000E+00 -1.36344984E-17  0.00000000E+00
  0.00000000E+00  0.00000000E+00  0.00000000E+00  0.00000000E+00  0.00000000E+00
  0.00000000E+00  0.00000000E+00  0.00000000E+00  0.00000000E+00  0.00000000E+00
  0.00000000E+00  0.00000000E+00  0.00000000E+00  0.00000000E+00  0.00000000E+00
  0.00000000E+00  0.00000000E+00  7.34282979E-02  0.00000000E+00  0.00000000E+00
  0.00000000E+00  0.00000000E+00  1.54563235E-01  0.00000000E+00  0.00000000E+00
  0.00000000E+00  0.00000000E+00  0.00000000E+00  0.00000000E+00  0.00000000E+00
  0.00000000E+00  0.00000000E+00  0.00000000E+00  0.00000000E+00  0.00000000E+00
  0.00000000E+00  0.00000000E+00  0.00000000E+00  0.00000000E+00  0.00000000E+00
  2.24514751E-01  0.00000000E+00  0.00000000E+00  0.00000000E+00  0.00000000E+00
 -1.44001671E-02  0.00000000E+00  0.00000000E+00  0.00000000E+00  0.00000000E+00
  0.00000000E+00  0.00000000E+00  0.00000000E+00  0.00000000E+00  0.00000000E+00
  0.00000000E+00  0.00000000E+00  0.00000000E+00  0.00000000E+00  0.00000000E+00
  0.00000000E+00  0.00000000E+00  0.00000000E+00 -1.88645345E-01  0.00000000E+00
  0.00000000E+00  0.00000000E+00  0.00000000E+00  0.00000000E+00  0.00000000E+00
 -1.04807785E-02  0.00000000E+00  0.00000000E+00 -1.24966679E-01  0.00000000E+00
  0.00000000E+00 -3.78949971E-01  0.00000000E+00  0.00000000E+00  0.00000000E+00
 -2.73796339E-02  0.00000000E+00  0.00000000E+00  0.00000000E+00  0.00000000E+00
 -3.76499437E-01  0.00000000E+00  0.00000000E+00  0.00000000E+00  0.00000000E+00
  0.00000000E+00  0.00000000E+00  0.00000000E+00 -5.91745321E-02  0.00000000E+00
  0.00000000E+00 -3.85188520E-01  0.00000000E+00  0.00000000E+00 -5.22172266E-01
  0.00000000E+00  0.00000000E+00  0.00000000E+00 -7.27423861E-02  0.00000000E+00
  0.00000000E+00  0.00000000E+00  0.00000000E+00 -3.59676691E-01  0.00000000E+00
  0.00000000E+00  0.00000000E+00  0.00000000E+00  0.00000000E+00  0.00000000E+00
  0.00000000E+00  0.00000000E+00  0.00000000E+00  0.00000000E+00  0.00000000E+00
  0.00000000E+00  0.00000000E+00  0.00000000E+00  0.00000000E+00  0.00000000E+00
  0.00000000E+00  1.63371661E-01  0.00000000E+00  0.00000000E+00  0.00000000E+00
  0.00000000E+00  0.00000000E+00  0.00000000E+00  0.00000000E+00  0.00000000E+00
 -1.04807785E-02  0.00000000E+00  0.00000000E+00 -1.24966679E-01  0.00000000E+00
  0.00000000E+00 -3.78949971E-01  0.00000000E+00  0.00000000E+00  0.00000000E+00
 -2.73796339E-02  0.00000000E+00  0.00000000E+00  0.00000000E+00  0.00000000E+00
 -3.76499437E-01  0.00000000E+00  0.00000000E+00  0.00000000E+00  0.00000000E+00
  0.00000000E+00  0.00000000E+00  0.00000000E+00 -5.91745321E-02  0.00000000E+00
  0.00000000E+00 -3.85188520E-01  0.00000000E+00  0.00000000E+00 -5.22172266E-01
  0.00000000E+00  0.00000000E+00  0.00000000E+00 -7.27423861E-02  0.00000000E+00
  0.00000000E+00  0.00000000E+00  0.00000000E+00 -3.59676691E-01  0.00000000E+00
  0.00000000E+00  0.00000000E+00  0.00000000E+00  0.00000000E+00  0.00000000E+00
  0.00000000E+00  0.00000000E+00  0.00000000E+00  0.00000000E+00  0.00000000E+00
  0.00000000E+00  0.00000000E+00  0.00000000E+00  0.00000000E+00  0.00000000E+00
  0.00000000E+00  1.63371661E-01  0.00000000E+00  0.00000000E+00  0.00000000E+00
  0.00000000E+00  1.01214575E+00  0.00000000E+00  0.00000000E+00  0.00000000E+00
  0.00000000E+00  0.00000000E+00  0.00000000E+00  0.00000000E+00  0.00000000E+00
  0.00000000E+00  0.00000000E+00  0.00000000E+00  0.00000000E+00  0.00000000E+00
  0.00000000E+00  0.00000000E+00  0.00000000E+00  0.00000000E+00  0.00000000E+00
  4.16930180E-19  0.00000000E+00  0.00000000E+00  0.00000000E+00  0.00000000E+00
 -3.00210237E-18  0.00000000E+00  0.00000000E+00  0.00000000E+00  0.00000000E+00
  0.00000000E+00  0.00000000E+00  0.00000000E+00  0.00000000E+00  0.00000000E+00
  0.00000000E+00  0.00000000E+00  0.00000000E+00  0.00000000E+00  0.00000000E+00
  0.00000000E+00  0.00000000E+00  0.00000000E+00 -1.56614713E-18  0.00000000E+00
  0.00000000E+00  0.00000000E+00  0.00000000E+00  4.34949988E-17  0.00000000E+00
  0.00000000E+00  0.00000000E+00  0.00000000E+00  0.00000000E+00  0.00000000E+00
  0.00000000E+00  0.00000000E+00  0.00000000E+00  0.00000000E+00  0.00000000E+00
  0.00000000E+00  0.00000000E+00  0.00000000E+00  0.00000000E+00  0.00000000E+00
  0.00000000E+00 -7.53121970E-18  0.00000000E+00  0.00000000E+00  0.00000000E+00
  0.00000000E+00  1.79457939E-03  5.86876848E-02  4.73755211E-01  9.73651094E-01
  0.00000000E+00  0.00000000E+00  1.83990923E-03  0.00000000E+00  0.00000000E+00
  7.95535299E-02  0.00000000E+00  0.00000000E+00  9.17653362E-01 -7.86543450E-04
  0.00000000E+00  0.00000000E+00  4.16930180E-19  0.00000000E+00  1.54563235E-01
  0.00000000E+00  0.00000000E+00 -3.00210237E-18  0.00000000E+00  1.44131323E-02
  2.46857287E-01  9.94698123E-01  1.23075725E+00  0.00000000E+00  0.00000000E+00
  1.03881375E-02  0.00000000E+00  0.00000000E+00  2.45210218E-01  0.00000000E+00
  0.00000000E+00  1.26447598E+00 -2.48956277E-02  0.00000000E+00  0.00000000E+00
 -1.56614713E-18  0.00000000E+00 -1.44001671E-02  0.00000000E+00  0.00000000E+00
  4.34949988E-17  0.00000000E+00  7.11458243E-02  7.42108557E-01  1.75593236E+00
  1.47280833E+00  0.00000000E+00  0.00000000E+00  0.00000000E+00  0.00000000E+00
  0.00000000E+00  0.00000000E+00  0.00000000E+00  0.00000000E+00  0.00000000E+00
 -1.88645345E-01  0.00000000E+00  0.00000000E+00 -7.53121970E-18  0.00000000E+00
 -1.16872524E+00  0.00000000E+00  0.00000000E+00 -1.53212036E-17  0.00000000E+00
Multipole Matrix (0,2,0)                   R   N=        2415
  1.76393444E-01  2.21880681E-01  7.67341928E-01  1.39282807E-01  9.20511195E-01
  2.43427459E+00  5.68664226E-02  5.29175765E-01  2.77544267E+00  9.89707047E+00
  0.00000000E+00  0.00000000E+00  0.00000000E+00  0.00000000E+00  1.77683014E-01
  0.00000000E+00  0.00000000E+00  0.00000000E+00  0.00000000E+00  0.00000000E+00
  5.33049041E-01  0.00000000E+00  0.00000000E+00  0.00000000E+00  0.00000000E+00
  0.00000000E+00  0.00000000E+00  1.77683014E-01  0.00000000E+00  0.00000000E+00
  0.00000000E+00  0.00000000E+00  1.71287901E-01  0.00000000E+00  0.00000000E+00
  6.44329897E-01  0.00000000E+00  0.00000000E+00  0.00000000E+00  0.00000000E+00
  0.00000000E+00  5.13863703E-01  0.00000000E+00  0.00000000E+00  1.93298969E+00
  0.00000000E+00  0.00000000E+00  0.00000000E+00  0.00000000E+00  0.00000000E+00
  0.00000000E+00  1.71287901E-01  0.00000000E+00  0.00000000E+00  6.44329897E-01
  0.00000000E+00  0.00000000E+00  0.00000000E+00  0.00000000E+00  5.91902931E-02
  0.00000000E+00  0.00000000E+00  6.06245580E-01  0.00000000E+00  0.00000000E+00
  2.45098039E+00  0.00000000E+00  0.00000000E+00  0.00000000E+00  0.00000000E+00
  0.00000000E+00  1.77570879E-01  0.00000000E+00  0.00000000E+00  1.81873674E+00
  0.00000000E+00  0.00000000E+00  7.35294118E+00  0.00000000E+00  0.00000000E+00
  0.00000000E+00  0.00000000E+00  0.00000000E+00  0.00000000E+00  5.91902931E-02
  0.00000000E+00  0.00000000E+00  6.06245580E-01  0.00000000E+00  0.00000000E+00
  2.45098039E+00 -1.07745898E-01 -2.49557776E-01 -1.94349589E-01 -8.64529820E-02
  0.00000000E+00  0.00000000E+00  0.00000000E+00  0.00000000E+00  0.00000000E+00
  0.00000000E+00  0.00000000E+00  0.00000000E+00  0.00000000E+00  3.94197414E-01
  0.00000000E+00  0.00000000E+00  0.00000000E+00  0.00000000E+00  0.00000000E+00
  0.00000000E+00  0.00000000E+00  0.00000000E+00  0.00000000E+00  0.00000000E+00
  0.00000000E+00  0.00000000E+00  0.00000000E+00  0.00000000E+00  2.36518448E-01
  0.00000000E+00  0.00000000E+00  0.00000000E+00  0.00000000E+00  0.00000000E+00
  0.00000000E+00  0.00000000E+00  0.00000000E+00  0.00000000E+00  0.00000000E+00
  0.00000000E+00  0.00000000E+00  0.00000000E+00  0.00000000E+00  0.00000000E+00
  7.09555345E-01 -1.86621370E-01 -4.32246747E-01 -3.36623363E-01 -1.49740957E-01
  0.00000000E+00  0.00000000E+00  0.00000000E+00  0.00000000E+00  0.00000000E+00
  0.00000000E+00  0.00000000E+00  0.00000000E+00  0.00000000E+00  2.73107980E-01
  0.00000000E+00  0.00000000E+00  7.09555345E-01  0.00000000E+00  0.00000000E+00
  0.00000000E+00  0.00000000E+00  0.00000000E+00  0.00000000E+00  0.00000000E+00
  0.00000000E+00  0.00000000E+00  0.00000000E+00  0.00000000E+00  0.00000000E+00
  0.00000000E+00  0.00000000E+00  0.00000000E+00  0.00000000E+00  0.00000000E+00
  7.09555345E-01 -4.10760608E-02 -4.28456575E-01 -1.01378802E+00 -8.50326284E-01
  0.00000000E+00  0.00000000E+00  0.00000000E+00  0.00000000E+00  0.00000000E+00
  0.00000000E+00  0.00000000E+00  0.00000000E+00  0.00000000E+00  2.72286101E-01
  0.00000000E+00  0.00000000E+00  1.88645345E-01  0.00000000E+00  1.68690958E+00
  0.00000000E+00  0.00000000E+00  0.00000000E+00  0.00000000E+00  0.00000000E+00
  0.00000000E+00  0.00000000E+00  0.00000000E+00  0.00000000E+00  0.00000000E+00
  0.00000000E+00  0.00000000E+00  0.00000000E+00  0.00000000E+00  1.63371661E-01
  0.00000000E+00  0.00000000E+00  0.00000000E+00  0.00000000E+00  1.01214575E+00
  0.00000000E+00  0.00000000E+00  0.00000000E+00  0.00000000E+00  0.00000000E+00
  0.00000000E+00  0.00000000E+00  0.00000000E+00  0.00000000E+00  0.00000000E+00
  0.00000000E+00  0.00000000E+00  0.00000000E+00  0.00000000E+00  0.00000000E+00
  4.90114982E-01  0.00000000E+00  0.00000000E+00  0.00000000E+00  0.00000000E+00
  3.03643725E+00 -7.11458243E-02 -7.42108557E-01 -1.75593236E+00 -1.47280833E+00
  0.00000000E+00  0.00000000E+00  0.00000000E+00  0.00000000E+00  0.00000000E+00
  0.00000000E+00  0.00000000E+00  0.00000000E+00  0.00000000E+00  1.88645345E-01
  0.00000000E+00  0.00000000E+00  4.90114982E-01  0.00000000E+00  1.16872524E+00
  0.00000000E+00  0.00000000E+00  3.03643725E+00  0.00000000E+00  0.00000000E+00
  0.00000000E+00  0.00000000E+00  0.00000000E+00  0.00000000E+00  0.00000000E+00
  0.00000000E+00  0.00000000E+00  0.00000000E+00  0.00000000E+00  0.00000000E+00
  0.00000000E+00  0.00000000E+00  0.00000000E+00  0.00000000E+00  0.00000000E+00
  4.90114982E-01  0.00000000E+00  0.00000000E+00  0.00000000E+00  0.00000000E+00
  3.03643725E+00  4.87227556E-02  1.29572354E-01  1.14172674E-01  5.39827629E-02
  0.00000000E+00  0.00000000E+00  7.02018147E-02  0.00000000E+00  0.00000000E+00
  1.68322224E-01  0.00000000E+00  0.00000000E+00  9.71168904E-02  5.66280229E-02
  0.00000000E+00  0.00000000E+00 -5.77667998E-02  0.00000000E+00  8.34259005E-02
  0.00000000E+00  0.00000000E+00 -4.63319704E-02  0.00000000E+00  1.76393444E-01
  1.29572354E-01  5.44633504E-01  7.81019301E-01  5.03702852E-01  0.00000000E+00
  0.00000000E+00  7.39174280E-02  0.00000000E+00  0.00000000E+00  3.95771965E-01
  0.00000000E+00  0.00000000E+00  5.51051476E-01 -1.00021420E-01  0.00000000E+00
  0.00000000E+00 -2.55929088E-01  0.00000000E+00 -7.01458391E-02  0.00000000E+00
  0.00000000E+00 -5.52159935E-01  0.00000000E+00  2.21880681E-01  7.67341928E-01
  1.14172674E-01  7.81019301E-01  2.18493018E+00  2.65951839E+00  0.00000000E+00
  0.00000000E+00  2.26535889E-02  0.00000000E+00  0.00000000E+00  2.38413005E-01
  0.00000000E+00  0.00000000E+00  1.01960435E+00 -1.53490224E-01  0.00000000E+00
  0.00000000E+00 -2.76434729E-01  0.00000000E+00 -7.59784079E-01  0.00000000E+00
  0.00000000E+00 -1.50733502E+00  0.00000000E+00  1.39282807E-01  9.20511195E-01
  2.43427459E+00  5.39827629E-02  5.03702852E-01  2.65951839E+00  9.63747600E+00
  0.00000000E+00  0.00000000E+00  2.71635837E-03  0.00000000E+00  0.00000000E+00
  4.21655531E-02  0.00000000E+00  0.00000000E+00  4.93400751E-01 -8.18753346E-02
  0.00000000E+00  0.00000000E+00 -1.42165018E-01  0.00000000E+00 -8.02297924E-01
  0.00000000E+00  0.00000000E+00 -1.40346467E+00  0.00000000E+00  5.68664226E-02
  5.29175765E-01  2.77544267E+00  9.89707047E+00  0.00000000E+00  0.00000000E+00
  0.00000000E+00  0.00000000E+00  4.04271320E-02  0.00000000E+00  0.00000000E+00
  9.03153912E-02  0.00000000E+00  0.00000000E+00  4.84537844E-02  0.00000000E+00
  0.00000000E+00  0.00000000E+00  9.46052713E-02  0.00000000E+00  0.00000000E+00
  0.00000000E+00  0.00000000E+00  1.02230877E-01  0.00000000E+00  0.00000000E+00
  0.00000000E+00  0.00000000E+00  0.00000000E+00  0.00000000E+00  0.00000000E+00
  1.77683014E-01  0.00000000E+00  0.00000000E+00  0.00000000E+00  0.00000000E+00
  0.00000000E+00  1.21281396E-01  0.00000000E+00  0.00000000E+00  2.70946173E-01
  0.00000000E+00  0.00000000E+00  1.45361353E-01  0.00000000E+00  0.00000000E+00
  0.00000000E+00  2.83815814E-01  0.00000000E+00  0.00000000E+00  0.00000000E+00
  0.00000000E+00  3.06692632E-01  0.00000000E+00  0.00000000E+00  0.00000000E+00
  0.00000000E+00  0.00000000E+00  0.00000000E+00  0.00000000E+00  5.33049041E-01
 -7.02018147E-02 -7.39174280E-02 -2.26535889E-02 -2.71635837E-03  0.00000000E+00
  0.00000000E+00 -7.92776055E-02  0.00000000E+00  0.00000000E+00 -2.52951520E-02
  0.00000000E+00  0.00000000E+00  2.90580139E-02  1.15161815E-02  0.00000000E+00
  0.00000000E+00  7.10716217E-02  0.00000000E+00  7.62098961E-02  0.00000000E+00
  0.00000000E+00  1.79467141E-02  0.00000000E+00  0.00000000E+00  0.00000000E+00
  0.00000000E+00  0.00000000E+00  0.00000000E+00  0.00000000E+00  1.77683014E-01
  0.00000000E+00  0.00000000E+00  0.00000000E+00  0.00000000E+00  9.03153912E-02
  0.00000000E+00  0.00000000E+00  4.28350678E-01  0.00000000E+00  0.00000000E+00
  5.11481838E-01  0.00000000E+00  0.00000000E+00  0.00000000E+00  1.12809566E-01
  0.00000000E+00  0.00000000E+00  0.00000000E+00  0.00000000E+00  4.74043878E-01
  0.00000000E+00  0.00000000E+00  0.00000000E+00  0.00000000E+00  0.00000000E+00
  0.00000000E+00  0.00000000E+00  1.71287901E-01  0.00000000E+00  0.00000000E+00
  6.44329897E-01  0.00000000E+00  0.00000000E+00  0.00000000E+00  0.00000000E+00
  0.00000000E+00  2.70946173E-01  0.00000000E+00  0.00000000E+00  1.28505203E+00
  0.00000000E+00  0.00000000E+00  1.53444552E+00  0.00000000E+00  0.00000000E+00
  0.00000000E+00  3.38428697E-01  0.00000000E+00  0.00000000E+00  0.00000000E+00
  0.00000000E+00  1.42213163E+00  0.00000000E+00  0.00000000E+00  0.00000000E+00
  0.00000000E+00  0.00000000E+00  0.00000000E+00  0.00000000E+00  5.13863703E-01
  0.00000000E+00  0.00000000E+00  1.93298969E+00 -1.68322224E-01 -3.95771965E-01
 -2.38413005E-01 -4.21655531E-02  0.00000000E+00  0.00000000E+00 -2.52951520E-02
  0.00000000E+00  0.00000000E+00  7.85863674E-02  0.00000000E+00  0.00000000E+00
  3.37605559E-01  2.29888502E-01  0.00000000E+00  0.00000000E+00  3.07318842E-01
  0.00000000E+00  5.47753808E-01  0.00000000E+00  0.00000000E+00  3.01775355E-01
  0.00000000E+00  0.00000000E+00  0.00000000E+00  0.00000000E+00  0.00000000E+00
  0.00000000E+00  0.00000000E+00  1.71287901E-01  0.00000000E+00  0.00000000E+00
  6.44329897E-01  0.00000000E+00  0.00000000E+00  0.00000000E+00  0.00000000E+00
  4.84537844E-02  0.00000000E+00  0.00000000E+00  5.11481838E-01  0.00000000E+00
  0.00000000E+00  2.20154579E+00  0.00000000E+00  0.00000000E+00  0.00000000E+00
  2.25026385E-02  0.00000000E+00  0.00000000E+00  0.00000000E+00  0.00000000E+00
  4.09283841E-01  0.00000000E+00  0.00000000E+00  0.00000000E+00  0.00000000E+00
  0.00000000E+00  0.00000000E+00  0.00000000E+00  5.91902931E-02  0.00000000E+00
  0.00000000E+00  6.06245580E-01  0.00000000E+00  0.00000000E+00  2.45098039E+00
  0.00000000E+00  0.00000000E+00  0.00000000E+00  0.00000000E+00  0.00000000E+00
  1.45361353E-01  0.00000000E+00  0.00000000E+00  1.53444552E+00  0.00000000E+00
  0.00000000E+00  6.60463738E+00  0.00000000E+00  0.00000000E+00  0.00000000E+00
  6.75079156E-02  0.00000000E+00  0.00000000E+00  0.00000000E+00  0.00000000E+00
  1.22785152E+00  0.00000000E+00  0.00000000E+00  0.00000000E+00  0.00000000E+00
  0.00000000E+00  0.00000000E+00  0.00000000E+00  1.77570879E-01  0.00000000E+00
  0.00000000E+00  1.81873674E+00  0.00000000E+00  0.00000000E+00  7.35294118E+00
 -9.71168904E-02 -5.51051476E-01 -1.01960435E+00 -4.93400751E-01  0.00000000E+00
  0.00000000E+00  2.90580139E-02  0.00000000E+00  0.00000000E+00  3.37605559E-01
  0.00000000E+00  0.00000000E+00  1.72896920E+00  1.55528871E-01  0.00000000E+00
  0.00000000E+00  2.33189107E-01  0.00000000E+00  9.73019660E-01  0.00000000E+00
  0.00000000E+00  9.91108910E-01  0.00000000E+00  0.00000000E+00  0.00000000E+00
  0.00000000E+00  0.00000000E+00  0.00000000E+00  0.00000000E+00  5.91902931E-02
  0.00000000E+00  0.00000000E+00  6.06245580E-01  0.00000000E+00  0.00000000E+00
  2.45098039E+00  5.66280229E-02 -1.00021420E-01 -1.53490224E-01 -8.18753346E-02
  0.00000000E+00  0.00000000E+00 -1.15161815E-02  0.00000000E+00  0.00000000E+00
 -2.29888502E-01  0.00000000E+00  0.00000000E+00 -1.55528871E-01 -8.81050947E-02
  0.00000000E+00  0.00000000E+00 -1.00776977E-02  0.00000000E+00 -5.23032629E-02
  0.00000000E+00  0.00000000E+00  1.11594517E-01  0.00000000E+00 -1.07745898E-01
 -2.49557776E-01 -1.94349589E-01 -8.64529820E-02  0.00000000E+00  0.00000000E+00
  0.00000000E+00  0.00000000E+00  0.00000000E+00  0.00000000E+00  0.00000000E+00
  0.00000000E+00  0.00000000E+00  3.94197414E-01  0.00000000E+00  0.00000000E+00
  0.00000000E+00  0.00000000E+00 -9.46052713E-02  0.00000000E+00  0.00000000E+00
 -1.12809566E-01  0.00000000E+00  0.00000000E+00 -2.25026385E-02  0.00000000E+00
  0.00000000E+00  0.00000000E+00 -9.52292875E-02  0.00000000E+00  0.00000000E+00
  0.00000000E+00  0.00000000E+00  1.68632217E-02  0.00000000E+00  0.00000000E+00
  0.00000000E+00  0.00000000E+00  0.00000000E+00  0.00000000E+00  0.00000000E+00
  0.00000000E+00  0.00000000E+00  0.00000000E+00  0.00000000E+00  0.00000000E+00
  0.00000000E+00  0.00000000E+00  0.00000000E+00  0.00000000E+00  0.00000000E+00
  2.36518448E-01  0.00000000E+00  0.00000000E+00  0.00000000E+00  0.00000000E+00
  0.00000000E+00 -2.83815814E-01  0.00000000E+00  0.00000000E+00 -3.38428697E-01
  0.00000000E+00  0.00000000E+00 -6.75079156E-02  0.00000000E+00  0.00000000E+00
  0.00000000E+00 -2.85687862E-01  0.00000000E+00  0.00000000E+00  0.00000000E+00
  0.00000000E+00  5.05896650E-02  0.00000000E+00  0.00000000E+00  0.00000000E+00
  0.00000000E+00  0.00000000E+00  0.00000000E+00  0.00000000E+00  0.00000000E+00
  0.00000000E+00  0.00000000E+00  0.00000000E+00  0.00000000E+00  0.00000000E+00
  0.00000000E+00  0.00000000E+00  0.00000000E+00  0.00000000E+00  7.09555345E-01
 -5.77667998E-02 -2.55929088E-01 -2.76434729E-01 -1.42165018E-01  0.00000000E+00
  0.00000000E+00 -7.10716217E-02  0.00000000E+00  0.00000000E+00 -3.07318842E-01
  0.00000000E+00  0.00000000E+00 -2.33189107E-01 -1.00776977E-02  0.00000000E+00
  0.00000000E+00  2.33322609E-01  0.00000000E+00 -9.94078219E-02  0.00000000E+00
  0.00000000E+00  3.21595400E-01  0.00000000E+00 -1.86621370E-01 -4.32246747E-01
 -3.36623363E-01 -1.49740957E-01  0.00000000E+00  0.00000000E+00  0.00000000E+00
  0.00000000E+00  0.00000000E+00  0.00000000E+00  0.00000000E+00  0.00000000E+00
  0.00000000E+00  2.73107980E-01  0.00000000E+00  0.00000000E+00  7.09555345E-01
  0.00000000E+00  0.00000000E+00  0.00000000E+00  0.00000000E+00  0.00000000E+00
  0.00000000E+00  0.00000000E+00  0.00000000E+00  0.00000000E+00  0.00000000E+00
  0.00000000E+00  0.00000000E+00  0.00000000E+00  0.00000000E+00  0.00000000E+00
  0.00000000E+00  0.00000000E+00  2.33322609E-01  0.00000000E+00  0.00000000E+00
  0.00000000E+00  0.00000000E+00  3.21595400E-01  0.00000000E+00  0.00000000E+00
  0.00000000E+00  0.00000000E+00  0.00000000E+00  0.00000000E+00  0.00000000E+00
  0.00000000E+00  0.00000000E+00  0.00000000E+00  0.00000000E+00  0.00000000E+00
  0.00000000E+00  0.00000000E+00  0.00000000E+00  0.00000000E+00  0.00000000E+00
  7.09555345E-01  8.34259005E-02 -7.01458391E-02 -7.59784079E-01 -8.02297924E-01
  0.00000000E+00  0.00000000E+00 -7.62098961E-02  0.00000000E+00  0.00000000E+00
 -5.47753808E-01  0.00000000E+00  0.00000000E+00 -9.73019660E-01 -5.23032629E-02
  0.00000000E+00  0.00000000E+00 -9.94078219E-02  0.00000000E+00  5.59707272E-01
  0.00000000E+00  0.00000000E+00  6.67001246E-01  0.00000000E+00 -4.10760608E-02
 -4.28456575E-01 -1.01378802E+00 -8.50326284E-01  0.00000000E+00  0.00000000E+00
  0.00000000E+00  0.00000000E+00  0.00000000E+00  0.00000000E+00  0.00000000E+00
  0.00000000E+00  0.00000000E+00  2.72286101E-01  0.00000000E+00  0.00000000E+00
  1.88645345E-01  0.00000000E+00  1.68690958E+00  0.00000000E+00  0.00000000E+00
  0.00000000E+00  0.00000000E+00 -1.02230877E-01  0.00000000E+00  0.00000000E+00
 -4.74043878E-01  0.00000000E+00  0.00000000E+00 -4.09283841E-01  0.00000000E+00
  0.00000000E+00  0.00000000E+00  1.68632217E-02  0.00000000E+00  0.00000000E+00
  0.00000000E+00  0.00000000E+00  3.74787745E-01  0.00000000E+00  0.00000000E+00
  0.00000000E+00  0.00000000E+00  0.00000000E+00  0.00000000E+00  0.00000000E+00
  0.00000000E+00  0.00000000E+00  0.00000000E+00  0.00000000E+00  0.00000000E+00
  0.00000000E+00  0.00000000E+00  0.00000000E+00  0.00000000E+00  0.00000000E+00
  1.63371661E-01  0.00000000E+00  0.00000000E+00  0.00000000E+00  0.00000000E+00
  1.01214575E+00  0.00000000E+00  0.00000000E+00  0.00000000E+00  0.00000000E+00
  0.00000000E+00 -3.06692632E-01  0.00000000E+00  0.00000000E+00 -1.42213163E+00
  0.00000000E+00  0.00000000E+00 -1.22785152E+00  0.00000000E+00  0.00000000E+00
  0.00000000E+00  5.05896650E-02  0.00000000E+00  0.00000000E+00  0.00000000E+00
  0.00000000E+00  1.12436323E+00  0.00000000E+00  0.00000000E+00  0.00000000E+00
  0.00000000E+00  0.00000000E+00  0.00000000E+00  0.00000000E+00  0.00000000E+00
  0.00000000E+00  0.00000000E+00  0.00000000E+00  0.00000000E+00  0.00000000E+00
  0.00000000E+00  0.00000000E+00  0.00000000E+00  0.00000000E+00  4.90114982E-01
  0.00000000E+00  0.00000000E+00  0.00000000E+00  0.00000000E+00  3.03643725E+00
 -4.63319704E-02 -5.52159935E-01 -1.50733502E+00 -1.40346467E+00  0.00000000E+00
  0.00000000E+00 -1.79467141E-02  0.00000000E+00  0.00000000E+00 -3.01775355E-01
  0.00000000E+00  0.00000000E+00 -9.91108910E-01  1.11594517E-01  0.00000000E+00
  0.00000000E+00  3.21595400E-01  0.00000000E+00  6.67001246E-01  0.00000000E+00
  0.00000000E+00  2.34147690E+00  0.00000000E+00 -7.11458243E-02 -7.42108557E-01
 -1.75593236E+00 -1.47280833E+00  0.00000000E+00  0.00000000E+00  0.00000000E+00
  0.00000000E+00  0.00000000E+00  0.00000000E+00  0.00000000E+00  0.00000000E+00
  0.00000000E+00  1.88645345E-01  0.00000000E+00  0.00000000E+00  4.90114982E-01
  0.00000000E+00  1.16872524E+00  0.00000000E+00  0.00000000E+00  3.03643725E+00
  0.00000000E+00  0.00000000E+00  0.00000000E+00  0.00000000E+00  0.00000000E+00
  0.00000000E+00  0.00000000E+00  0.00000000E+00  0.00000000E+00  0.00000000E+00
  0.00000000E+00  0.00000000E+00  0.00000000E+00  0.00000000E+00  0.00000000E+00
  0.00000000E+00  0.00000000E+00  3.21595400E-01  0.00000000E+00  0.00000000E+00
  0.00000000E+00  0.00000000E+00  2.34147690E+00  0.00000000E+00  0.00000000E+00
  0.00000000E+00  0.00000000E+00  0.00000000E+00  0.00000000E+00  0.00000000E+00
  0.00000000E+00  0.00000000E+00  0.00000000E+00  0.00000000E+00  0.00000000E+00
  0.00000000E+00  0.00000000E+00  0.00000000E+00  0.00000000E+00  0.00000000E+00
  4.90114982E-01  0.00000000E+00  0.00000000E+00  0.00000000E+00  0.00000000E+00
  3.03643725E+00  4.46384939E-06  2.21051802E-03  2.52949536E-02  3.63832378E-02
  0.00000000E+00  0.00000000E+00  7.78040375E-06  0.00000000E+00  0.00000000E+00
  4.67511408E-03  0.00000000E+00  0.00000000E+00  6.36222359E-02  1.01948878E-04
  0.00000000E+00  0.00000000E+00 -8.44782888E-06  0.00000000E+00  3.52402214E-02
  0.00000000E+00  0.00000000E+00 -1.79457939E-03  0.00000000E+00  1.68251052E-03
  2.99922396E-02  6.64496356E-02  4.68507871E-02  0.00000000E+00  0.00000000E+00
  3.41305156E-03  0.00000000E+00  0.00000000E+00  6.07946227E-02  0.00000000E+00
  0.00000000E+00  1.09425292E-01  1.19555929E-02  0.00000000E+00  0.00000000E+00
 -2.41221912E-03  0.00000000E+00  1.18770266E-01  0.00000000E+00  0.00000000E+00
 -1.44131323E-02  0.00000000E+00  1.76393444E-01  2.21051802E-03  4.04852233E-02
  2.24683730E-01  3.46522179E-01  0.00000000E+00  0.00000000E+00  3.17976506E-03
  0.00000000E+00  0.00000000E+00  6.87166598E-02  0.00000000E+00  0.00000000E+00
  4.67411125E-01  4.92582099E-03  0.00000000E+00  0.00000000E+00 -4.81302785E-03
  0.00000000E+00  1.92913181E-01  0.00000000E+00  0.00000000E+00 -5.86876848E-02
  0.00000000E+00  2.99922396E-02  2.14149094E-01  4.99275632E-01  4.40388747E-01
  0.00000000E+00  0.00000000E+00  3.13219765E-02  0.00000000E+00  0.00000000E+00
  2.76801591E-01  0.00000000E+00  0.00000000E+00  6.81265431E-01  7.19219934E-03
  0.00000000E+00  0.00000000E+00 -6.14284454E-02  0.00000000E+00  2.71316964E-01
  0.00000000E+00  0.00000000E+00 -2.46857287E-01  0.00000000E+00  2.21880681E-01
  7.67341928E-01  2.52949536E-02  2.24683730E-01  9.62964279E-01  1.92450248E+00
  0.00000000E+00  0.00000000E+00  1.44106016E-02  0.00000000E+00  0.00000000E+00
  1.91164710E-01  0.00000000E+00  0.00000000E+00  1.32010779E+00 -2.40680131E-02
  0.00000000E+00  0.00000000E+00 -6.20812018E-02  0.00000000E+00  2.44589617E-02
  0.00000000E+00  0.00000000E+00 -4.73755211E-01  0.00000000E+00  6.64496356E-02
  4.99275632E-01  1.62798154E+00  2.36783191E+00  0.00000000E+00  0.00000000E+00
  2.52571152E-02  0.00000000E+00  0.00000000E+00  2.88855683E-01  0.00000000E+00
  0.00000000E+00  1.46729510E+00 -8.00420786E-02  0.00000000E+00  0.00000000E+00
 -1.61677500E-01  0.00000000E+00 -3.02880379E-01  0.00000000E+00  0.00000000E+00
 -9.94698123E-01  0.00000000E+00  1.39282807E-01  9.20511195E-01  2.43427459E+00
  3.63832378E-02  3.46522179E-01  1.92450248E+00  7.87851424E+00  0.00000000E+00
  0.00000000E+00  5.35580120E-03  0.00000000E+00  0.00000000E+00  8.46071584E-02
  0.00000000E+00  0.00000000E+00  1.04639016E+00 -5.41914993E-02  0.00000000E+00
  0.00000000E+00 -9.59047612E-02  0.00000000E+00 -5.14552018E-01  0.00000000E+00
  0.00000000E+00 -9.73651094E-01  0.00000000E+00  4.68507871E-02  4.40388747E-01
  2.36783191E+00  8.96463612E+00  0.00000000E+00  0.00000000E+00  4.54643846E-03
  0.00000000E+00  0.00000000E+00  7.10191906E-02  0.00000000E+00  0.00000000E+00
  8.47720769E-01 -7.06004237E-02  0.00000000E+00  0.00000000E+00 -1.23423723E-01
  0.00000000E+00 -6.84483907E-01  0.00000000E+00  0.00000000E+00 -1.23075725E+00
  0.00000000E+00  5.68664226E-02  5.29175765E-01  2.77544267E+00  9.89707047E+00
  0.00000000E+00  0.00000000E+00  0.00000000E+00  0.00000000E+00  5.39266056E-07
  0.00000000E+00  0.00000000E+00  7.05175381E-04  0.00000000E+00  0.00000000E+00
  1.06242816E-02  0.00000000E+00  0.00000000E+00  0.00000000E+00  1.82090334E-05
  0.00000000E+00  0.00000000E+00  0.00000000E+00  0.00000000E+00  1.04807785E-02
  0.00000000E+00  0.00000000E+00  0.00000000E+00  0.00000000E+00  0.00000000E+00
  0.00000000E+00  0.00000000E+00  7.17734261E-04  0.00000000E+00  0.00000000E+00
  1.58091743E-02  0.00000000E+00  0.00000000E+00  2.80964404E-02  0.00000000E+00
  0.00000000E+00  0.00000000E+00  5.74543955E-03  0.00000000E+00  0.00000000E+00
  0.00000000E+00  0.00000000E+00  5.91745321E-02  0.00000000E+00  0.00000000E+00
  0.00000000E+00  0.00000000E+00  0.00000000E+00  0.00000000E+00  0.00000000E+00
  1.77683014E-01  0.00000000E+00  0.00000000E+00  0.00000000E+00  0.00000000E+00
  0.00000000E+00  1.61779817E-06  0.00000000E+00  0.00000000E+00  2.11552614E-03
  0.00000000E+00  0.00000000E+00  3.18728447E-02  0.00000000E+00  0.00000000E+00
  0.00000000E+00  5.46271002E-05  0.00000000E+00  0.00000000E+00  0.00000000E+00
  0.00000000E+00  3.14423355E-02  0.00000000E+00  0.00000000E+00  0.00000000E+00
  0.00000000E+00  0.00000000E+00  0.00000000E+00  0.00000000E+00  2.15320278E-03
  0.00000000E+00  0.00000000E+00  4.74275228E-02  0.00000000E+00  0.00000000E+00
  8.42893213E-02  0.00000000E+00  0.00000000E+00  0.00000000E+00  1.72363186E-02
  0.00000000E+00  0.00000000E+00  0.00000000E+00  0.00000000E+00  1.77523596E-01
  0.00000000E+00  0.00000000E+00  0.00000000E+00  0.00000000E+00  0.00000000E+00
  0.00000000E+00  0.00000000E+00  5.33049041E-01 -7.78040375E-06 -3.17976506E-03
 -1.44106016E-02 -5.35580120E-03  0.00000000E+00  0.00000000E+00 -1.31638108E-05
  0.00000000E+00  0.00000000E+00 -7.04139410E-03  0.00000000E+00  0.00000000E+00
 -2.58725791E-02 -2.00271420E-04  0.00000000E+00  0.00000000E+00  1.36794231E-05
  0.00000000E+00 -3.27595315E-02  0.00000000E+00  0.00000000E+00  1.83990923E-03
  0.00000000E+00 -3.41305156E-03 -3.13219765E-02 -2.52571152E-02 -4.54643846E-03
  0.00000000E+00  0.00000000E+00 -7.19407590E-03  0.00000000E+00  0.00000000E+00
 -5.95296149E-02  0.00000000E+00  0.00000000E+00 -1.37736993E-02 -2.22455388E-02
  0.00000000E+00  0.00000000E+00  4.31622573E-03  0.00000000E+00 -3.81541951E-02
  0.00000000E+00  0.00000000E+00  1.03881375E-02  0.00000000E+00  0.00000000E+00
  0.00000000E+00  0.00000000E+00  0.00000000E+00  0.00000000E+00  0.00000000E+00
  1.77683014E-01  0.00000000E+00  0.00000000E+00  0.00000000E+00  0.00000000E+00
  7.05175381E-04  0.00000000E+00  0.00000000E+00  1.93858867E-02  0.00000000E+00
  0.00000000E+00  1.40979745E-01  0.00000000E+00  0.00000000E+00  0.00000000E+00
  3.56808931E-03  0.00000000E+00  0.00000000E+00  0.00000000E+00  0.00000000E+00
  1.24966679E-01  0.00000000E+00  0.00000000E+00  0.00000000E+00  0.00000000E+00
  0.00000000E+00  0.00000000E+00  0.00000000E+00  1.58091743E-02  0.00000000E+00
  0.00000000E+00  1.40934334E-01  0.00000000E+00  0.00000000E+00  3.21984519E-01
  0.00000000E+00  0.00000000E+00  0.00000000E+00  4.28039145E-02  0.00000000E+00
  0.00000000E+00  0.00000000E+00  0.00000000E+00  3.85188520E-01  0.00000000E+00
  0.00000000E+00  0.00000000E+00  0.00000000E+00  0.00000000E+00  0.00000000E+00
  0.00000000E+00  1.71287901E-01  0.00000000E+00  0.00000000E+00  6.44329897E-01
  0.00000000E+00  0.00000000E+00  0.00000000E+00  0.00000000E+00  0.00000000E+00
  2.11552614E-03  0.00000000E+00  0.00000000E+00  5.81576601E-02  0.00000000E+00
  0.00000000E+00  4.22939236E-01  0.00000000E+00  0.00000000E+00  0.00000000E+00
  1.07042679E-02  0.00000000E+00  0.00000000E+00  0.00000000E+00  0.00000000E+00
  3.74900036E-01  0.00000000E+00  0.00000000E+00  0.00000000E+00  0.00000000E+00
  0.00000000E+00  0.00000000E+00  0.00000000E+00  4.74275228E-02  0.00000000E+00
  0.00000000E+00  4.22803002E-01  0.00000000E+00  0.00000000E+00  9.65953556E-01
  0.00000000E+00  0.00000000E+00  0.00000000E+00  1.28411744E-01  0.00000000E+00
  0.00000000E+00  0.00000000E+00  0.00000000E+00  1.15556556E+00  0.00000000E+00
  0.00000000E+00  0.00000000E+00  0.00000000E+00  0.00000000E+00  0.00000000E+00
  0.00000000E+00  5.13863703E-01  0.00000000E+00  0.00000000E+00  1.93298969E+00
 -4.67511408E-03 -6.87166598E-02 -1.91164710E-01 -8.46071584E-02  0.00000000E+00
  0.00000000E+00 -7.04139410E-03  0.00000000E+00  0.00000000E+00 -1.16457440E-01
  0.00000000E+00  0.00000000E+00 -2.70305801E-01 -1.13865038E-02  0.00000000E+00
  0.00000000E+00  9.72028455E-03  0.00000000E+00 -2.03084708E-01  0.00000000E+00
  0.00000000E+00  7.95535299E-02  0.00000000E+00 -6.07946227E-02 -2.76801591E-01
 -2.88855683E-01 -7.10191906E-02  0.00000000E+00  0.00000000E+00 -5.95296149E-02
  0.00000000E+00  0.00000000E+00 -2.87482588E-01  0.00000000E+00  0.00000000E+00
 -8.55072939E-02  6.84605048E-03  0.00000000E+00  0.00000000E+00  1.16607571E-01
  0.00000000E+00  6.04343556E-02  0.00000000E+00  0.00000000E+00  2.45210218E-01
  0.00000000E+00  0.00000000E+00  0.00000000E+00  0.00000000E+00  0.00000000E+00
  0.00000000E+00  0.00000000E+00  1.71287901E-01  0.00000000E+00  0.00000000E+00
  6.44329897E-01  0.00000000E+00  0.00000000E+00  0.00000000E+00  0.00000000E+00
  1.06242816E-02  0.00000000E+00  0.00000000E+00  1.40979745E-01  0.00000000E+00
  0.00000000E+00  9.75720983E-01  0.00000000E+00  0.00000000E+00  0.00000000E+00
  1.49424301E-02  0.00000000E+00  0.00000000E+00  0.00000000E+00  0.00000000E+00
  3.78949971E-01  0.00000000E+00  0.00000000E+00  0.00000000E+00  0.00000000E+00
  0.00000000E+00  0.00000000E+00  0.00000000E+00  2.80964404E-02  0.00000000E+00
  0.00000000E+00  3.21984519E-01  0.00000000E+00  0.00000000E+00  1.64365488E+00
  0.00000000E+00  0.00000000E+00  0.00000000E+00  2.54785855E-02  0.00000000E+00
  0.00000000E+00  0.00000000E+00  0.00000000E+00  5.22172266E-01  0.00000000E+00
  0.00000000E+00  0.00000000E+00  0.00000000E+00  0.00000000E+00  0.00000000E+00
  0.00000000E+00  5.91902931E-02  0.00000000E+00  0.00000000E+00  6.06245580E-01
  0.00000000E+00  0.00000000E+00  2.45098039E+00  0.00000000E+00  0.00000000E+00
  0.00000000E+00  0.00000000E+00  0.00000000E+00  3.18728447E-02  0.00000000E+00
  0.00000000E+00  4.22939236E-01  0.00000000E+00  0.00000000E+00  2.92716295E+00
  0.00000000E+00  0.00000000E+00  0.00000000E+00  4.48272904E-02  0.00000000E+00
  0.00000000E+00  0.00000000E+00  0.00000000E+00  1.13684991E+00  0.00000000E+00
  0.00000000E+00  0.00000000E+00  0.00000000E+00  0.00000000E+00  0.00000000E+00
  0.00000000E+00  8.42893213E-02  0.00000000E+00  0.00000000E+00  9.65953556E-01
  0.00000000E+00  0.00000000E+00  4.93096465E+00  0.00000000E+00  0.00000000E+00
  0.00000000E+00  7.64357565E-02  0.00000000E+00  0.00000000E+00  0.00000000E+00
  0.00000000E+00  1.56651680E+00  0.00000000E+00  0.00000000E+00  0.00000000E+00
  0.00000000E+00  0.00000000E+00  0.00000000E+00  0.00000000E+00  1.77570879E-01
  0.00000000E+00  0.00000000E+00  1.81873674E+00  0.00000000E+00  0.00000000E+00
  7.35294118E+00 -6.36222359E-02 -4.67411125E-01 -1.32010779E+00 -1.04639016E+00
  0.00000000E+00  0.00000000E+00 -2.58725791E-02  0.00000000E+00  0.00000000E+00
 -2.70305801E-01  0.00000000E+00  0.00000000E+00 -8.21687260E-01  7.76666026E-02
  0.00000000E+00  0.00000000E+00  1.54844595E-01  0.00000000E+00  3.96896641E-01
  0.00000000E+00  0.00000000E+00  9.17653362E-01  0.00000000E+00 -1.09425292E-01
 -6.81265431E-01 -1.46729510E+00 -8.47720769E-01  0.00000000E+00  0.00000000E+00
 -1.37736993E-02  0.00000000E+00  0.00000000E+00 -8.55072939E-02  0.00000000E+00
  0.00000000E+00  3.30158475E-01  1.60415357E-01  0.00000000E+00  0.00000000E+00
  2.64028087E-01  0.00000000E+00  9.91983560E-01  0.00000000E+00  0.00000000E+00
  1.26447598E+00  0.00000000E+00  0.00000000E+00  0.00000000E+00  0.00000000E+00
  0.00000000E+00  0.00000000E+00  0.00000000E+00  5.91902931E-02  0.00000000E+00
  0.00000000E+00  6.06245580E-01  0.00000000E+00  0.00000000E+00  2.45098039E+00
  1.01948878E-04  4.92582099E-03 -2.40680131E-02 -5.41914993E-02  0.00000000E+00
  0.00000000E+00  2.00271420E-04  0.00000000E+00  0.00000000E+00  1.13865038E-02
  0.00000000E+00  0.00000000E+00 -7.76666026E-02  1.43821577E-03  0.00000000E+00
  0.00000000E+00 -1.67028333E-04  0.00000000E+00 -6.24723222E-03  0.00000000E+00
  0.00000000E+00  7.86543450E-04  0.00000000E+00  1.19555929E-02  7.19219934E-03
 -8.00420786E-02 -7.06004237E-02  0.00000000E+00  0.00000000E+00  2.22455388E-02
  0.00000000E+00  0.00000000E+00 -6.84605048E-03  0.00000000E+00  0.00000000E+00
 -1.60415357E-01  2.99736613E-02  0.00000000E+00  0.00000000E+00 -1.36492207E-02
  0.00000000E+00 -1.34614215E-01  0.00000000E+00  0.00000000E+00  2.48956277E-02
  0.00000000E+00 -1.07745898E-01 -2.49557776E-01 -1.94349589E-01 -8.64529820E-02
  0.00000000E+00  0.00000000E+00  0.00000000E+00  0.00000000E+00  0.00000000E+00
  0.00000000E+00  0.00000000E+00  0.00000000E+00  0.00000000E+00  3.94197414E-01
  0.00000000E+00  0.00000000E+00  0.00000000E+00  0.00000000E+00 -1.82090334E-05
  0.00000000E+00  0.00000000E+00 -3.56808931E-03  0.00000000E+00  0.00000000E+00
 -1.49424301E-02  0.00000000E+00  0.00000000E+00  0.00000000E+00 -3.06230115E-04
  0.00000000E+00  0.00000000E+00  0.00000000E+00  0.00000000E+00 -2.73796339E-02
  0.00000000E+00  0.00000000E+00  0.00000000E+00  0.00000000E+00  0.00000000E+00
  0.00000000E+00  0.00000000E+00 -5.74543955E-03  0.00000000E+00  0.00000000E+00
 -4.28039145E-02  0.00000000E+00  0.00000000E+00 -2.54785855E-02  0.00000000E+00
  0.00000000E+00  0.00000000E+00 -2.74049402E-02  0.00000000E+00  0.00000000E+00
  0.00000000E+00  0.00000000E+00 -7.27423861E-02  0.00000000E+00  0.00000000E+00
  0.00000000E+00  0.00000000E+00  0.00000000E+00  0.00000000E+00  0.00000000E+00
  0.00000000E+00  0.00000000E+00  0.00000000E+00  0.00000000E+00  0.00000000E+00
  0.00000000E+00  0.00000000E+00  0.00000000E+00  0.00000000E+00  0.00000000E+00
  2.36518448E-01  0.00000000E+00  0.00000000E+00  0.00000000E+00  0.00000000E+00
  0.00000000E+00 -5.46271002E-05  0.00000000E+00  0.00000000E+00 -1.07042679E-02
  0.00000000E+00  0.00000000E+00 -4.48272904E-02  0.00000000E+00  0.00000000E+00
  0.00000000E+00 -9.18690344E-04  0.00000000E+00  0.00000000E+00  0.00000000E+00
  0.00000000E+00 -8.21389016E-02  0.00000000E+00  0.00000000E+00  0.00000000E+00
  0.00000000E+00  0.00000000E+00  0.00000000E+00  0.00000000E+00 -1.72363186E-02
  0.00000000E+00  0.00000000E+00 -1.28411744E-01  0.00000000E+00  0.00000000E+00
 -7.64357565E-02  0.00000000E+00  0.00000000E+00  0.00000000E+00 -8.22148207E-02
  0.00000000E+00  0.00000000E+00  0.00000000E+00  0.00000000E+00 -2.18227158E-01
  0.00000000E+00  0.00000000E+00  0.00000000E+00  0.00000000E+00  0.00000000E+00
  0.00000000E+00  0.00000000E+00  0.00000000E+00  0.00000000E+00  0.00000000E+00
  0.00000000E+00  0.00000000E+00  0.00000000E+00  0.00000000E+00  0.00000000E+00
  0.00000000E+00  0.00000000E+00  7.09555345E-01 -8.44782888E-06 -4.81302785E-03
 -6.20812018E-02 -9.59047612E-02  0.00000000E+00  0.00000000E+00 -1.36794231E-05
  0.00000000E+00  0.00000000E+00 -9.72028455E-03  0.00000000E+00  0.00000000E+00
 -1.54844595E-01 -1.67028333E-04  0.00000000E+00  0.00000000E+00  5.07856678E-05
  0.00000000E+00 -7.34282979E-02  0.00000000E+00  0.00000000E+00  1.31806467E-02
  0.00000000E+00 -2.41221912E-03 -6.14284454E-02 -1.61677500E-01 -1.23423723E-01
  0.00000000E+00  0.00000000E+00 -4.31622573E-03  0.00000000E+00  0.00000000E+00
 -1.16607571E-01  0.00000000E+00  0.00000000E+00 -2.64028087E-01 -1.36492207E-02
  0.00000000E+00  0.00000000E+00  1.12913894E-02  0.00000000E+00 -2.24514751E-01
  0.00000000E+00  0.00000000E+00  1.02108832E-01  0.00000000E+00 -1.86621370E-01
 -4.32246747E-01 -3.36623363E-01 -1.49740957E-01  0.00000000E+00  0.00000000E+00
  0.00000000E+00  0.00000000E+00  0.00000000E+00  0.00000000E+00  0.00000000E+00
  0.00000000E+00  0.00000000E+00  2.73107980E-01  0.00000000E+00  0.00000000E+00
  7.09555345E-01  0.00000000E+00  0.00000000E+00  0.00000000E+00  0.00000000E+00
  0.00000000E+00  0.00000000E+00  0.00000000E+00  0.00000000E+00  0.00000000E+00
  0.00000000E+00  0.00000000E+00  0.00000000E+00  0.00000000E+00  0.00000000E+00
  0.00000000E+00  0.00000000E+00  0.00000000E+00  5.07856678E-05  0.00000000E+00
  0.00000000E+00  0.00000000E+00  0.00000000E+00  1.31806467E-02  0.00000000E+00
  0.00000000E+00  0.00000000E+00  0.00000000E+00  0.00000000E+00  0.00000000E+00
  0.00000000E+00  0.00000000E+00  0.00000000E+00  0.00000000E+00  0.00000000E+00
  0.00000000E+00  0.00000000E+00  0.00000000E+00  0.00000000E+00  0.00000000E+00
  0.00000000E+00  1.12913894E-02  0.00000000E+00  0.00000000E+00  0.00000000E+00
  0.00000000E+00  1.02108832E-01  0.00000000E+00  0.00000000E+00  0.00000000E+00
  0.00000000E+00  0.00000000E+00  0.00000000E+00  0.00000000E+00  0.00000000E+00
  0.00000000E+00  0.00000000E+00  0.00000000E+00  0.00000000E+00  0.00000000E+00
  0.00000000E+00  0.00000000E+00  0.00000000E+00  0.00000000E+00  7.09555345E-01
  3.52402214E-02  1.92913181E-01  2.44589617E-02 -5.14552018E-01  0.00000000E+00
  0.00000000E+00  3.27595315E-02  0.00000000E+00  0.00000000E+00  2.03084708E-01
  0.00000000E+00  0.00000000E+00 -3.96896641E-01 -6.24723222E-03  0.00000000E+00
  0.00000000E+00 -7.34282979E-02  0.00000000E+00 -6.76629068E-02  0.00000000E+00
  0.00000000E+00 -1.54563235E-01  0.00000000E+00  1.18770266E-01  2.71316964E-01
 -3.02880379E-01 -6.84483907E-01  0.00000000E+00  0.00000000E+00  3.81541951E-02
  0.00000000E+00  0.00000000E+00 -6.04343556E-02  0.00000000E+00  0.00000000E+00
 -9.91983560E-01 -1.34614215E-01  0.00000000E+00  0.00000000E+00 -2.24514751E-01
  0.00000000E+00 -3.67451487E-01  0.00000000E+00  0.00000000E+00  1.44001671E-02
  0.00000000E+00 -4.10760608E-02 -4.28456575E-01 -1.01378802E+00 -8.50326284E-01
  0.00000000E+00  0.00000000E+00  0.00000000E+00  0.00000000E+00  0.00000000E+00
  0.00000000E+00  0.00000000E+00  0.00000000E+00  0.00000000E+00  2.72286101E-01
  0.00000000E+00  0.00000000E+00  1.88645345E-01  0.00000000E+00  1.68690958E+00
  0.00000000E+00  0.00000000E+00  0.00000000E+00  0.00000000E+00 -1.04807785E-02
  0.00000000E+00  0.00000000E+00 -1.24966679E-01  0.00000000E+00  0.00000000E+00
 -3.78949971E-01  0.00000000E+00  0.00000000E+00  0.00000000E+00 -2.73796339E-02
  0.00000000E+00  0.00000000E+00  0.00000000E+00  0.00000000E+00 -3.76499437E-01
  0.00000000E+00  0.00000000E+00  0.00000000E+00  0.00000000E+00  0.00000000E+00
  0.00000000E+00  0.00000000E+00 -5.91745321E-02  0.00000000E+00  0.00000000E+00
 -3.85188520E-01  0.00000000E+00  0.00000000E+00 -5.22172266E-01  0.00000000E+00
  0.00000000E+00  0.00000000E+00 -7.27423861E-02  0.00000000E+00  0.00000000E+00
  0.00000000E+00  0.00000000E+00 -3.59676691E-01  0.00000000E+00  0.00000000E+00
  0.00000000E+00  0.00000000E+00  0.00000000E+00  0.00000000E+00  0.00000000E+00
  0.00000000E+00  0.00000000E+00  0.00000000E+00  0.00000000E+00  0.00000000E+00
  0.00000000E+00  0.00000000E+00  0.00000000E+00  0.00000000E+00  0.00000000E+00
  1.63371661E-01  0.00000000E+00  0.00000000E+00  0.00000000E+00  0.00000000E+00
  1.01214575E+00  0.00000000E+00  0.00000000E+00  0.00000000E+00  0.00000000E+00
  0.00000000E+00 -3.14423355E-02  0.00000000E+00  0.00000000E+00 -3.74900036E-01
  0.00000000E+00  0.00000000E+00 -1.13684991E+00  0.00000000E+00  0.00000000E+00
  0.00000000E+00 -8.21389016E-02  0.00000000E+00  0.00000000E+00  0.00000000E+00
  0.00000000E+00 -1.12949831E+00  0.00000000E+00  0.00000000E+00  0.00000000E+00
  0.00000000E+00  0.00000000E+00  0.00000000E+00  0.00000000E+00 -1.77523596E-01
  0.00000000E+00  0.00000000E+00 -1.15556556E+00  0.00000000E+00  0.00000000E+00
 -1.56651680E+00  0.00000000E+00  0.00000000E+00  0.00000000E+00 -2.18227158E-01
  0.00000000E+00  0.00000000E+00  0.00000000E+00  0.00000000E+00 -1.07903007E+00
  0.00000000E+00  0.00000000E+00  0.00000000E+00  0.00000000E+00  0.00000000E+00
  0.00000000E+00  0.00000000E+00  0.00000000E+00  0.00000000E+00  0.00000000E+00
  0.00000000E+00  0.00000000E+00  0.00000000E+00  0.00000000E+00  0.00000000E+00
  0.00000000E+00  0.00000000E+00  4.90114982E-01  0.00000000E+00  0.00000000E+00
  0.00000000E+00  0.00000000E+00  3.03643725E+00 -1.79457939E-03 -5.86876848E-02
 -4.73755211E-01 -9.73651094E-01  0.00000000E+00  0.00000000E+00 -1.83990923E-03
  0.00000000E+00  0.00000000E+00 -7.95535299E-02  0.00000000E+00  0.00000000E+00
 -9.17653362E-01  7.86543450E-04  0.00000000E+00  0.00000000E+00  1.31806467E-02
  0.00000000E+00 -1.54563235E-01  0.00000000E+00  0.00000000E+00  3.26364184E-01
  0.00000000E+00 -1.44131323E-02 -2.46857287E-01 -9.94698123E-01 -1.23075725E+00
  0.00000000E+00  0.00000000E+00 -1.03881375E-02  0.00000000E+00  0.00000000E+00
 -2.45210218E-01  0.00000000E+00  0.00000000E+00 -1.26447598E+00  2.48956277E-02
  0.00000000E+00  0.00000000E+00  1.02108832E-01  0.00000000E+00  1.44001671E-02
  0.00000000E+00  0.00000000E+00  1.15385553E+00  0.00000000E+00 -7.11458243E-02
 -7.42108557E-01 -1.75593236E+00 -1.47280833E+00  0.00000000E+00  0.00000000E+00
  0.00000000E+00  0.00000000E+00  0.00000000E+00  0.00000000E+00  0.00000000E+00
  0.00000000E+00  0.00000000E+00  1.88645345E-01  0.00000000E+00  0.00000000E+00
  4.90114982E-01  0.00000000E+00  1.16872524E+00  0.00000000E+00  0.00000000E+00
  3.03643725E+00  0.00000000E+00  0.00000000E+00  0.00000000E+00  0.00000000E+00
  0.00000000E+00  0.00000000E+00  0.00000000E+00  0.00000000E+00  0.00000000E+00
  0.00000000E+00  0.00000000E+00  0.00000000E+00  0.00000000E+00  0.00000000E+00
  0.00000000E+00  0.00000000E+00  0.00000000E+00  1.31806467E-02  0.00000000E+00
  0.00000000E+00  0.00000000E+00  0.00000000E+00  3.26364184E-01  0.00000000E+00
  0.00000000E+00  0.00000000E+00  0.00000000E+00  0.00000000E+00  0.00000000E+00
  0.00000000E+00  0.00000000E+00  0.00000000E+00  0.00000000E+00  0.00000000E+00
  0.00000000E+00  0.00000000E+00  0.00000000E+00  0.00000000E+00  0.00000000E+00
  0.00000000E+00  1.02108832E-01  0.00000000E+00  0.00000000E+00  0.00000000E+00
  0.00000000E+00  1.15385553E+00  0.00000000E+00  0.00000000E+00  0.00000000E+00
  0.00000000E+00  0.00000000E+00  0.00000000E+00  0.00000000E+00  0.00000000E+00
  0.00000000E+00  0.00000000E+00  0.00000000E+00  0.00000000E+00  0.00000000E+00
  0.00000000E+00  0.00000000E+00  0.00000000E+00  0.00000000E+00  4.90114982E-01
  0.00000000E+00  0.00000000E+00  0.00000000E+00  0.00000000E+00  3.03643725E+00
Multipole Matrix (1,0,1)                   R   N=        2415
  0.00000000E+00  0.00000000E+00  0.00000000E+00  0.00000000E+00  0.00000000E+00
  0.00000000E+00  0.00000000E+00  0.00000000E+00  0.00000000E+00  0.00000000E+00
 -6.05408555E-01 -6.86004526E-01 -4.07320215E-01 -1.62276309E-01  0.00000000E+00
  0.00000000E+00  0.00000000E+00  0.00000000E+00  0.00000000E+00  0.00000000E+00
  0.00000000E+00  0.00000000E+00  0.00000000E+00  0.00000000E+00  0.00000000E+00
  1.77683014E-01  0.00000000E+00  0.00000000E+00 -4.13393500E-01 -1.25871891E+00
 -1.35143292E+00 -7.25142544E-01  0.00000000E+00  0.00000000E+00  1.71287901E-01
  0.00000000E+00  0.00000000E+00  0.00000000E+00  0.00000000E+00  0.00000000E+00
  0.00000000E+00  0.00000000E+00  0.00000000E+00  0.00000000E+00  0.00000000E+00
  0.00000000E+00  0.00000000E+00  0.00000000E+00  0.00000000E+00  1.71287901E-01
  0.00000000E+00  0.00000000E+00  6.44329897E-01  0.00000000E+00  0.00000000E+00
 -1.28577721E-01 -8.52076763E-01 -2.26334412E+00 -2.59395582E+00  0.00000000E+00
  0.00000000E+00  5.91902931E-02  0.00000000E+00  0.00000000E+00  6.06245580E-01
  0.00000000E+00  0.00000000E+00  0.00000000E+00  0.00000000E+00  0.00000000E+00
  0.00000000E+00  0.00000000E+00  0.00000000E+00  0.00000000E+00  0.00000000E+00
  0.00000000E+00  0.00000000E+00  0.00000000E+00  0.00000000E+00  0.00000000E+00
  0.00000000E+00  0.00000000E+00  5.91902931E-02  0.00000000E+00  0.00000000E+00
  6.06245580E-01  0.00000000E+00  0.00000000E+00  2.45098039E+00  0.00000000E+00
  0.00000000E+00  0.00000000E+00  0.00000000E+00  0.00000000E+00  0.00000000E+00
  3.40677070E-01  0.00000000E+00  0.00000000E+00  4.40778026E-01  0.00000000E+00
  0.00000000E+00  1.79546082E-01  0.00000000E+00  0.00000000E+00  0.00000000E+00
  1.86621370E-01  4.32246747E-01  3.36623363E-01  1.49740957E-01  0.00000000E+00
  0.00000000E+00 -5.90069994E-01  0.00000000E+00  0.00000000E+00 -7.63449937E-01
  0.00000000E+00  0.00000000E+00 -3.10982936E-01  1.36553990E-01  0.00000000E+00
  0.00000000E+00  0.00000000E+00  0.00000000E+00  0.00000000E+00  0.00000000E+00
  0.00000000E+00  0.00000000E+00  0.00000000E+00  0.00000000E+00  0.00000000E+00
  0.00000000E+00  0.00000000E+00  0.00000000E+00  0.00000000E+00  0.00000000E+00
  0.00000000E+00  0.00000000E+00  0.00000000E+00  0.00000000E+00  0.00000000E+00
 -5.90069994E-01  0.00000000E+00  0.00000000E+00 -7.63449937E-01  0.00000000E+00
  0.00000000E+00 -3.10982936E-01  0.00000000E+00  0.00000000E+00  0.00000000E+00
  2.36518448E-01  0.00000000E+00  0.00000000E+00  0.00000000E+00  0.00000000E+00
  0.00000000E+00  0.00000000E+00  0.00000000E+00 -5.90069994E-01  0.00000000E+00
  0.00000000E+00 -7.63449937E-01  0.00000000E+00  0.00000000E+00 -3.10982936E-01
  0.00000000E+00  0.00000000E+00  0.00000000E+00  2.36518448E-01  0.00000000E+00
  0.00000000E+00  0.00000000E+00  0.00000000E+00  0.00000000E+00  0.00000000E+00
  1.07969114E-01  0.00000000E+00  0.00000000E+00  6.15372101E-01  0.00000000E+00
  0.00000000E+00  9.41168546E-01  0.00000000E+00  0.00000000E+00  0.00000000E+00
  9.43226723E-02  0.00000000E+00  0.00000000E+00  0.00000000E+00  0.00000000E+00
  7.11458243E-02  7.42108557E-01  1.75593236E+00  1.47280833E+00  0.00000000E+00
  0.00000000E+00 -1.87007991E-01  0.00000000E+00  0.00000000E+00 -1.06585574E+00
  0.00000000E+00  0.00000000E+00 -1.63015174E+00  9.43226723E-02  0.00000000E+00
  0.00000000E+00  1.63371661E-01  0.00000000E+00  5.84362621E-01  0.00000000E+00
  0.00000000E+00  0.00000000E+00  0.00000000E+00  0.00000000E+00  0.00000000E+00
  0.00000000E+00  0.00000000E+00  0.00000000E+00  0.00000000E+00  0.00000000E+00
  0.00000000E+00  0.00000000E+00  0.00000000E+00  0.00000000E+00  0.00000000E+00
  0.00000000E+00  0.00000000E+00  1.63371661E-01  0.00000000E+00  0.00000000E+00
  0.00000000E+00  0.00000000E+00  0.00000000E+00  0.00000000E+00  0.00000000E+00
 -1.87007991E-01  0.00000000E+00  0.00000000E+00 -1.06585574E+00  0.00000000E+00
  0.00000000E+00 -1.63015174E+00  0.00000000E+00  0.00000000E+00  0.00000000E+00
  1.63371661E-01  0.00000000E+00  0.00000000E+00  0.00000000E+00  0.00000000E+00
  1.01214575E+00  0.00000000E+00  0.00000000E+00  0.00000000E+00  0.00000000E+00
  0.00000000E+00  0.00000000E+00  0.00000000E+00 -1.87007991E-01  0.00000000E+00
  0.00000000E+00 -1.06585574E+00  0.00000000E+00  0.00000000E+00 -1.63015174E+00
  0.00000000E+00  0.00000000E+00  0.00000000E+00  1.63371661E-01  0.00000000E+00
  0.00000000E+00  0.00000000E+00  0.00000000E+00  1.01214575E+00  0.00000000E+00
  0.00000000E+00  0.00000000E+00  0.00000000E+00  0.00000000E+00  0.00000000E+00
 -8.24848153E-02  0.00000000E+00  0.00000000E+00 -5.50435021E-02  0.00000000E+00
  0.00000000E+00 -8.41217417E-03  0.00000000E+00  0.00000000E+00  0.00000000E+00
 -7.73967280E-02  0.00000000E+00  0.00000000E+00  0.00000000E+00  0.00000000E+00
  6.58971998E-03  0.00000000E+00  0.00000000E+00  0.00000000E+00  0.00000000E+00
  0.00000000E+00  0.00000000E+00  0.00000000E+00  0.00000000E+00 -3.19219832E-01
  0.00000000E+00  0.00000000E+00 -4.71330639E-01  0.00000000E+00  0.00000000E+00
 -1.72520720E-01  0.00000000E+00  0.00000000E+00  0.00000000E+00 -1.23338333E-02
  0.00000000E+00  0.00000000E+00  0.00000000E+00  0.00000000E+00  2.25659158E-01
  0.00000000E+00  0.00000000E+00  0.00000000E+00  0.00000000E+00  0.00000000E+00
  0.00000000E+00  0.00000000E+00  0.00000000E+00  0.00000000E+00 -3.10356374E-01
  0.00000000E+00  0.00000000E+00 -9.00722938E-01  0.00000000E+00  0.00000000E+00
 -1.01265476E+00  0.00000000E+00  0.00000000E+00  0.00000000E+00  1.67524999E-01
  0.00000000E+00  0.00000000E+00  0.00000000E+00  0.00000000E+00  1.04712522E+00
  0.00000000E+00  0.00000000E+00  0.00000000E+00  0.00000000E+00  0.00000000E+00
  0.00000000E+00  0.00000000E+00  0.00000000E+00  0.00000000E+00  0.00000000E+00
 -1.51303097E-01  0.00000000E+00  0.00000000E+00 -6.47673578E-01  0.00000000E+00
  0.00000000E+00 -1.99235458E+00  0.00000000E+00  0.00000000E+00  0.00000000E+00
  1.27403066E-01  0.00000000E+00  0.00000000E+00  0.00000000E+00  0.00000000E+00
  1.26809473E+00  0.00000000E+00  0.00000000E+00  0.00000000E+00  0.00000000E+00
  0.00000000E+00  0.00000000E+00  0.00000000E+00 -7.02018147E-02 -7.39174280E-02
 -2.26535889E-02 -2.71635837E-03  0.00000000E+00  0.00000000E+00 -7.92776055E-02
  0.00000000E+00  0.00000000E+00 -2.52951520E-02  0.00000000E+00  0.00000000E+00
  2.90580139E-02  1.15161815E-02  0.00000000E+00  0.00000000E+00 -7.10716217E-02
  0.00000000E+00  7.62098961E-02  0.00000000E+00  0.00000000E+00 -1.79467141E-02
  0.00000000E+00  0.00000000E+00  0.00000000E+00  0.00000000E+00  0.00000000E+00
  0.00000000E+00  0.00000000E+00  0.00000000E+00  0.00000000E+00  0.00000000E+00
  0.00000000E+00  0.00000000E+00  0.00000000E+00  0.00000000E+00  0.00000000E+00
  0.00000000E+00  0.00000000E+00  0.00000000E+00  0.00000000E+00  0.00000000E+00
  0.00000000E+00  0.00000000E+00  0.00000000E+00 -7.10716217E-02  0.00000000E+00
  0.00000000E+00  0.00000000E+00  0.00000000E+00 -1.79467141E-02  0.00000000E+00
  0.00000000E+00  0.00000000E+00  0.00000000E+00  0.00000000E+00  0.00000000E+00
  0.00000000E+00  0.00000000E+00  0.00000000E+00  0.00000000E+00  1.60131870E-01
  0.00000000E+00  0.00000000E+00  1.22196621E-01  0.00000000E+00  0.00000000E+00
  4.98598744E-02  0.00000000E+00  0.00000000E+00  0.00000000E+00  1.33012617E-01
  0.00000000E+00  0.00000000E+00  0.00000000E+00  0.00000000E+00  8.22088330E-02
  0.00000000E+00  0.00000000E+00  0.00000000E+00  0.00000000E+00  0.00000000E+00
  0.00000000E+00  0.00000000E+00  1.77683014E-01  0.00000000E+00  0.00000000E+00
 -1.68322224E-01 -3.95771965E-01 -2.38413005E-01 -4.21655531E-02  0.00000000E+00
  0.00000000E+00 -2.52951520E-02  0.00000000E+00  0.00000000E+00  7.85863674E-02
  0.00000000E+00  0.00000000E+00  3.37605559E-01  2.29888502E-01  0.00000000E+00
  0.00000000E+00 -3.07318842E-01  0.00000000E+00  5.47753808E-01  0.00000000E+00
  0.00000000E+00 -3.01775355E-01  0.00000000E+00  0.00000000E+00  0.00000000E+00
  0.00000000E+00  0.00000000E+00  0.00000000E+00  0.00000000E+00  1.71287901E-01
  0.00000000E+00  0.00000000E+00  0.00000000E+00  0.00000000E+00  0.00000000E+00
  0.00000000E+00  0.00000000E+00  0.00000000E+00  0.00000000E+00  0.00000000E+00
  0.00000000E+00  0.00000000E+00  0.00000000E+00  0.00000000E+00  0.00000000E+00
  0.00000000E+00  0.00000000E+00  0.00000000E+00 -3.07318842E-01  0.00000000E+00
  0.00000000E+00  0.00000000E+00  0.00000000E+00 -3.01775355E-01  0.00000000E+00
  0.00000000E+00  0.00000000E+00  0.00000000E+00  0.00000000E+00  0.00000000E+00
  0.00000000E+00  0.00000000E+00  0.00000000E+00  0.00000000E+00  0.00000000E+00
  0.00000000E+00  0.00000000E+00  5.09552593E-01  0.00000000E+00  0.00000000E+00
  7.78114989E-01  0.00000000E+00  0.00000000E+00  5.57191582E-01  0.00000000E+00
  0.00000000E+00  0.00000000E+00 -1.34712926E-01  0.00000000E+00  0.00000000E+00
  0.00000000E+00  0.00000000E+00  6.21891571E-02  0.00000000E+00  0.00000000E+00
  0.00000000E+00  0.00000000E+00  0.00000000E+00  0.00000000E+00  0.00000000E+00
  1.71287901E-01  0.00000000E+00  0.00000000E+00  6.44329897E-01  0.00000000E+00
  0.00000000E+00 -9.71168904E-02 -5.51051476E-01 -1.01960435E+00 -4.93400751E-01
  0.00000000E+00  0.00000000E+00  2.90580139E-02  0.00000000E+00  0.00000000E+00
  3.37605559E-01  0.00000000E+00  0.00000000E+00  1.72896920E+00  1.55528871E-01
  0.00000000E+00  0.00000000E+00 -2.33189107E-01  0.00000000E+00  9.73019660E-01
  0.00000000E+00  0.00000000E+00 -9.91108910E-01  0.00000000E+00  0.00000000E+00
  0.00000000E+00  0.00000000E+00  0.00000000E+00  0.00000000E+00  0.00000000E+00
  5.91902931E-02  0.00000000E+00  0.00000000E+00  6.06245580E-01  0.00000000E+00
  0.00000000E+00  0.00000000E+00  0.00000000E+00  0.00000000E+00  0.00000000E+00
  0.00000000E+00  0.00000000E+00  0.00000000E+00  0.00000000E+00  0.00000000E+00
  0.00000000E+00  0.00000000E+00  0.00000000E+00  0.00000000E+00  0.00000000E+00
  0.00000000E+00  0.00000000E+00 -2.33189107E-01  0.00000000E+00  0.00000000E+00
  0.00000000E+00  0.00000000E+00 -9.91108910E-01  0.00000000E+00  0.00000000E+00
  0.00000000E+00  0.00000000E+00  0.00000000E+00  0.00000000E+00  0.00000000E+00
  0.00000000E+00  0.00000000E+00  0.00000000E+00  0.00000000E+00  0.00000000E+00
  0.00000000E+00  0.00000000E+00  0.00000000E+00  0.00000000E+00  3.16001324E-01
  0.00000000E+00  0.00000000E+00  1.17289357E+00  0.00000000E+00  0.00000000E+00
  2.67412238E+00  0.00000000E+00  0.00000000E+00  0.00000000E+00 -3.52574838E-01
  0.00000000E+00  0.00000000E+00  0.00000000E+00  0.00000000E+00 -1.27179472E+00
  0.00000000E+00  0.00000000E+00  0.00000000E+00  0.00000000E+00  0.00000000E+00
  0.00000000E+00  0.00000000E+00  5.91902931E-02  0.00000000E+00  0.00000000E+00
  6.06245580E-01  0.00000000E+00  0.00000000E+00  2.45098039E+00  0.00000000E+00
  0.00000000E+00  0.00000000E+00  0.00000000E+00  0.00000000E+00  0.00000000E+00
 -2.39324465E-01  0.00000000E+00  0.00000000E+00 -9.36904361E-02  0.00000000E+00
  0.00000000E+00 -1.34827716E-02  0.00000000E+00  0.00000000E+00  0.00000000E+00
  2.24857956E-02  0.00000000E+00  0.00000000E+00  0.00000000E+00  0.00000000E+00
  3.60284203E-02  0.00000000E+00  0.00000000E+00  0.00000000E+00  0.00000000E+00
  0.00000000E+00  0.00000000E+00  0.00000000E+00  0.00000000E+00  0.00000000E+00
  0.00000000E+00  0.00000000E+00  0.00000000E+00  0.00000000E+00  0.00000000E+00
  0.00000000E+00  0.00000000E+00  0.00000000E+00  2.13616212E-01  3.38615994E-01
  2.87016592E-01  1.42517797E-01  0.00000000E+00  0.00000000E+00  1.22196632E-01
  0.00000000E+00  0.00000000E+00  2.16459120E-01  0.00000000E+00  0.00000000E+00
  1.96994308E-01 -1.32447105E-01  0.00000000E+00  0.00000000E+00  2.50777694E-01
  0.00000000E+00  1.08223735E-01  0.00000000E+00  0.00000000E+00  1.28308027E-01
  0.00000000E+00  1.86621370E-01  4.32246747E-01  3.36623363E-01  1.49740957E-01
  0.00000000E+00  0.00000000E+00  0.00000000E+00  0.00000000E+00  0.00000000E+00
  0.00000000E+00  0.00000000E+00  0.00000000E+00  0.00000000E+00  1.36553990E-01
  0.00000000E+00  0.00000000E+00  0.00000000E+00  0.00000000E+00  0.00000000E+00
  0.00000000E+00  0.00000000E+00  0.00000000E+00  0.00000000E+00  0.00000000E+00
  0.00000000E+00  0.00000000E+00  0.00000000E+00  0.00000000E+00  0.00000000E+00
  0.00000000E+00  0.00000000E+00  0.00000000E+00  2.50777694E-01  0.00000000E+00
  0.00000000E+00  0.00000000E+00  0.00000000E+00  1.28308027E-01  0.00000000E+00
  0.00000000E+00  0.00000000E+00  0.00000000E+00  0.00000000E+00  0.00000000E+00
  0.00000000E+00  0.00000000E+00  0.00000000E+00  0.00000000E+00  0.00000000E+00
  0.00000000E+00  0.00000000E+00  0.00000000E+00  0.00000000E+00  0.00000000E+00
  0.00000000E+00  0.00000000E+00  0.00000000E+00  0.00000000E+00 -9.46052713E-02
  0.00000000E+00  0.00000000E+00 -1.12809566E-01  0.00000000E+00  0.00000000E+00
 -2.25026385E-02  0.00000000E+00  0.00000000E+00  0.00000000E+00 -9.52292875E-02
  0.00000000E+00  0.00000000E+00  0.00000000E+00  0.00000000E+00  1.68632217E-02
  0.00000000E+00  0.00000000E+00  0.00000000E+00  0.00000000E+00  0.00000000E+00
  0.00000000E+00  0.00000000E+00  0.00000000E+00  0.00000000E+00  0.00000000E+00
  0.00000000E+00  0.00000000E+00  0.00000000E+00  0.00000000E+00  0.00000000E+00
  0.00000000E+00  0.00000000E+00  2.36518448E-01  0.00000000E+00  0.00000000E+00
  0.00000000E+00  0.00000000E+00  0.00000000E+00  0.00000000E+00  0.00000000E+00
 -9.46052713E-02  0.00000000E+00  0.00000000E+00 -1.12809566E-01  0.00000000E+00
  0.00000000E+00 -2.25026385E-02  0.00000000E+00  0.00000000E+00  0.00000000E+00
 -9.52292875E-02  0.00000000E+00  0.00000000E+00  0.00000000E+00  0.00000000E+00
  1.68632217E-02  0.00000000E+00  0.00000000E+00  0.00000000E+00  0.00000000E+00
  0.00000000E+00  0.00000000E+00  0.00000000E+00  0.00000000E+00  0.00000000E+00
  0.00000000E+00  0.00000000E+00  0.00000000E+00  0.00000000E+00  0.00000000E+00
  0.00000000E+00  0.00000000E+00  0.00000000E+00  2.36518448E-01  0.00000000E+00
  0.00000000E+00  0.00000000E+00  0.00000000E+00  0.00000000E+00  0.00000000E+00
 -3.56359682E-01  0.00000000E+00  0.00000000E+00 -5.46789514E-01  0.00000000E+00
  0.00000000E+00 -2.65949350E-01  0.00000000E+00  0.00000000E+00  0.00000000E+00
  4.91225542E-01  0.00000000E+00  0.00000000E+00  0.00000000E+00  0.00000000E+00
  7.97328669E-01  0.00000000E+00  0.00000000E+00  0.00000000E+00  0.00000000E+00
  0.00000000E+00  0.00000000E+00  0.00000000E+00  0.00000000E+00  0.00000000E+00
  0.00000000E+00  0.00000000E+00  0.00000000E+00  0.00000000E+00  0.00000000E+00
  0.00000000E+00  0.00000000E+00  0.00000000E+00  9.43226723E-02  0.00000000E+00
  0.00000000E+00  0.00000000E+00  0.00000000E+00  2.37161839E-01  9.82823712E-01
  1.69868540E+00  1.41730858E+00  0.00000000E+00  0.00000000E+00 -9.61059840E-02
  0.00000000E+00  0.00000000E+00 -3.45186716E-01  0.00000000E+00  0.00000000E+00
  2.96898332E-01 -3.13780942E-01  0.00000000E+00  0.00000000E+00  4.93774798E-01
  0.00000000E+00 -3.64561058E-01  0.00000000E+00  0.00000000E+00  1.18619686E+00
  0.00000000E+00  7.11458243E-02  7.42108557E-01  1.75593236E+00  1.47280833E+00
  0.00000000E+00  0.00000000E+00  0.00000000E+00  0.00000000E+00  0.00000000E+00
  0.00000000E+00  0.00000000E+00  0.00000000E+00  0.00000000E+00  9.43226723E-02
  0.00000000E+00  0.00000000E+00  1.63371661E-01  0.00000000E+00  5.84362621E-01
  0.00000000E+00  0.00000000E+00  0.00000000E+00  0.00000000E+00  0.00000000E+00
  0.00000000E+00  0.00000000E+00  0.00000000E+00  0.00000000E+00  0.00000000E+00
  0.00000000E+00  0.00000000E+00  0.00000000E+00  0.00000000E+00  0.00000000E+00
  0.00000000E+00  0.00000000E+00  0.00000000E+00  4.93774798E-01  0.00000000E+00
  0.00000000E+00  0.00000000E+00  0.00000000E+00  1.18619686E+00  0.00000000E+00
  0.00000000E+00  0.00000000E+00  0.00000000E+00  0.00000000E+00  0.00000000E+00
  0.00000000E+00  0.00000000E+00  0.00000000E+00  0.00000000E+00  0.00000000E+00
  0.00000000E+00  0.00000000E+00  0.00000000E+00  0.00000000E+00  0.00000000E+00
  0.00000000E+00  1.63371661E-01  0.00000000E+00  0.00000000E+00  0.00000000E+00
  0.00000000E+00  0.00000000E+00  0.00000000E+00  0.00000000E+00 -1.02230877E-01
  0.00000000E+00  0.00000000E+00 -4.74043878E-01  0.00000000E+00  0.00000000E+00
 -4.09283841E-01  0.00000000E+00  0.00000000E+00  0.00000000E+00  1.68632217E-02
  0.00000000E+00  0.00000000E+00  0.00000000E+00  0.00000000E+00  3.74787745E-01
  0.00000000E+00  0.00000000E+00  0.00000000E+00  0.00000000E+00  0.00000000E+00
  0.00000000E+00  0.00000000E+00  0.00000000E+00  0.00000000E+00  0.00000000E+00
  0.00000000E+00  0.00000000E+00  0.00000000E+00  0.00000000E+00  0.00000000E+00
  0.00000000E+00  0.00000000E+00  1.63371661E-01  0.00000000E+00  0.00000000E+00
  0.00000000E+00  0.00000000E+00  1.01214575E+00  0.00000000E+00  0.00000000E+00
  0.00000000E+00  0.00000000E+00  0.00000000E+00  0.00000000E+00  0.00000000E+00
 -1.02230877E-01  0.00000000E+00  0.00000000E+00 -4.74043878E-01  0.00000000E+00
  0.00000000E+00 -4.09283841E-01  0.00000000E+00  0.00000000E+00  0.00000000E+00
  1.68632217E-02  0.00000000E+00  0.00000000E+00  0.00000000E+00  0.00000000E+00
  3.74787745E-01  0.00000000E+00  0.00000000E+00  0.00000000E+00  0.00000000E+00
  0.00000000E+00  0.00000000E+00  0.00000000E+00  0.00000000E+00  0.00000000E+00
  0.00000000E+00  0.00000000E+00  0.00000000E+00  0.00000000E+00  0.00000000E+00
  0.00000000E+00  0.00000000E+00  0.00000000E+00  1.63371661E-01  0.00000000E+00
  0.00000000E+00  0.00000000E+00  0.00000000E+00  1.01214575E+00  0.00000000E+00
  0.00000000E+00  0.00000000E+00  0.00000000E+00  0.00000000E+00  0.00000000E+00
  1.90033440E-06  0.00000000E+00  0.00000000E+00  2.54909734E-03  0.00000000E+00
  0.00000000E+00  4.00201879E-02  0.00000000E+00  0.00000000E+00  0.00000000E+00
  7.27299491E-05  0.00000000E+00  0.00000000E+00  0.00000000E+00  0.00000000E+00
  3.86708016E-02  0.00000000E+00  0.00000000E+00  0.00000000E+00  0.00000000E+00
  0.00000000E+00  0.00000000E+00  0.00000000E+00  3.41305156E-03  0.00000000E+00
  0.00000000E+00  6.07946227E-02  0.00000000E+00  0.00000000E+00  1.09425292E-01
  0.00000000E+00  0.00000000E+00  0.00000000E+00  2.55321325E-02  0.00000000E+00
  0.00000000E+00  0.00000000E+00  0.00000000E+00  2.34542399E-01  0.00000000E+00
  0.00000000E+00  0.00000000E+00  0.00000000E+00  0.00000000E+00  0.00000000E+00
  0.00000000E+00  0.00000000E+00 -2.59326861E-03  0.00000000E+00  0.00000000E+00
  1.73242239E-02  0.00000000E+00  0.00000000E+00  2.57903206E-01  0.00000000E+00
  0.00000000E+00  0.00000000E+00 -1.17663268E-03  0.00000000E+00  0.00000000E+00
  0.00000000E+00  0.00000000E+00  2.15755936E-01  0.00000000E+00  0.00000000E+00
  0.00000000E+00  0.00000000E+00  0.00000000E+00  0.00000000E+00  0.00000000E+00
  3.13219765E-02  0.00000000E+00  0.00000000E+00  2.76801591E-01  0.00000000E+00
  0.00000000E+00  6.81265431E-01  0.00000000E+00  0.00000000E+00  0.00000000E+00
  1.35314145E-01  0.00000000E+00  0.00000000E+00  0.00000000E+00  0.00000000E+00
  9.63649340E-01  0.00000000E+00  0.00000000E+00  0.00000000E+00  0.00000000E+00
  0.00000000E+00  0.00000000E+00  0.00000000E+00  0.00000000E+00  0.00000000E+00
 -5.79020059E-02  0.00000000E+00  0.00000000E+00 -1.20627338E-01  0.00000000E+00
  0.00000000E+00  4.21917222E-01  0.00000000E+00  0.00000000E+00  0.00000000E+00
  3.86260011E-03  0.00000000E+00  0.00000000E+00  0.00000000E+00  0.00000000E+00
  3.89963276E-01  0.00000000E+00  0.00000000E+00  0.00000000E+00  0.00000000E+00
  0.00000000E+00  0.00000000E+00  0.00000000E+00  2.52571152E-02  0.00000000E+00
  0.00000000E+00  2.88855683E-01  0.00000000E+00  0.00000000E+00  1.46729510E+00
  0.00000000E+00  0.00000000E+00  0.00000000E+00  1.84718052E-01  0.00000000E+00
  0.00000000E+00  0.00000000E+00  0.00000000E+00  1.46479204E+00  0.00000000E+00
  0.00000000E+00  0.00000000E+00  0.00000000E+00  0.00000000E+00  0.00000000E+00
  0.00000000E+00  0.00000000E+00  0.00000000E+00  0.00000000E+00 -9.83074113E-02
  0.00000000E+00  0.00000000E+00 -3.87900479E-01  0.00000000E+00  0.00000000E+00
 -7.53159841E-01  0.00000000E+00  0.00000000E+00  0.00000000E+00  6.80770306E-02
  0.00000000E+00  0.00000000E+00  0.00000000E+00  0.00000000E+00  7.52822997E-01
  0.00000000E+00  0.00000000E+00  0.00000000E+00  0.00000000E+00  0.00000000E+00
  0.00000000E+00  0.00000000E+00  4.54643846E-03  0.00000000E+00  0.00000000E+00
  7.10191906E-02  0.00000000E+00  0.00000000E+00  8.47720769E-01  0.00000000E+00
  0.00000000E+00  0.00000000E+00  1.24563925E-01  0.00000000E+00  0.00000000E+00
  0.00000000E+00  0.00000000E+00  1.27595360E+00  0.00000000E+00  0.00000000E+00
  0.00000000E+00  0.00000000E+00  0.00000000E+00  0.00000000E+00  0.00000000E+00
  3.56498380E-06  7.95910089E-03  1.25114038E-01  1.94658731E-01  0.00000000E+00
  0.00000000E+00  4.88699837E-06  0.00000000E+00  0.00000000E+00  1.65628846E-02
  0.00000000E+00  0.00000000E+00  3.29753141E-01  1.39502949E-04  0.00000000E+00
  0.00000000E+00  7.32361325E-06  0.00000000E+00  1.65102647E-01  0.00000000E+00
  0.00000000E+00  6.27499756E-03  0.00000000E+00  4.13388759E-03  1.35267099E-01
  3.46024938E-01  2.53239862E-01  0.00000000E+00  0.00000000E+00  8.62954443E-03
  0.00000000E+00  0.00000000E+00  2.89009371E-01  0.00000000E+00  0.00000000E+00
  6.05658074E-01  4.50769111E-02  0.00000000E+00  0.00000000E+00  5.74543955E-03
  0.00000000E+00  6.74894307E-01  0.00000000E+00  0.00000000E+00  5.91745321E-02
  0.00000000E+00  1.16811457E+00  1.32362167E+00  7.85910067E-01  3.13106446E-01
  0.00000000E+00  0.00000000E+00  0.00000000E+00  0.00000000E+00  0.00000000E+00
  0.00000000E+00  0.00000000E+00  0.00000000E+00  0.00000000E+00  0.00000000E+00
  0.00000000E+00  0.00000000E+00  0.00000000E+00  0.00000000E+00  0.00000000E+00
  0.00000000E+00  0.00000000E+00  0.00000000E+00  7.32361325E-06  0.00000000E+00
  0.00000000E+00  0.00000000E+00  0.00000000E+00  6.27499756E-03  0.00000000E+00
  0.00000000E+00  0.00000000E+00  0.00000000E+00  0.00000000E+00  0.00000000E+00
  0.00000000E+00  0.00000000E+00  0.00000000E+00  0.00000000E+00  0.00000000E+00
  0.00000000E+00  0.00000000E+00  0.00000000E+00  0.00000000E+00  0.00000000E+00
  0.00000000E+00  5.74543955E-03  0.00000000E+00  0.00000000E+00  0.00000000E+00
  0.00000000E+00  5.91745321E-02  0.00000000E+00  0.00000000E+00  0.00000000E+00
  0.00000000E+00  0.00000000E+00  0.00000000E+00  0.00000000E+00  0.00000000E+00
  0.00000000E+00  0.00000000E+00 -3.80846625E-06  0.00000000E+00  0.00000000E+00
 -3.66781052E-03  0.00000000E+00  0.00000000E+00 -1.25108596E-02  0.00000000E+00
  0.00000000E+00  0.00000000E+00 -1.47809926E-04  0.00000000E+00  0.00000000E+00
  0.00000000E+00  0.00000000E+00 -3.27074912E-02  0.00000000E+00  0.00000000E+00
  0.00000000E+00  0.00000000E+00  0.00000000E+00  0.00000000E+00  0.00000000E+00
 -7.19407590E-03  0.00000000E+00  0.00000000E+00 -5.95296149E-02  0.00000000E+00
  0.00000000E+00 -1.37736993E-02  0.00000000E+00  0.00000000E+00  0.00000000E+00
 -4.71628549E-02  0.00000000E+00  0.00000000E+00  0.00000000E+00  0.00000000E+00
 -8.68612795E-02  0.00000000E+00  0.00000000E+00  0.00000000E+00  0.00000000E+00
  0.00000000E+00  0.00000000E+00  0.00000000E+00  1.77683014E-01  0.00000000E+00
  0.00000000E+00 -5.73039357E-04  3.04432425E-02  4.10427110E-01  8.27079753E-01
  0.00000000E+00  0.00000000E+00 -5.32182924E-04  0.00000000E+00  0.00000000E+00
  6.24864563E-02  0.00000000E+00  0.00000000E+00  1.03102569E+00  2.57581101E-03
  0.00000000E+00  0.00000000E+00 -9.68020254E-04  0.00000000E+00  3.85128697E-01
  0.00000000E+00  0.00000000E+00  5.51518100E-02  0.00000000E+00  2.00333330E-02
  3.29647076E-01  1.09129508E+00  1.09087276E+00  0.00000000E+00  0.00000000E+00
  3.65849029E-02  0.00000000E+00  0.00000000E+00  5.69351255E-01  0.00000000E+00
  0.00000000E+00  1.87205141E+00  6.50556987E-02  0.00000000E+00  0.00000000E+00
  4.28039145E-02  0.00000000E+00  1.04852273E+00  0.00000000E+00  0.00000000E+00
  3.85188520E-01  0.00000000E+00  7.97628256E-01  2.42865398E+00  2.60754241E+00
  1.39913710E+00  0.00000000E+00  0.00000000E+00  1.71287901E-01  0.00000000E+00
  0.00000000E+00  0.00000000E+00  0.00000000E+00  0.00000000E+00  0.00000000E+00
  0.00000000E+00  0.00000000E+00  0.00000000E+00  0.00000000E+00  0.00000000E+00
  0.00000000E+00  0.00000000E+00  0.00000000E+00  0.00000000E+00  0.00000000E+00
  0.00000000E+00  0.00000000E+00 -9.68020254E-04  0.00000000E+00  0.00000000E+00
  0.00000000E+00  0.00000000E+00  5.51518100E-02  0.00000000E+00  0.00000000E+00
  0.00000000E+00  0.00000000E+00  0.00000000E+00  0.00000000E+00  0.00000000E+00
  0.00000000E+00  0.00000000E+00  0.00000000E+00  0.00000000E+00  0.00000000E+00
  0.00000000E+00  0.00000000E+00  0.00000000E+00  0.00000000E+00  0.00000000E+00
  4.28039145E-02  0.00000000E+00  0.00000000E+00  0.00000000E+00  0.00000000E+00
  3.85188520E-01  0.00000000E+00  0.00000000E+00  0.00000000E+00  0.00000000E+00
  0.00000000E+00  0.00000000E+00  0.00000000E+00  0.00000000E+00  0.00000000E+00
  0.00000000E+00  0.00000000E+00  0.00000000E+00  0.00000000E+00  5.19219377E-03
  0.00000000E+00  0.00000000E+00 -2.37146830E-02  0.00000000E+00  0.00000000E+00
 -9.30014063E-02  0.00000000E+00  0.00000000E+00  0.00000000E+00  2.80349803E-03
  0.00000000E+00  0.00000000E+00  0.00000000E+00  0.00000000E+00 -2.00088104E-01
  0.00000000E+00  0.00000000E+00  0.00000000E+00  0.00000000E+00  0.00000000E+00
  0.00000000E+00  0.00000000E+00 -5.95296149E-02  0.00000000E+00  0.00000000E+00
 -2.87482588E-01  0.00000000E+00  0.00000000E+00 -8.55072939E-02  0.00000000E+00
  0.00000000E+00  0.00000000E+00 -2.21357435E-01  0.00000000E+00  0.00000000E+00
  0.00000000E+00  0.00000000E+00 -3.85745061E-01  0.00000000E+00  0.00000000E+00
  0.00000000E+00  0.00000000E+00  0.00000000E+00  0.00000000E+00  0.00000000E+00
  1.71287901E-01  0.00000000E+00  0.00000000E+00  6.44329897E-01  0.00000000E+00
  0.00000000E+00 -1.80829122E-02 -6.31729444E-02  4.12919408E-01  2.42577844E+00
  0.00000000E+00  0.00000000E+00 -9.16100630E-05  0.00000000E+00  0.00000000E+00
  7.17968089E-02  0.00000000E+00  0.00000000E+00  1.54600530E+00  3.40366894E-02
  0.00000000E+00  0.00000000E+00 -4.30159442E-02  0.00000000E+00  4.34751967E-01
  0.00000000E+00  0.00000000E+00 -6.36575928E-02  0.00000000E+00  9.48356157E-03
  2.13287520E-01  1.45729406E+00  3.42310049E+00  0.00000000E+00  0.00000000E+00
  3.11318024E-02  0.00000000E+00  0.00000000E+00  4.29108655E-01  0.00000000E+00
  0.00000000E+00  2.95715129E+00  1.67791596E-02  0.00000000E+00  0.00000000E+00
  2.54785855E-02  0.00000000E+00  4.42300134E-01  0.00000000E+00  0.00000000E+00
  5.22172266E-01  0.00000000E+00  2.48086202E-01  1.64405223E+00  4.36704308E+00
  5.00494676E+00  0.00000000E+00  0.00000000E+00  5.91902931E-02  0.00000000E+00
  0.00000000E+00  6.06245580E-01  0.00000000E+00  0.00000000E+00  0.00000000E+00
  0.00000000E+00  0.00000000E+00  0.00000000E+00  0.00000000E+00  0.00000000E+00
  0.00000000E+00  0.00000000E+00  0.00000000E+00  0.00000000E+00  0.00000000E+00
  0.00000000E+00  0.00000000E+00  0.00000000E+00  0.00000000E+00  0.00000000E+00
 -4.30159442E-02  0.00000000E+00  0.00000000E+00  0.00000000E+00  0.00000000E+00
 -6.36575928E-02  0.00000000E+00  0.00000000E+00  0.00000000E+00  0.00000000E+00
  0.00000000E+00  0.00000000E+00  0.00000000E+00  0.00000000E+00  0.00000000E+00
  0.00000000E+00  0.00000000E+00  0.00000000E+00  0.00000000E+00  0.00000000E+00
  0.00000000E+00  0.00000000E+00  0.00000000E+00  2.54785855E-02  0.00000000E+00
  0.00000000E+00  0.00000000E+00  0.00000000E+00  5.22172266E-01  0.00000000E+00
  0.00000000E+00  0.00000000E+00  0.00000000E+00  0.00000000E+00  0.00000000E+00
  0.00000000E+00  0.00000000E+00  0.00000000E+00  0.00000000E+00  0.00000000E+00
  0.00000000E+00  0.00000000E+00  0.00000000E+00  0.00000000E+00  0.00000000E+00
  1.58440551E-01  0.00000000E+00  0.00000000E+00  4.04146209E-01  0.00000000E+00
  0.00000000E+00  4.05436663E-01  0.00000000E+00  0.00000000E+00  0.00000000E+00
 -3.83834198E-02  0.00000000E+00  0.00000000E+00  0.00000000E+00  0.00000000E+00
 -4.36374464E-01  0.00000000E+00  0.00000000E+00  0.00000000E+00  0.00000000E+00
  0.00000000E+00  0.00000000E+00  0.00000000E+00 -1.37736993E-02  0.00000000E+00
  0.00000000E+00 -8.55072939E-02  0.00000000E+00  0.00000000E+00  3.30158475E-01
  0.00000000E+00  0.00000000E+00  0.00000000E+00 -2.50208626E-01  0.00000000E+00
  0.00000000E+00  0.00000000E+00  0.00000000E+00 -8.10786029E-01  0.00000000E+00
  0.00000000E+00  0.00000000E+00  0.00000000E+00  0.00000000E+00  0.00000000E+00
  0.00000000E+00  5.91902931E-02  0.00000000E+00  0.00000000E+00  6.06245580E-01
  0.00000000E+00  0.00000000E+00  2.45098039E+00  0.00000000E+00  0.00000000E+00
  0.00000000E+00  0.00000000E+00  0.00000000E+00  0.00000000E+00  2.41737025E-05
  0.00000000E+00  0.00000000E+00  4.15013754E-03  0.00000000E+00  0.00000000E+00
 -5.50541609E-02  0.00000000E+00  0.00000000E+00  0.00000000E+00  7.75652012E-04
  0.00000000E+00  0.00000000E+00  0.00000000E+00  0.00000000E+00 -1.97513912E-02
  0.00000000E+00  0.00000000E+00  0.00000000E+00  0.00000000E+00  0.00000000E+00
  0.00000000E+00  0.00000000E+00  2.22455388E-02  0.00000000E+00  0.00000000E+00
 -6.84605048E-03  0.00000000E+00  0.00000000E+00 -1.60415357E-01  0.00000000E+00
  0.00000000E+00  0.00000000E+00  7.92143457E-02  0.00000000E+00  0.00000000E+00
  0.00000000E+00  0.00000000E+00 -2.82949916E-01  0.00000000E+00  0.00000000E+00
  0.00000000E+00  0.00000000E+00  0.00000000E+00  0.00000000E+00  0.00000000E+00
 -6.57324456E-01  0.00000000E+00  0.00000000E+00 -8.50465740E-01  0.00000000E+00
  0.00000000E+00 -3.46427867E-01  0.00000000E+00  0.00000000E+00  0.00000000E+00
 -3.94995436E-05 -1.91473356E-02 -6.92052231E-02  4.03138559E-02  0.00000000E+00
  0.00000000E+00 -6.26480688E-05  0.00000000E+00  0.00000000E+00 -4.18094881E-02
  0.00000000E+00  0.00000000E+00 -8.87518292E-02 -1.12925609E-03  0.00000000E+00
  0.00000000E+00 -8.56037004E-05  0.00000000E+00 -1.82775673E-01  0.00000000E+00
  0.00000000E+00 -1.39990513E-02  0.00000000E+00 -1.85018269E-02 -1.78280532E-01
 -7.54584714E-02  7.57121815E-02  0.00000000E+00  0.00000000E+00 -3.79337033E-02
  0.00000000E+00  0.00000000E+00 -3.28166302E-01  0.00000000E+00  0.00000000E+00
  1.17728971E-01 -1.10858845E-01  0.00000000E+00  0.00000000E+00 -2.74049402E-02
  0.00000000E+00 -7.81938771E-02  0.00000000E+00  0.00000000E+00 -7.27423861E-02
  0.00000000E+00  1.86621370E-01  4.32246747E-01  3.36623363E-01  1.49740957E-01
  0.00000000E+00  0.00000000E+00  1.13851936E+00  0.00000000E+00  0.00000000E+00
  1.47304987E+00  0.00000000E+00  0.00000000E+00  6.00030667E-01  1.36553990E-01
  0.00000000E+00  0.00000000E+00  0.00000000E+00  0.00000000E+00  0.00000000E+00
  0.00000000E+00  0.00000000E+00  0.00000000E+00  0.00000000E+00  0.00000000E+00
  0.00000000E+00  0.00000000E+00  0.00000000E+00  0.00000000E+00  0.00000000E+00
  0.00000000E+00  0.00000000E+00  0.00000000E+00 -8.56037004E-05  0.00000000E+00
  0.00000000E+00  0.00000000E+00  0.00000000E+00 -1.39990513E-02  0.00000000E+00
  0.00000000E+00  0.00000000E+00  0.00000000E+00  0.00000000E+00  0.00000000E+00
  0.00000000E+00  0.00000000E+00  0.00000000E+00  0.00000000E+00  0.00000000E+00
  0.00000000E+00  0.00000000E+00  0.00000000E+00  0.00000000E+00  0.00000000E+00
  0.00000000E+00 -2.74049402E-02  0.00000000E+00  0.00000000E+00  0.00000000E+00
  0.00000000E+00 -7.27423861E-02  0.00000000E+00  0.00000000E+00  0.00000000E+00
  0.00000000E+00  0.00000000E+00  0.00000000E+00  0.00000000E+00  0.00000000E+00
  0.00000000E+00  0.00000000E+00  0.00000000E+00  0.00000000E+00  0.00000000E+00
  0.00000000E+00  0.00000000E+00  0.00000000E+00  0.00000000E+00  0.00000000E+00
  0.00000000E+00  0.00000000E+00  2.79400295E-06  0.00000000E+00  0.00000000E+00
  5.18417498E-03  0.00000000E+00  0.00000000E+00  9.68862202E-02  0.00000000E+00
  0.00000000E+00  0.00000000E+00  1.19460812E-04  0.00000000E+00  0.00000000E+00
  0.00000000E+00  0.00000000E+00  8.31019634E-02  0.00000000E+00  0.00000000E+00
  0.00000000E+00  0.00000000E+00  0.00000000E+00  0.00000000E+00  0.00000000E+00
  4.31622573E-03  0.00000000E+00  0.00000000E+00  1.16607571E-01  0.00000000E+00
  0.00000000E+00  2.64028087E-01  0.00000000E+00  0.00000000E+00  0.00000000E+00
  3.49325331E-02  0.00000000E+00  0.00000000E+00  0.00000000E+00  0.00000000E+00
  4.90979788E-01  0.00000000E+00  0.00000000E+00  0.00000000E+00  0.00000000E+00
  0.00000000E+00  0.00000000E+00  0.00000000E+00  1.13851936E+00  0.00000000E+00
  0.00000000E+00  1.47304987E+00  0.00000000E+00  0.00000000E+00  6.00030667E-01
  0.00000000E+00  0.00000000E+00  0.00000000E+00  2.36518448E-01  0.00000000E+00
  0.00000000E+00  0.00000000E+00  0.00000000E+00  0.00000000E+00  0.00000000E+00
  0.00000000E+00  2.79400295E-06  0.00000000E+00  0.00000000E+00  5.18417498E-03
  0.00000000E+00  0.00000000E+00  9.68862202E-02  0.00000000E+00  0.00000000E+00
  0.00000000E+00  1.19460812E-04  0.00000000E+00  0.00000000E+00  0.00000000E+00
  0.00000000E+00  8.31019634E-02  0.00000000E+00  0.00000000E+00  0.00000000E+00
  0.00000000E+00  0.00000000E+00  0.00000000E+00  0.00000000E+00  4.31622573E-03
  0.00000000E+00  0.00000000E+00  1.16607571E-01  0.00000000E+00  0.00000000E+00
  2.64028087E-01  0.00000000E+00  0.00000000E+00  0.00000000E+00  3.49325331E-02
  0.00000000E+00  0.00000000E+00  0.00000000E+00  0.00000000E+00  4.90979788E-01
  0.00000000E+00  0.00000000E+00  0.00000000E+00  0.00000000E+00  0.00000000E+00
  0.00000000E+00  0.00000000E+00  1.13851936E+00  0.00000000E+00  0.00000000E+00
  1.47304987E+00  0.00000000E+00  0.00000000E+00  6.00030667E-01  0.00000000E+00
  0.00000000E+00  0.00000000E+00  2.36518448E-01  0.00000000E+00  0.00000000E+00
  0.00000000E+00  0.00000000E+00  0.00000000E+00  0.00000000E+00 -6.97881628E-02
  0.00000000E+00  0.00000000E+00 -1.01773597E-01  0.00000000E+00  0.00000000E+00
 -4.16516239E-01  0.00000000E+00  0.00000000E+00  0.00000000E+00 -2.91971704E-02
  0.00000000E+00  0.00000000E+00  0.00000000E+00  0.00000000E+00 -8.75078185E-02
  0.00000000E+00  0.00000000E+00  0.00000000E+00  0.00000000E+00  0.00000000E+00
  0.00000000E+00  0.00000000E+00  3.81541951E-02  0.00000000E+00  0.00000000E+00
 -6.04343556E-02  0.00000000E+00  0.00000000E+00 -9.91983560E-01  0.00000000E+00
  0.00000000E+00  0.00000000E+00  2.15870842E-01  0.00000000E+00  0.00000000E+00
  0.00000000E+00  0.00000000E+00 -6.65244978E-01  0.00000000E+00  0.00000000E+00
  0.00000000E+00  0.00000000E+00  0.00000000E+00  0.00000000E+00  0.00000000E+00
 -2.08322618E-01  0.00000000E+00  0.00000000E+00 -1.18733888E+00  0.00000000E+00
  0.00000000E+00 -1.81595170E+00  0.00000000E+00  0.00000000E+00  0.00000000E+00
  9.43226723E-02  0.00000000E+00  0.00000000E+00  0.00000000E+00  0.00000000E+00
  1.45454139E-02 -3.36994140E-03 -1.67633243E-01  4.70963734E-01  0.00000000E+00
  0.00000000E+00  6.94876486E-03  0.00000000E+00  0.00000000E+00 -8.87635583E-02
  0.00000000E+00  0.00000000E+00 -2.24927850E-01 -2.65901902E-02  0.00000000E+00
  0.00000000E+00  2.98805920E-02  0.00000000E+00 -3.47236284E-01  0.00000000E+00
  0.00000000E+00 -4.51846670E-02  0.00000000E+00 -3.16058303E-02 -2.96567013E-01
 -1.35907502E-01  7.88813557E-01  0.00000000E+00  0.00000000E+00 -7.25994547E-02
  0.00000000E+00  0.00000000E+00 -4.74652711E-01  0.00000000E+00  0.00000000E+00
  5.76469080E-01 -4.39743734E-02  0.00000000E+00  0.00000000E+00 -7.27423861E-02
  0.00000000E+00  2.49926110E-01  0.00000000E+00  0.00000000E+00 -3.59676691E-01
  0.00000000E+00  7.11458243E-02  7.42108557E-01  1.75593236E+00  1.47280833E+00
  0.00000000E+00  0.00000000E+00  3.60825359E-01  0.00000000E+00  0.00000000E+00
  2.05653127E+00  0.00000000E+00  0.00000000E+00  3.14532060E+00  9.43226723E-02
  0.00000000E+00  0.00000000E+00  1.63371661E-01  0.00000000E+00  5.84362621E-01
  0.00000000E+00  0.00000000E+00  0.00000000E+00  0.00000000E+00  0.00000000E+00
  0.00000000E+00  0.00000000E+00  0.00000000E+00  0.00000000E+00  0.00000000E+00
  0.00000000E+00  0.00000000E+00  0.00000000E+00  0.00000000E+00  0.00000000E+00
  0.00000000E+00  0.00000000E+00  0.00000000E+00  2.98805920E-02  0.00000000E+00
  0.00000000E+00  0.00000000E+00  0.00000000E+00 -4.51846670E-02  0.00000000E+00
  0.00000000E+00  0.00000000E+00  0.00000000E+00  0.00000000E+00  0.00000000E+00
  0.00000000E+00  0.00000000E+00  0.00000000E+00  0.00000000E+00  0.00000000E+00
  0.00000000E+00  0.00000000E+00  0.00000000E+00  0.00000000E+00  0.00000000E+00
  0.00000000E+00 -7.27423861E-02  0.00000000E+00  0.00000000E+00  0.00000000E+00
  0.00000000E+00 -3.59676691E-01  0.00000000E+00  0.00000000E+00  0.00000000E+00
  0.00000000E+00  0.00000000E+00  0.00000000E+00  0.00000000E+00  0.00000000E+00
  0.00000000E+00  0.00000000E+00  0.00000000E+00  0.00000000E+00  0.00000000E+00
  0.00000000E+00  0.00000000E+00  0.00000000E+00  0.00000000E+00  1.63371661E-01
  0.00000000E+00  0.00000000E+00  0.00000000E+00  0.00000000E+00  0.00000000E+00
  0.00000000E+00  0.00000000E+00 -2.36587171E-03  0.00000000E+00  0.00000000E+00
  9.73866135E-03  0.00000000E+00  0.00000000E+00  4.75045798E-01  0.00000000E+00
  0.00000000E+00  0.00000000E+00 -1.56226913E-03  0.00000000E+00  0.00000000E+00
  0.00000000E+00  0.00000000E+00  2.62760790E-01  0.00000000E+00  0.00000000E+00
  0.00000000E+00  0.00000000E+00  0.00000000E+00  0.00000000E+00  0.00000000E+00
  1.03881375E-02  0.00000000E+00  0.00000000E+00  2.45210218E-01  0.00000000E+00
  0.00000000E+00  1.26447598E+00  0.00000000E+00  0.00000000E+00  0.00000000E+00
  5.89883394E-02  0.00000000E+00  0.00000000E+00  0.00000000E+00  0.00000000E+00
  1.12891371E+00  0.00000000E+00  0.00000000E+00  0.00000000E+00  0.00000000E+00
  0.00000000E+00  0.00000000E+00  0.00000000E+00  3.60825359E-01  0.00000000E+00
  0.00000000E+00  2.05653127E+00  0.00000000E+00  0.00000000E+00  3.14532060E+00
  0.00000000E+00  0.00000000E+00  0.00000000E+00  1.63371661E-01  0.00000000E+00
  0.00000000E+00  0.00000000E+00  0.00000000E+00  1.01214575E+00  0.00000000E+00
  0.00000000E+00  0.00000000E+00  0.00000000E+00  0.00000000E+00  0.00000000E+00
  0.00000000E+00 -2.36587171E-03  0.00000000E+00  0.00000000E+00  9.73866135E-03
  0.00000000E+00  0.00000000E+00  4.75045798E-01  0.00000000E+00  0.00000000E+00
  0.00000000E+00 -1.56226913E-03  0.00000000E+00  0.00000000E+00  0.00000000E+00
  0.00000000E+00  2.62760790E-01  0.00000000E+00  0.00000000E+00  0.00000000E+00
  0.00000000E+00  0.00000000E+00  0.00000000E+00  0.00000000E+00  1.03881375E-02
  0.00000000E+00  0.00000000E+00  2.45210218E-01  0.00000000E+00  0.00000000E+00
  1.26447598E+00  0.00000000E+00  0.00000000E+00  0.00000000E+00  5.89883394E-02
  0.00000000E+00  0.00000000E+00  0.00000000E+00  0.00000000E+00  1.12891371E+00
  0.00000000E+00  0.00000000E+00  0.00000000E+00  0.00000000E+00  0.00000000E+00
  0.00000000E+00  0.00000000E+00  3.60825359E-01  0.00000000E+00  0.00000000E+00
  2.05653127E+00  0.00000000E+00  0.00000000E+00  3.14532060E+00  0.00000000E+00
  0.00000000E+00  0.00000000E+00  1.63371661E-01  0.00000000E+00  0.00000000E+00
  0.00000000E+00  0.00000000E+00  1.01214575E+00  0.00000000E+00  0.00000000E+00
Multipole Matrix (0,1,1)                   R   N=        2415
  0.00000000E+00  0.00000000E+00  0.00000000E+00  0.00000000E+00  0.00000000E+00
  0.00000000E+00  0.00000000E+00  0.00000000E+00  0.00000000E+00  0.00000000E+00
  0.00000000E+00  0.00000000E+00  0.00000000E+00  0.00000000E+00  0.00000000E+00
 -6.05408555E-01 -6.86004526E-01 -4.07320215E-01 -1.62276309E-01  0.00000000E+00
  0.00000000E+00  0.00000000E+00  0.00000000E+00  0.00000000E+00  0.00000000E+00
  0.00000000E+00  1.77683014E-01  0.00000000E+00  0.00000000E+00  0.00000000E+00
  0.00000000E+00  0.00000000E+00  0.00000000E+00  0.00000000E+00  0.00000000E+00
  0.00000000E+00 -4.13393500E-01 -1.25871891E+00 -1.35143292E+00 -7.25142544E-01
  0.00000000E+00  0.00000000E+00  1.71287901E-01  0.00000000E+00  0.00000000E+00
  0.00000000E+00  0.00000000E+00  0.00000000E+00  0.00000000E+00  0.00000000E+00
  1.71287901E-01  0.00000000E+00  0.00000000E+00  6.44329897E-01  0.00000000E+00
  0.00000000E+00  0.00000000E+00  0.00000000E+00  0.00000000E+00  0.00000000E+00
  0.00000000E+00  0.00000000E+00  0.00000000E+00  0.00000000E+00  0.00000000E+00
  0.00000000E+00 -1.28577721E-01 -8.52076763E-01 -2.26334412E+00 -2.59395582E+00
  0.00000000E+00  0.00000000E+00  5.91902931E-02  0.00000000E+00  0.00000000E+00
  6.06245580E-01  0.00000000E+00  0.00000000E+00  0.00000000E+00  0.00000000E+00
  0.00000000E+00  0.00000000E+00  0.00000000E+00  5.91902931E-02  0.00000000E+00
  0.00000000E+00  6.06245580E-01  0.00000000E+00  0.00000000E+00  2.45098039E+00
  0.00000000E+00  0.00000000E+00  0.00000000E+00  0.00000000E+00  0.00000000E+00
  0.00000000E+00  3.40677070E-01  0.00000000E+00  0.00000000E+00  4.40778026E-01
  0.00000000E+00  0.00000000E+00  1.79546082E-01  0.00000000E+00  0.00000000E+00
  0.00000000E+00  0.00000000E+00  0.00000000E+00  0.00000000E+00  0.00000000E+00
  0.00000000E+00  0.00000000E+00  0.00000000E+00  0.00000000E+00  0.00000000E+00
  0.00000000E+00  0.00000000E+00  0.00000000E+00  0.00000000E+00  0.00000000E+00
  1.86621370E-01  4.32246747E-01  3.36623363E-01  1.49740957E-01  0.00000000E+00
  0.00000000E+00 -5.90069994E-01  0.00000000E+00  0.00000000E+00 -7.63449937E-01
  0.00000000E+00  0.00000000E+00 -3.10982936E-01  1.36553990E-01  0.00000000E+00
  0.00000000E+00  0.00000000E+00  0.00000000E+00  0.00000000E+00  0.00000000E+00
  0.00000000E+00  5.90069994E-01  0.00000000E+00  0.00000000E+00  7.63449937E-01
  0.00000000E+00  0.00000000E+00  3.10982936E-01  0.00000000E+00  0.00000000E+00
  0.00000000E+00 -2.36518448E-01  0.00000000E+00  0.00000000E+00  0.00000000E+00
  0.00000000E+00  0.00000000E+00 -5.90069994E-01  0.00000000E+00  0.00000000E+00
 -7.63449937E-01  0.00000000E+00  0.00000000E+00 -3.10982936E-01  0.00000000E+00
  0.00000000E+00  0.00000000E+00  2.36518448E-01  0.00000000E+00  0.00000000E+00
  0.00000000E+00  0.00000000E+00  0.00000000E+00  0.00000000E+00  0.00000000E+00
  0.00000000E+00  1.07969114E-01  0.00000000E+00  0.00000000E+00  6.15372101E-01
  0.00000000E+00  0.00000000E+00  9.41168546E-01  0.00000000E+00  0.00000000E+00
  0.00000000E+00  9.43226723E-02  0.00000000E+00  0.00000000E+00  0.00000000E+00
  0.00000000E+00  0.00000000E+00  0.00000000E+00  0.00000000E+00  0.00000000E+00
  0.00000000E+00  0.00000000E+00  0.00000000E+00  0.00000000E+00  0.00000000E+00
  0.00000000E+00  0.00000000E+00  0.00000000E+00  0.00000000E+00  0.00000000E+00
  0.00000000E+00  0.00000000E+00  1.63371661E-01  0.00000000E+00  0.00000000E+00
  7.11458243E-02  7.42108557E-01  1.75593236E+00  1.47280833E+00  0.00000000E+00
  0.00000000E+00 -1.87007991E-01  0.00000000E+00  0.00000000E+00 -1.06585574E+00
  0.00000000E+00  0.00000000E+00 -1.63015174E+00  9.43226723E-02  0.00000000E+00
  0.00000000E+00 -1.63371661E-01  0.00000000E+00  5.84362621E-01  0.00000000E+00
  0.00000000E+00  0.00000000E+00  0.00000000E+00  0.00000000E+00  0.00000000E+00
  0.00000000E+00  1.87007991E-01  0.00000000E+00  0.00000000E+00  1.06585574E+00
  0.00000000E+00  0.00000000E+00  1.63015174E+00  0.00000000E+00  0.00000000E+00
  0.00000000E+00 -1.63371661E-01  0.00000000E+00  0.00000000E+00  0.00000000E+00
  0.00000000E+00 -1.01214575E+00  0.00000000E+00  0.00000000E+00  0.00000000E+00
  0.00000000E+00  0.00000000E+00 -1.87007991E-01  0.00000000E+00  0.00000000E+00
 -1.06585574E+00  0.00000000E+00  0.00000000E+00 -1.63015174E+00  0.00000000E+00
  0.00000000E+00  0.00000000E+00  1.63371661E-01  0.00000000E+00  0.00000000E+00
  0.00000000E+00  0.00000000E+00  1.01214575E+00  0.00000000E+00  0.00000000E+00
  0.00000000E+00  0.00000000E+00  0.00000000E+00  0.00000000E+00  0.00000000E+00
  0.00000000E+00 -8.24848153E-02  0.00000000E+00  0.00000000E+00 -5.50435021E-02
  0.00000000E+00  0.00000000E+00 -8.41217417E-03  0.00000000E+00  0.00000000E+00
  0.00000000E+00 -7.73967280E-02  0.00000000E+00  0.00000000E+00  0.00000000E+00
  0.00000000E+00  6.58971998E-03  0.00000000E+00  0.00000000E+00  0.00000000E+00
  0.00000000E+00  0.00000000E+00  0.00000000E+00  0.00000000E+00  0.00000000E+00
 -3.19219832E-01  0.00000000E+00  0.00000000E+00 -4.71330639E-01  0.00000000E+00
  0.00000000E+00 -1.72520720E-01  0.00000000E+00  0.00000000E+00  0.00000000E+00
 -1.23338333E-02  0.00000000E+00  0.00000000E+00  0.00000000E+00  0.00000000E+00
  2.25659158E-01  0.00000000E+00  0.00000000E+00  0.00000000E+00  0.00000000E+00
  0.00000000E+00  0.00000000E+00  0.00000000E+00  0.00000000E+00  0.00000000E+00
 -3.10356374E-01  0.00000000E+00  0.00000000E+00 -9.00722938E-01  0.00000000E+00
  0.00000000E+00 -1.01265476E+00  0.00000000E+00  0.00000000E+00  0.00000000E+00
  1.67524999E-01  0.00000000E+00  0.00000000E+00  0.00000000E+00  0.00000000E+00
  1.04712522E+00  0.00000000E+00  0.00000000E+00  0.00000000E+00  0.00000000E+00
  0.00000000E+00  0.00000000E+00  0.00000000E+00  0.00000000E+00  0.00000000E+00
  0.00000000E+00 -1.51303097E-01  0.00000000E+00  0.00000000E+00 -6.47673578E-01
  0.00000000E+00  0.00000000E+00 -1.99235458E+00  0.00000000E+00  0.00000000E+00
  0.00000000E+00  1.27403066E-01  0.00000000E+00  0.00000000E+00  0.00000000E+00
  0.00000000E+00  1.26809473E+00  0.00000000E+00  0.00000000E+00  0.00000000E+00
  0.00000000E+00  0.00000000E+00  0.00000000E+00  0.00000000E+00  0.00000000E+00
  0.00000000E+00  0.00000000E+00  0.00000000E+00  0.00000000E+00  0.00000000E+00
  0.00000000E+00  0.00000000E+00  0.00000000E+00  0.00000000E+00  0.00000000E+00
  0.00000000E+00  0.00000000E+00  0.00000000E+00  0.00000000E+00  0.00000000E+00
 -7.10716217E-02  0.00000000E+00  0.00000000E+00  0.00000000E+00  0.00000000E+00
 -1.79467141E-02  0.00000000E+00  0.00000000E+00  0.00000000E+00  0.00000000E+00
  0.00000000E+00 -7.02018147E-02 -7.39174280E-02 -2.26535889E-02 -2.71635837E-03
  0.00000000E+00  0.00000000E+00 -7.92776055E-02  0.00000000E+00  0.00000000E+00
 -2.52951520E-02  0.00000000E+00  0.00000000E+00  2.90580139E-02  1.15161815E-02
  0.00000000E+00  0.00000000E+00  7.10716217E-02  0.00000000E+00  7.62098961E-02
  0.00000000E+00  0.00000000E+00  1.79467141E-02  0.00000000E+00  0.00000000E+00
  0.00000000E+00  0.00000000E+00  0.00000000E+00  0.00000000E+00  0.00000000E+00
  0.00000000E+00  0.00000000E+00  0.00000000E+00  0.00000000E+00  0.00000000E+00
  1.60131870E-01  0.00000000E+00  0.00000000E+00  1.22196621E-01  0.00000000E+00
  0.00000000E+00  4.98598744E-02  0.00000000E+00  0.00000000E+00  0.00000000E+00
  1.33012617E-01  0.00000000E+00  0.00000000E+00  0.00000000E+00  0.00000000E+00
  8.22088330E-02  0.00000000E+00  0.00000000E+00  0.00000000E+00  0.00000000E+00
  0.00000000E+00  0.00000000E+00  0.00000000E+00  1.77683014E-01  0.00000000E+00
  0.00000000E+00  0.00000000E+00  0.00000000E+00  0.00000000E+00  0.00000000E+00
  0.00000000E+00  0.00000000E+00  0.00000000E+00  0.00000000E+00  0.00000000E+00
  0.00000000E+00  0.00000000E+00  0.00000000E+00  0.00000000E+00  0.00000000E+00
  0.00000000E+00  0.00000000E+00 -3.07318842E-01  0.00000000E+00  0.00000000E+00
  0.00000000E+00  0.00000000E+00 -3.01775355E-01  0.00000000E+00  0.00000000E+00
  0.00000000E+00  0.00000000E+00  0.00000000E+00  0.00000000E+00  0.00000000E+00
  0.00000000E+00 -1.68322224E-01 -3.95771965E-01 -2.38413005E-01 -4.21655531E-02
  0.00000000E+00  0.00000000E+00 -2.52951520E-02  0.00000000E+00  0.00000000E+00
  7.85863674E-02  0.00000000E+00  0.00000000E+00  3.37605559E-01  2.29888502E-01
  0.00000000E+00  0.00000000E+00  3.07318842E-01  0.00000000E+00  5.47753808E-01
  0.00000000E+00  0.00000000E+00  3.01775355E-01  0.00000000E+00  0.00000000E+00
  0.00000000E+00  0.00000000E+00  0.00000000E+00  0.00000000E+00  0.00000000E+00
  1.71287901E-01  0.00000000E+00  0.00000000E+00  0.00000000E+00  0.00000000E+00
  0.00000000E+00  0.00000000E+00  0.00000000E+00  5.09552593E-01  0.00000000E+00
  0.00000000E+00  7.78114989E-01  0.00000000E+00  0.00000000E+00  5.57191582E-01
  0.00000000E+00  0.00000000E+00  0.00000000E+00 -1.34712926E-01  0.00000000E+00
  0.00000000E+00  0.00000000E+00  0.00000000E+00  6.21891571E-02  0.00000000E+00
  0.00000000E+00  0.00000000E+00  0.00000000E+00  0.00000000E+00  0.00000000E+00
  0.00000000E+00  1.71287901E-01  0.00000000E+00  0.00000000E+00  6.44329897E-01
  0.00000000E+00  0.00000000E+00  0.00000000E+00  0.00000000E+00  0.00000000E+00
  0.00000000E+00  0.00000000E+00  0.00000000E+00  0.00000000E+00  0.00000000E+00
  0.00000000E+00  0.00000000E+00  0.00000000E+00  0.00000000E+00  0.00000000E+00
  0.00000000E+00  0.00000000E+00  0.00000000E+00 -2.33189107E-01  0.00000000E+00
  0.00000000E+00  0.00000000E+00  0.00000000E+00 -9.91108910E-01  0.00000000E+00
  0.00000000E+00  0.00000000E+00  0.00000000E+00  0.00000000E+00  0.00000000E+00
  0.00000000E+00  0.00000000E+00  0.00000000E+00  0.00000000E+00  0.00000000E+00
 -9.71168904E-02 -5.51051476E-01 -1.01960435E+00 -4.93400751E-01  0.00000000E+00
  0.00000000E+00  2.90580139E-02  0.00000000E+00  0.00000000E+00  3.37605559E-01
  0.00000000E+00  0.00000000E+00  1.72896920E+00  1.55528871E-01  0.00000000E+00
  0.00000000E+00  2.33189107E-01  0.00000000E+00  9.73019660E-01  0.00000000E+00
  0.00000000E+00  9.91108910E-01  0.00000000E+00  0.00000000E+00  0.00000000E+00
  0.00000000E+00  0.00000000E+00  0.00000000E+00  0.00000000E+00  5.91902931E-02
  0.00000000E+00  0.00000000E+00  6.06245580E-01  0.00000000E+00  0.00000000E+00
  0.00000000E+00  0.00000000E+00  0.00000000E+00  0.00000000E+00  0.00000000E+00
  3.16001324E-01  0.00000000E+00  0.00000000E+00  1.17289357E+00  0.00000000E+00
  0.00000000E+00  2.67412238E+00  0.00000000E+00  0.00000000E+00  0.00000000E+00
 -3.52574838E-01  0.00000000E+00  0.00000000E+00  0.00000000E+00  0.00000000E+00
 -1.27179472E+00  0.00000000E+00  0.00000000E+00  0.00000000E+00  0.00000000E+00
  0.00000000E+00  0.00000000E+00  0.00000000E+00  5.91902931E-02  0.00000000E+00
  0.00000000E+00  6.06245580E-01  0.00000000E+00  0.00000000E+00  2.45098039E+00
  0.00000000E+00  0.00000000E+00  0.00000000E+00  0.00000000E+00  0.00000000E+00
  0.00000000E+00 -2.39324465E-01  0.00000000E+00  0.00000000E+00 -9.36904361E-02
  0.00000000E+00  0.00000000E+00 -1.34827716E-02  0.00000000E+00  0.00000000E+00
  0.00000000E+00  2.24857956E-02  0.00000000E+00  0.00000000E+00  0.00000000E+00
  0.00000000E+00  3.60284203E-02  0.00000000E+00  0.00000000E+00  0.00000000E+00
  0.00000000E+00  0.00000000E+00  0.00000000E+00  0.00000000E+00  0.00000000E+00
  0.00000000E+00  0.00000000E+00  0.00000000E+00  0.00000000E+00  0.00000000E+00
  0.00000000E+00  0.00000000E+00  0.00000000E+00  0.00000000E+00  0.00000000E+00
  0.00000000E+00  0.00000000E+00  0.00000000E+00  0.00000000E+00  0.00000000E+00
  0.00000000E+00  0.00000000E+00  0.00000000E+00  0.00000000E+00  0.00000000E+00
  0.00000000E+00  0.00000000E+00  0.00000000E+00  0.00000000E+00  0.00000000E+00
  2.50777694E-01  0.00000000E+00  0.00000000E+00  0.00000000E+00  0.00000000E+00
  1.28308027E-01  0.00000000E+00  0.00000000E+00  0.00000000E+00  0.00000000E+00
  0.00000000E+00  0.00000000E+00  0.00000000E+00  0.00000000E+00  0.00000000E+00
  0.00000000E+00  0.00000000E+00  0.00000000E+00  0.00000000E+00  0.00000000E+00
  0.00000000E+00  2.13616212E-01  3.38615994E-01  2.87016592E-01  1.42517797E-01
  0.00000000E+00  0.00000000E+00  1.22196632E-01  0.00000000E+00  0.00000000E+00
  2.16459120E-01  0.00000000E+00  0.00000000E+00  1.96994308E-01 -1.32447105E-01
  0.00000000E+00  0.00000000E+00 -2.50777694E-01  0.00000000E+00  1.08223735E-01
  0.00000000E+00  0.00000000E+00 -1.28308027E-01  0.00000000E+00  1.86621370E-01
  4.32246747E-01  3.36623363E-01  1.49740957E-01  0.00000000E+00  0.00000000E+00
  0.00000000E+00  0.00000000E+00  0.00000000E+00  0.00000000E+00  0.00000000E+00
  0.00000000E+00  0.00000000E+00  1.36553990E-01  0.00000000E+00  0.00000000E+00
  0.00000000E+00  0.00000000E+00  0.00000000E+00  0.00000000E+00  0.00000000E+00
  9.46052713E-02  0.00000000E+00  0.00000000E+00  1.12809566E-01  0.00000000E+00
  0.00000000E+00  2.25026385E-02  0.00000000E+00  0.00000000E+00  0.00000000E+00
  9.52292875E-02  0.00000000E+00  0.00000000E+00  0.00000000E+00  0.00000000E+00
 -1.68632217E-02  0.00000000E+00  0.00000000E+00  0.00000000E+00  0.00000000E+00
  0.00000000E+00  0.00000000E+00  0.00000000E+00  0.00000000E+00  0.00000000E+00
  0.00000000E+00  0.00000000E+00  0.00000000E+00  0.00000000E+00  0.00000000E+00
  0.00000000E+00  0.00000000E+00  0.00000000E+00 -2.36518448E-01  0.00000000E+00
  0.00000000E+00  0.00000000E+00  0.00000000E+00  0.00000000E+00 -9.46052713E-02
  0.00000000E+00  0.00000000E+00 -1.12809566E-01  0.00000000E+00  0.00000000E+00
 -2.25026385E-02  0.00000000E+00  0.00000000E+00  0.00000000E+00 -9.52292875E-02
  0.00000000E+00  0.00000000E+00  0.00000000E+00  0.00000000E+00  1.68632217E-02
  0.00000000E+00  0.00000000E+00  0.00000000E+00  0.00000000E+00  0.00000000E+00
  0.00000000E+00  0.00000000E+00  0.00000000E+00  0.00000000E+00  0.00000000E+00
  0.00000000E+00  0.00000000E+00  0.00000000E+00  0.00000000E+00  0.00000000E+00
  0.00000000E+00  0.00000000E+00  2.36518448E-01  0.00000000E+00  0.00000000E+00
  0.00000000E+00  0.00000000E+00  0.00000000E+00  0.00000000E+00  0.00000000E+00
  0.00000000E+00 -3.56359682E-01  0.00000000E+00  0.00000000E+00 -5.46789514E-01
  0.00000000E+00  0.00000000E+00 -2.65949350E-01  0.00000000E+00  0.00000000E+00
  0.00000000E+00  4.91225542E-01  0.00000000E+00  0.00000000E+00  0.00000000E+00
  0.00000000E+00  7.97328669E-01  0.00000000E+00  0.00000000E+00  0.00000000E+00
  0.00000000E+00  0.00000000E+00  0.00000000E+00  0.00000000E+00  0.00000000E+00
  0.00000000E+00  0.00000000E+00  0.00000000E+00  0.00000000E+00  0.00000000E+00
  0.00000000E+00  0.00000000E+00  0.00000000E+00  0.00000000E+00  9.43226723E-02
  0.00000000E+00  0.00000000E+00  0.00000000E+00  0.00000000E+00  0.00000000E+00
  0.00000000E+00  0.00000000E+00  0.00000000E+00  0.00000000E+00  0.00000000E+00
  0.00000000E+00  0.00000000E+00  0.00000000E+00  0.00000000E+00  0.00000000E+00
  0.00000000E+00  0.00000000E+00  0.00000000E+00  0.00000000E+00  0.00000000E+00
  4.93774798E-01  0.00000000E+00  0.00000000E+00  0.00000000E+00  0.00000000E+00
  1.18619686E+00  0.00000000E+00  0.00000000E+00  0.00000000E+00  0.00000000E+00
  0.00000000E+00  0.00000000E+00  0.00000000E+00  0.00000000E+00  0.00000000E+00
  0.00000000E+00  0.00000000E+00  0.00000000E+00  0.00000000E+00  0.00000000E+00
  0.00000000E+00  0.00000000E+00  0.00000000E+00  1.63371661E-01  0.00000000E+00
  0.00000000E+00  2.37161839E-01  9.82823712E-01  1.69868540E+00  1.41730858E+00
  0.00000000E+00  0.00000000E+00 -9.61059840E-02  0.00000000E+00  0.00000000E+00
 -3.45186716E-01  0.00000000E+00  0.00000000E+00  2.96898332E-01 -3.13780942E-01
  0.00000000E+00  0.00000000E+00 -4.93774798E-01  0.00000000E+00 -3.64561058E-01
  0.00000000E+00  0.00000000E+00 -1.18619686E+00  0.00000000E+00  7.11458243E-02
  7.42108557E-01  1.75593236E+00  1.47280833E+00  0.00000000E+00  0.00000000E+00
  0.00000000E+00  0.00000000E+00  0.00000000E+00  0.00000000E+00  0.00000000E+00
  0.00000000E+00  0.00000000E+00  9.43226723E-02  0.00000000E+00  0.00000000E+00
 -1.63371661E-01  0.00000000E+00  5.84362621E-01  0.00000000E+00  0.00000000E+00
  0.00000000E+00  0.00000000E+00  0.00000000E+00  0.00000000E+00  0.00000000E+00
  1.02230877E-01  0.00000000E+00  0.00000000E+00  4.74043878E-01  0.00000000E+00
  0.00000000E+00  4.09283841E-01  0.00000000E+00  0.00000000E+00  0.00000000E+00
 -1.68632217E-02  0.00000000E+00  0.00000000E+00  0.00000000E+00  0.00000000E+00
 -3.74787745E-01  0.00000000E+00  0.00000000E+00  0.00000000E+00  0.00000000E+00
  0.00000000E+00  0.00000000E+00  0.00000000E+00  0.00000000E+00  0.00000000E+00
  0.00000000E+00  0.00000000E+00  0.00000000E+00  0.00000000E+00  0.00000000E+00
  0.00000000E+00  0.00000000E+00  0.00000000E+00 -1.63371661E-01  0.00000000E+00
  0.00000000E+00  0.00000000E+00  0.00000000E+00 -1.01214575E+00  0.00000000E+00
  0.00000000E+00  0.00000000E+00  0.00000000E+00  0.00000000E+00 -1.02230877E-01
  0.00000000E+00  0.00000000E+00 -4.74043878E-01  0.00000000E+00  0.00000000E+00
 -4.09283841E-01  0.00000000E+00  0.00000000E+00  0.00000000E+00  1.68632217E-02
  0.00000000E+00  0.00000000E+00  0.00000000E+00  0.00000000E+00  3.74787745E-01
  0.00000000E+00  0.00000000E+00  0.00000000E+00  0.00000000E+00  0.00000000E+00
  0.00000000E+00  0.00000000E+00  0.00000000E+00  0.00000000E+00  0.00000000E+00
  0.00000000E+00  0.00000000E+00  0.00000000E+00  0.00000000E+00  0.00000000E+00
  0.00000000E+00  0.00000000E+00  1.63371661E-01  0.00000000E+00  0.00000000E+00
  0.00000000E+00  0.00000000E+00  1.01214575E+00  0.00000000E+00  0.00000000E+00
  0.00000000E+00  0.00000000E+00  0.00000000E+00  0.00000000E+00  0.00000000E+00
  0.00000000E+00  1.90033440E-06  0.00000000E+00  0.00000000E+00  2.54909734E-03
  0.00000000E+00  0.00000000E+00  4.00201879E-02  0.00000000E+00  0.00000000E+00
  0.00000000E+00  7.27299491E-05  0.00000000E+00  0.00000000E+00  0.00000000E+00
  0.00000000E+00  3.86708016E-02  0.00000000E+00  0.00000000E+00  0.00000000E+00
  0.00000000E+00  0.00000000E+00  0.00000000E+00  0.00000000E+00  3.41305156E-03
  0.00000000E+00  0.00000000E+00  6.07946227E-02  0.00000000E+00  0.00000000E+00
  1.09425292E-01  0.00000000E+00  0.00000000E+00  0.00000000E+00  2.55321325E-02
  0.00000000E+00  0.00000000E+00  0.00000000E+00  0.00000000E+00  2.34542399E-01
  0.00000000E+00  0.00000000E+00  0.00000000E+00  0.00000000E+00  0.00000000E+00
  0.00000000E+00  0.00000000E+00  0.00000000E+00 -2.59326861E-03  0.00000000E+00
  0.00000000E+00  1.73242239E-02  0.00000000E+00  0.00000000E+00  2.57903206E-01
  0.00000000E+00  0.00000000E+00  0.00000000E+00 -1.17663268E-03  0.00000000E+00
  0.00000000E+00  0.00000000E+00  0.00000000E+00  2.15755936E-01  0.00000000E+00
  0.00000000E+00  0.00000000E+00  0.00000000E+00  0.00000000E+00  0.00000000E+00
  0.00000000E+00  3.13219765E-02  0.00000000E+00  0.00000000E+00  2.76801591E-01
  0.00000000E+00  0.00000000E+00  6.81265431E-01  0.00000000E+00  0.00000000E+00
  0.00000000E+00  1.35314145E-01  0.00000000E+00  0.00000000E+00  0.00000000E+00
  0.00000000E+00  9.63649340E-01  0.00000000E+00  0.00000000E+00  0.00000000E+00
  0.00000000E+00  0.00000000E+00  0.00000000E+00  0.00000000E+00  0.00000000E+00
  0.00000000E+00 -5.79020059E-02  0.00000000E+00  0.00000000E+00 -1.20627338E-01
  0.00000000E+00  0.00000000E+00  4.21917222E-01  0.00000000E+00  0.00000000E+00
  0.00000000E+00  3.86260011E-03  0.00000000E+00  0.00000000E+00  0.00000000E+00
  0.00000000E+00  3.89963276E-01  0.00000000E+00  0.00000000E+00  0.00000000E+00
  0.00000000E+00  0.00000000E+00  0.00000000E+00  0.00000000E+00  2.52571152E-02
  0.00000000E+00  0.00000000E+00  2.88855683E-01  0.00000000E+00  0.00000000E+00
  1.46729510E+00  0.00000000E+00  0.00000000E+00  0.00000000E+00  1.84718052E-01
  0.00000000E+00  0.00000000E+00  0.00000000E+00  0.00000000E+00  1.46479204E+00
  0.00000000E+00  0.00000000E+00  0.00000000E+00  0.00000000E+00  0.00000000E+00
  0.00000000E+00  0.00000000E+00  0.00000000E+00  0.00000000E+00  0.00000000E+00
 -9.83074113E-02  0.00000000E+00  0.00000000E+00 -3.87900479E-01  0.00000000E+00
  0.00000000E+00 -7.53159841E-01  0.00000000E+00  0.00000000E+00  0.00000000E+00
  6.80770306E-02  0.00000000E+00  0.00000000E+00  0.00000000E+00  0.00000000E+00
  7.52822997E-01  0.00000000E+00  0.00000000E+00  0.00000000E+00  0.00000000E+00
  0.00000000E+00  0.00000000E+00  0.00000000E+00  4.54643846E-03  0.00000000E+00
  0.00000000E+00  7.10191906E-02  0.00000000E+00  0.00000000E+00  8.47720769E-01
  0.00000000E+00  0.00000000E+00  0.00000000E+00  1.24563925E-01  0.00000000E+00
  0.00000000E+00  0.00000000E+00  0.00000000E+00  1.27595360E+00  0.00000000E+00
  0.00000000E+00  0.00000000E+00  0.00000000E+00  0.00000000E+00  0.00000000E+00
  0.00000000E+00  0.00000000E+00  0.00000000E+00  0.00000000E+00  0.00000000E+00
  0.00000000E+00  0.00000000E+00  0.00000000E+00  0.00000000E+00  0.00000000E+00
  0.00000000E+00  0.00000000E+00  0.00000000E+00  0.00000000E+00  0.00000000E+00
  0.00000000E+00  0.00000000E+00  7.32361325E-06  0.00000000E+00  0.00000000E+00
  0.00000000E+00  0.00000000E+00  6.27499756E-03  0.00000000E+00  0.00000000E+00
  0.00000000E+00  0.00000000E+00  0.00000000E+00  0.00000000E+00  0.00000000E+00
  0.00000000E+00  0.00000000E+00  0.00000000E+00  0.00000000E+00  0.00000000E+00
  0.00000000E+00  0.00000000E+00  0.00000000E+00  0.00000000E+00  0.00000000E+00
  5.74543955E-03  0.00000000E+00  0.00000000E+00  0.00000000E+00  0.00000000E+00
  5.91745321E-02  0.00000000E+00  0.00000000E+00  0.00000000E+00  0.00000000E+00
  0.00000000E+00  3.56498380E-06  7.95910089E-03  1.25114038E-01  1.94658731E-01
  0.00000000E+00  0.00000000E+00  4.88699837E-06  0.00000000E+00  0.00000000E+00
  1.65628846E-02  0.00000000E+00  0.00000000E+00  3.29753141E-01  1.39502949E-04
  0.00000000E+00  0.00000000E+00 -7.32361325E-06  0.00000000E+00  1.65102647E-01
  0.00000000E+00  0.00000000E+00 -6.27499756E-03  0.00000000E+00  4.13388759E-03
  1.35267099E-01  3.46024938E-01  2.53239862E-01  0.00000000E+00  0.00000000E+00
  8.62954443E-03  0.00000000E+00  0.00000000E+00  2.89009371E-01  0.00000000E+00
  0.00000000E+00  6.05658074E-01  4.50769111E-02  0.00000000E+00  0.00000000E+00
 -5.74543955E-03  0.00000000E+00  6.74894307E-01  0.00000000E+00  0.00000000E+00
 -5.91745321E-02  0.00000000E+00  1.16811457E+00  1.32362167E+00  7.85910067E-01
  3.13106446E-01  0.00000000E+00  0.00000000E+00  0.00000000E+00  0.00000000E+00
  0.00000000E+00  0.00000000E+00  0.00000000E+00 -3.80846625E-06  0.00000000E+00
  0.00000000E+00 -3.66781052E-03  0.00000000E+00  0.00000000E+00 -1.25108596E-02
  0.00000000E+00  0.00000000E+00  0.00000000E+00 -1.47809926E-04  0.00000000E+00
  0.00000000E+00  0.00000000E+00  0.00000000E+00 -3.27074912E-02  0.00000000E+00
  0.00000000E+00  0.00000000E+00  0.00000000E+00  0.00000000E+00  0.00000000E+00
  0.00000000E+00 -7.19407590E-03  0.00000000E+00  0.00000000E+00 -5.95296149E-02
  0.00000000E+00  0.00000000E+00 -1.37736993E-02  0.00000000E+00  0.00000000E+00
  0.00000000E+00 -4.71628549E-02  0.00000000E+00  0.00000000E+00  0.00000000E+00
  0.00000000E+00 -8.68612795E-02  0.00000000E+00  0.00000000E+00  0.00000000E+00
  0.00000000E+00  0.00000000E+00  0.00000000E+00  0.00000000E+00  1.77683014E-01
  0.00000000E+00  0.00000000E+00  0.00000000E+00  0.00000000E+00  0.00000000E+00
  0.00000000E+00  0.00000000E+00  0.00000000E+00  0.00000000E+00  0.00000000E+00
  0.00000000E+00  0.00000000E+00  0.00000000E+00  0.00000000E+00  0.00000000E+00
  0.00000000E+00  0.00000000E+00  0.00000000E+00 -9.68020254E-04  0.00000000E+00
  0.00000000E+00  0.00000000E+00  0.00000000E+00  5.51518100E-02  0.00000000E+00
  0.00000000E+00  0.00000000E+00  0.00000000E+00  0.00000000E+00  0.00000000E+00
  0.00000000E+00  0.00000000E+00  0.00000000E+00  0.00000000E+00  0.00000000E+00
  0.00000000E+00  0.00000000E+00  0.00000000E+00  0.00000000E+00  0.00000000E+00
  0.00000000E+00  4.28039145E-02  0.00000000E+00  0.00000000E+00  0.00000000E+00
  0.00000000E+00  3.85188520E-01  0.00000000E+00  0.00000000E+00  0.00000000E+00
  0.00000000E+00  0.00000000E+00  0.00000000E+00  0.00000000E+00  0.00000000E+00
 -5.73039357E-04  3.04432425E-02  4.10427110E-01  8.27079753E-01  0.00000000E+00
  0.00000000E+00 -5.32182924E-04  0.00000000E+00  0.00000000E+00  6.24864563E-02
  0.00000000E+00  0.00000000E+00  1.03102569E+00  2.57581101E-03  0.00000000E+00
  0.00000000E+00  9.68020254E-04  0.00000000E+00  3.85128697E-01  0.00000000E+00
  0.00000000E+00 -5.51518100E-02  0.00000000E+00  2.00333330E-02  3.29647076E-01
  1.09129508E+00  1.09087276E+00  0.00000000E+00  0.00000000E+00  3.65849029E-02
  0.00000000E+00  0.00000000E+00  5.69351255E-01  0.00000000E+00  0.00000000E+00
  1.87205141E+00  6.50556987E-02  0.00000000E+00  0.00000000E+00 -4.28039145E-02
  0.00000000E+00  1.04852273E+00  0.00000000E+00  0.00000000E+00 -3.85188520E-01
  0.00000000E+00  7.97628256E-01  2.42865398E+00  2.60754241E+00  1.39913710E+00
  0.00000000E+00  0.00000000E+00  1.71287901E-01  0.00000000E+00  0.00000000E+00
  0.00000000E+00  0.00000000E+00  0.00000000E+00  0.00000000E+00  0.00000000E+00
  5.19219377E-03  0.00000000E+00  0.00000000E+00 -2.37146830E-02  0.00000000E+00
  0.00000000E+00 -9.30014063E-02  0.00000000E+00  0.00000000E+00  0.00000000E+00
  2.80349803E-03  0.00000000E+00  0.00000000E+00  0.00000000E+00  0.00000000E+00
 -2.00088104E-01  0.00000000E+00  0.00000000E+00  0.00000000E+00  0.00000000E+00
  0.00000000E+00  0.00000000E+00  0.00000000E+00 -5.95296149E-02  0.00000000E+00
  0.00000000E+00 -2.87482588E-01  0.00000000E+00  0.00000000E+00 -8.55072939E-02
  0.00000000E+00  0.00000000E+00  0.00000000E+00 -2.21357435E-01  0.00000000E+00
  0.00000000E+00  0.00000000E+00  0.00000000E+00 -3.85745061E-01  0.00000000E+00
  0.00000000E+00  0.00000000E+00  0.00000000E+00  0.00000000E+00  0.00000000E+00
  0.00000000E+00  1.71287901E-01  0.00000000E+00  0.00000000E+00  6.44329897E-01
  0.00000000E+00  0.00000000E+00  0.00000000E+00  0.00000000E+00  0.00000000E+00
  0.00000000E+00  0.00000000E+00  0.00000000E+00  0.00000000E+00  0.00000000E+00
  0.00000000E+00  0.00000000E+00  0.00000000E+00  0.00000000E+00  0.00000000E+00
  0.00000000E+00  0.00000000E+00  0.00000000E+00 -4.30159442E-02  0.00000000E+00
  0.00000000E+00  0.00000000E+00  0.00000000E+00 -6.36575928E-02  0.00000000E+00
  0.00000000E+00  0.00000000E+00  0.00000000E+00  0.00000000E+00  0.00000000E+00
  0.00000000E+00  0.00000000E+00  0.00000000E+00  0.00000000E+00  0.00000000E+00
  0.00000000E+00  0.00000000E+00  0.00000000E+00  0.00000000E+00  0.00000000E+00
  0.00000000E+00  2.54785855E-02  0.00000000E+00  0.00000000E+00  0.00000000E+00
  0.00000000E+00  5.22172266E-01  0.00000000E+00  0.00000000E+00  0.00000000E+00
  0.00000000E+00  0.00000000E+00  0.00000000E+00  0.00000000E+00  0.00000000E+00
  0.00000000E+00  0.00000000E+00  0.00000000E+00 -1.80829122E-02 -6.31729444E-02
  4.12919408E-01  2.42577844E+00  0.00000000E+00  0.00000000E+00 -9.16100630E-05
  0.00000000E+00  0.00000000E+00  7.17968089E-02  0.00000000E+00  0.00000000E+00
  1.54600530E+00  3.40366894E-02  0.00000000E+00  0.00000000E+00  4.30159442E-02
  0.00000000E+00  4.34751967E-01  0.00000000E+00  0.00000000E+00  6.36575928E-02
  0.00000000E+00  9.48356157E-03  2.13287520E-01  1.45729406E+00  3.42310049E+00
  0.00000000E+00  0.00000000E+00  3.11318024E-02  0.00000000E+00  0.00000000E+00
  4.29108655E-01  0.00000000E+00  0.00000000E+00  2.95715129E+00  1.67791596E-02
  0.00000000E+00  0.00000000E+00 -2.54785855E-02  0.00000000E+00  4.42300134E-01
  0.00000000E+00  0.00000000E+00 -5.22172266E-01  0.00000000E+00  2.48086202E-01
  1.64405223E+00  4.36704308E+00  5.00494676E+00  0.00000000E+00  0.00000000E+00
  5.91902931E-02  0.00000000E+00  0.00000000E+00  6.06245580E-01  0.00000000E+00
  0.00000000E+00  0.00000000E+00  0.00000000E+00  0.00000000E+00  0.00000000E+00
  0.00000000E+00  1.58440551E-01  0.00000000E+00  0.00000000E+00  4.04146209E-01
  0.00000000E+00  0.00000000E+00  4.05436663E-01  0.00000000E+00  0.00000000E+00
  0.00000000E+00 -3.83834198E-02  0.00000000E+00  0.00000000E+00  0.00000000E+00
  0.00000000E+00 -4.36374464E-01  0.00000000E+00  0.00000000E+00  0.00000000E+00
  0.00000000E+00  0.00000000E+00  0.00000000E+00  0.00000000E+00 -1.37736993E-02
  0.00000000E+00  0.00000000E+00 -8.55072939E-02  0.00000000E+00  0.00000000E+00
  3.30158475E-01  0.00000000E+00  0.00000000E+00  0.00000000E+00 -2.50208626E-01
  0.00000000E+00  0.00000000E+00  0.00000000E+00  0.00000000E+00 -8.10786029E-01
  0.00000000E+00  0.00000000E+00  0.00000000E+00  0.00000000E+00  0.00000000E+00
  0.00000000E+00  0.00000000E+00  5.91902931E-02  0.00000000E+00  0.00000000E+00
  6.06245580E-01  0.00000000E+00  0.00000000E+00  2.45098039E+00  0.00000000E+00
  0.00000000E+00  0.00000000E+00  0.00000000E+00  0.00000000E+00  0.00000000E+00
  2.41737025E-05  0.00000000E+00  0.00000000E+00  4.15013754E-03  0.00000000E+00
  0.00000000E+00 -5.50541609E-02  0.00000000E+00  0.00000000E+00  0.00000000E+00
  7.75652012E-04  0.00000000E+00  0.00000000E+00  0.00000000E+00  0.00000000E+00
 -1.97513912E-02  0.00000000E+00  0.00000000E+00  0.00000000E+00  0.00000000E+00
  0.00000000E+00  0.00000000E+00  0.00000000E+00  2.22455388E-02  0.00000000E+00
  0.00000000E+00 -6.84605048E-03  0.00000000E+00  0.00000000E+00 -1.60415357E-01
  0.00000000E+00  0.00000000E+00  0.00000000E+00  7.92143457E-02  0.00000000E+00
  0.00000000E+00  0.00000000E+00  0.00000000E+00 -2.82949916E-01  0.00000000E+00
  0.00000000E+00  0.00000000E+00  0.00000000E+00  0.00000000E+00  0.00000000E+00
  0.00000000E+00 -6.57324456E-01  0.00000000E+00  0.00000000E+00 -8.50465740E-01
  0.00000000E+00  0.00000000E+00 -3.46427867E-01  0.00000000E+00  0.00000000E+00
  0.00000000E+00  0.00000000E+00  0.00000000E+00  0.00000000E+00  0.00000000E+00
  0.00000000E+00  0.00000000E+00  0.00000000E+00  0.00000000E+00  0.00000000E+00
  0.00000000E+00  0.00000000E+00  0.00000000E+00  0.00000000E+00  0.00000000E+00
  0.00000000E+00  0.00000000E+00 -8.56037004E-05  0.00000000E+00  0.00000000E+00
  0.00000000E+00  0.00000000E+00 -1.39990513E-02  0.00000000E+00  0.00000000E+00
  0.00000000E+00  0.00000000E+00  0.00000000E+00  0.00000000E+00  0.00000000E+00
  0.00000000E+00  0.00000000E+00  0.00000000E+00  0.00000000E+00  0.00000000E+00
  0.00000000E+00  0.00000000E+00  0.00000000E+00  0.00000000E+00  0.00000000E+00
 -2.74049402E-02  0.00000000E+00  0.00000000E+00  0.00000000E+00  0.00000000E+00
 -7.27423861E-02  0.00000000E+00  0.00000000E+00  0.00000000E+00  0.00000000E+00
  0.00000000E+00  0.00000000E+00  0.00000000E+00  0.00000000E+00  0.00000000E+00
  0.00000000E+00  0.00000000E+00  0.00000000E+00  0.00000000E+00  0.00000000E+00
  0.00000000E+00 -3.94995436E-05 -1.91473356E-02 -6.92052231E-02  4.03138559E-02
  0.00000000E+00  0.00000000E+00 -6.26480688E-05  0.00000000E+00  0.00000000E+00
 -4.18094881E-02  0.00000000E+00  0.00000000E+00 -8.87518292E-02 -1.12925609E-03
  0.00000000E+00  0.00000000E+00  8.56037004E-05  0.00000000E+00 -1.82775673E-01
  0.00000000E+00  0.00000000E+00  1.39990513E-02  0.00000000E+00 -1.85018269E-02
 -1.78280532E-01 -7.54584714E-02  7.57121815E-02  0.00000000E+00  0.00000000E+00
 -3.79337033E-02  0.00000000E+00  0.00000000E+00 -3.28166302E-01  0.00000000E+00
  0.00000000E+00  1.17728971E-01 -1.10858845E-01  0.00000000E+00  0.00000000E+00
  2.74049402E-02  0.00000000E+00 -7.81938771E-02  0.00000000E+00  0.00000000E+00
  7.27423861E-02  0.00000000E+00  1.86621370E-01  4.32246747E-01  3.36623363E-01
  1.49740957E-01  0.00000000E+00  0.00000000E+00  1.13851936E+00  0.00000000E+00
  0.00000000E+00  1.47304987E+00  0.00000000E+00  0.00000000E+00  6.00030667E-01
  1.36553990E-01  0.00000000E+00  0.00000000E+00  0.00000000E+00  0.00000000E+00
  0.00000000E+00  0.00000000E+00  0.00000000E+00 -2.79400295E-06  0.00000000E+00
  0.00000000E+00 -5.18417498E-03  0.00000000E+00  0.00000000E+00 -9.68862202E-02
  0.00000000E+00  0.00000000E+00  0.00000000E+00 -1.19460812E-04  0.00000000E+00
  0.00000000E+00  0.00000000E+00  0.00000000E+00 -8.31019634E-02  0.00000000E+00
  0.00000000E+00  0.00000000E+00  0.00000000E+00  0.00000000E+00  0.00000000E+00
  0.00000000E+00 -4.31622573E-03  0.00000000E+00  0.00000000E+00 -1.16607571E-01
  0.00000000E+00  0.00000000E+00 -2.64028087E-01  0.00000000E+00  0.00000000E+00
  0.00000000E+00 -3.49325331E-02  0.00000000E+00  0.00000000E+00  0.00000000E+00
  0.00000000E+00 -4.90979788E-01  0.00000000E+00  0.00000000E+00  0.00000000E+00
  0.00000000E+00  0.00000000E+00  0.00000000E+00  0.00000000E+00 -1.13851936E+00
  0.00000000E+00  0.00000000E+00 -1.47304987E+00  0.00000000E+00  0.00000000E+00
 -6.00030667E-01  0.00000000E+00  0.00000000E+00  0.00000000E+00 -2.36518448E-01
  0.00000000E+00  0.00000000E+00  0.00000000E+00  0.00000000E+00  0.00000000E+00
  2.79400295E-06  0.00000000E+00  0.00000000E+00  5.18417498E-03  0.00000000E+00
  0.00000000E+00  9.68862202E-02  0.00000000E+00  0.00000000E+00  0.00000000E+00
  1.19460812E-04  0.00000000E+00  0.00000000E+00  0.00000000E+00  0.00000000E+00
  8.31019634E-02  0.00000000E+00  0.00000000E+00  0.00000000E+00  0.00000000E+00
  0.00000000E+00  0.00000000E+00  0.00000000E+00  4.31622573E-03  0.00000000E+00
  0.00000000E+00  1.16607571E-01  0.00000000E+00  0.00000000E+00  2.64028087E-01
  0.00000000E+00  0.00000000E+00  0.00000000E+00  3.49325331E-02  0.00000000E+00
  0.00000000E+00  0.00000000E+00  0.00000000E+00  4.90979788E-01  0.00000000E+00
  0.00000000E+00  0.00000000E+00  0.00000000E+00  0.00000000E+00  0.00000000E+00
  0.00000000E+00  1.13851936E+00  0.00000000E+00  0.00000000E+00  1.47304987E+00
  0.00000000E+00  0.00000000E+00  6.00030667E-01  0.00000000E+00  0.00000000E+00
  0.00000000E+00  2.36518448E-01  0.00000000E+00  0.00000000E+00  0.00000000E+00
  0.00000000E+00  0.00000000E+00  0.00000000E+00  0.00000000E+00  0.00000000E+00
 -6.97881628E-02  0.00000000E+00  0.00000000E+00 -1.01773597E-01  0.00000000E+00
  0.00000000E+00 -4.16516239E-01  0.00000000E+00  0.00000000E+00  0.00000000E+00
 -2.91971704E-02  0.00000000E+00  0.00000000E+00  0.00000000E+00  0.00000000E+00
 -8.75078185E-02  0.00000000E+00  0.00000000E+00  0.00000000E+00  0.00000000E+00
  0.00000000E+00  0.00000000E+00  0.00000000E+00  3.81541951E-02  0.00000000E+00
  0.00000000E+00 -6.04343556E-02  0.00000000E+00  0.00000000E+00 -9.91983560E-01
  0.00000000E+00  0.00000000E+00  0.00000000E+00  2.15870842E-01  0.00000000E+00
  0.00000000E+00  0.00000000E+00  0.00000000E+00 -6.65244978E-01  0.00000000E+00
  0.00000000E+00  0.00000000E+00  0.00000000E+00  0.00000000E+00  0.00000000E+00
  0.00000000E+00 -2.08322618E-01  0.00000000E+00  0.00000000E+00 -1.18733888E+00
  0.00000000E+00  0.00000000E+00 -1.81595170E+00  0.00000000E+00  0.00000000E+00
  0.00000000E+00  9.43226723E-02  0.00000000E+00  0.00000000E+00  0.00000000E+00
  0.00000000E+00  0.00000000E+00  0.00000000E+00  0.00000000E+00  0.00000000E+00
  0.00000000E+00  0.00000000E+00  0.00000000E+00  0.00000000E+00  0.00000000E+00
  0.00000000E+00  0.00000000E+00  0.00000000E+00  0.00000000E+00  0.00000000E+00
  0.00000000E+00  0.00000000E+00  2.98805920E-02  0.00000000E+00  0.00000000E+00
  0.00000000E+00  0.00000000E+00 -4.51846670E-02  0.00000000E+00  0.00000000E+00
  0.00000000E+00  0.00000000E+00  0.00000000E+00  0.00000000E+00  0.00000000E+00
  0.00000000E+00  0.00000000E+00  0.00000000E+00  0.00000000E+00  0.00000000E+00
  0.00000000E+00  0.00000000E+00  0.00000000E+00  0.00000000E+00  0.00000000E+00
 -7.27423861E-02  0.00000000E+00  0.00000000E+00  0.00000000E+00  0.00000000E+00
 -3.59676691E-01  0.00000000E+00  0.00000000E+00  0.00000000E+00  0.00000000E+00
  0.00000000E+00  0.00000000E+00  0.00000000E+00  0.00000000E+00  0.00000000E+00
  0.00000000E+00  0.00000000E+00  0.00000000E+00  0.00000000E+00  0.00000000E+00
  0.00000000E+00  0.00000000E+00  0.00000000E+00  1.63371661E-01  0.00000000E+00
  0.00000000E+00  1.45454139E-02 -3.36994140E-03 -1.67633243E-01  4.70963734E-01
  0.00000000E+00  0.00000000E+00  6.94876486E-03  0.00000000E+00  0.00000000E+00
 -8.87635583E-02  0.00000000E+00  0.00000000E+00 -2.24927850E-01 -2.65901902E-02
  0.00000000E+00  0.00000000E+00 -2.98805920E-02  0.00000000E+00 -3.47236284E-01
  0.00000000E+00  0.00000000E+00  4.51846670E-02  0.00000000E+00 -3.16058303E-02
 -2.96567013E-01 -1.35907502E-01  7.88813557E-01  0.00000000E+00  0.00000000E+00
 -7.25994547E-02  0.00000000E+00  0.00000000E+00 -4.74652711E-01  0.00000000E+00
  0.00000000E+00  5.76469080E-01 -4.39743734E-02  0.00000000E+00  0.00000000E+00
  7.27423861E-02  0.00000000E+00  2.49926110E-01  0.00000000E+00  0.00000000E+00
  3.59676691E-01  0.00000000E+00  7.11458243E-02  7.42108557E-01  1.75593236E+00
  1.47280833E+00  0.00000000E+00  0.00000000E+00  3.60825359E-01  0.00000000E+00
  0.00000000E+00  2.05653127E+00  0.00000000E+00  0.00000000E+00  3.14532060E+00
  9.43226723E-02  0.00000000E+00  0.00000000E+00 -1.63371661E-01  0.00000000E+00
  5.84362621E-01  0.00000000E+00  0.00000000E+00  0.00000000E+00  0.00000000E+00
  0.00000000E+00  0.00000000E+00  0.00000000E+00  2.36587171E-03  0.00000000E+00
  0.00000000E+00 -9.73866135E-03  0.00000000E+00  0.00000000E+00 -4.75045798E-01
  0.00000000E+00  0.00000000E+00  0.00000000E+00  1.56226913E-03  0.00000000E+00
  0.00000000E+00  0.00000000E+00  0.00000000E+00 -2.62760790E-01  0.00000000E+00
  0.00000000E+00  0.00000000E+00  0.00000000E+00  0.00000000E+00  0.00000000E+00
  0.00000000E+00 -1.03881375E-02  0.00000000E+00  0.00000000E+00 -2.45210218E-01
  0.00000000E+00  0.00000000E+00 -1.26447598E+00  0.00000000E+00  0.00000000E+00
  0.00000000E+00 -5.89883394E-02  0.00000000E+00  0.00000000E+00  0.00000000E+00
  0.00000000E+00 -1.12891371E+00  0.00000000E+00  0.00000000E+00  0.00000000E+00
  0.00000000E+00  0.00000000E+00  0.00000000E+00  0.00000000E+00 -3.60825359E-01
  0.00000000E+00  0.00000000E+00 -2.05653127E+00  0.00000000E+00  0.00000000E+00
 -3.14532060E+00  0.00000000E+00  0.00000000E+00  0.00000000E+00 -1.63371661E-01
  0.00000000E+00  0.00000000E+00  0.00000000E+00  0.00000000E+00 -1.01214575E+00
  0.00000000E+00  0.00000000E+00  0.00000000E+00  0.00000000E+00  0.00000000E+00
 -2.36587171E-03  0.00000000E+00  0.00000000E+00  9.73866135E-03  0.00000000E+00
  0.00000000E+00  4.75045798E-01  0.00000000E+00  0.00000000E+00  0.00000000E+00
 -1.56226913E-03  0.00000000E+00  0.00000000E+00  0.00000000E+00  0.00000000E+00
  2.62760790E-01  0.00000000E+00  0.00000000E+00  0.00000000E+00  0.00000000E+00
  0.00000000E+00  0.00000000E+00  0.00000000E+00  1.03881375E-02  0.00000000E+00
  0.00000000E+00  2.45210218E-01  0.00000000E+00  0.00000000E+00  1.26447598E+00
  0.00000000E+00  0.00000000E+00  0.00000000E+00  5.89883394E-02  0.00000000E+00
  0.00000000E+00  0.00000000E+00  0.00000000E+00  1.12891371E+00  0.00000000E+00
  0.00000000E+00  0.00000000E+00  0.00000000E+00  0.00000000E+00  0.00000000E+00
  0.00000000E+00  3.60825359E-01  0.00000000E+00  0.00000000E+00  2.05653127E+00
  0.00000000E+00  0.00000000E+00  3.14532060E+00  0.00000000E+00  0.00000000E+00
  0.00000000E+00  1.63371661E-01  0.00000000E+00  0.00000000E+00  0.00000000E+00
  0.00000000E+00  1.01214575E+00  0.00000000E+00  0.00000000E+00  0.00000000E+00
Multipole Matrix (0,0,2)                   R   N=        2415
  2.28087105E+00  1.70824174E+00  2.87181953E+00  9.25363792E-01  2.58068748E+00
  4.53875219E+00  3.57131130E-01  1.31108366E+00  4.27023479E+00  1.20015481E+01
  0.00000000E+00  0.00000000E+00  0.00000000E+00  0.00000000E+00  2.28216062E+00
  0.00000000E+00  0.00000000E+00  0.00000000E+00  0.00000000E+00  0.00000000E+00
  2.28216062E+00 -1.21081711E+00 -1.37200905E+00 -8.14640430E-01 -3.24552618E-01
  0.00000000E+00  0.00000000E+00  2.63752665E+00  0.00000000E+00  0.00000000E+00
  0.00000000E+00  0.00000000E+00  1.46538077E+00  0.00000000E+00  0.00000000E+00
  2.74880750E+00  0.00000000E+00  0.00000000E+00  0.00000000E+00  0.00000000E+00
  0.00000000E+00  1.46538077E+00  0.00000000E+00  0.00000000E+00  2.74880750E+00
 -8.26786999E-01 -2.51743781E+00 -2.70286583E+00 -1.45028509E+00  0.00000000E+00
  0.00000000E+00  1.80795657E+00  0.00000000E+00  0.00000000E+00  4.03746730E+00
  0.00000000E+00  0.00000000E+00  0.00000000E+00  0.00000000E+00  4.35126396E-01
  0.00000000E+00  0.00000000E+00  1.85655922E+00  0.00000000E+00  0.00000000E+00
  4.55545800E+00  0.00000000E+00  0.00000000E+00  0.00000000E+00  0.00000000E+00
  0.00000000E+00  4.35126396E-01  0.00000000E+00  0.00000000E+00  1.85655922E+00
  0.00000000E+00  0.00000000E+00  4.55545800E+00 -2.57155441E-01 -1.70415353E+00
 -4.52668823E+00 -5.18791164E+00  0.00000000E+00  0.00000000E+00  5.53506982E-01
  0.00000000E+00  0.00000000E+00  3.06905038E+00  0.00000000E+00  0.00000000E+00
  9.45741878E+00  2.15491797E-01  4.99115551E-01  3.88699178E-01  1.72905964E-01
  0.00000000E+00  0.00000000E+00 -1.36270828E+00  0.00000000E+00  0.00000000E+00
 -1.76311211E+00  0.00000000E+00  0.00000000E+00 -7.18184328E-01  2.97171192E+00
  0.00000000E+00  0.00000000E+00  0.00000000E+00  0.00000000E+00 -1.18013999E+00
  0.00000000E+00  0.00000000E+00 -1.52689987E+00  0.00000000E+00  0.00000000E+00
 -6.21965873E-01  0.00000000E+00  0.00000000E+00  0.00000000E+00  2.81403295E+00
  0.00000000E+00  0.00000000E+00  0.00000000E+00  0.00000000E+00  0.00000000E+00
 -1.18013999E+00  0.00000000E+00  0.00000000E+00 -1.52689987E+00  0.00000000E+00
  0.00000000E+00 -6.21965873E-01  0.00000000E+00  0.00000000E+00  0.00000000E+00
  2.81403295E+00 -3.69710687E-17 -7.97403779E-17 -4.02418901E-18 -1.95403107E-17
  0.00000000E+00  0.00000000E+00 -3.32346416E-17  0.00000000E+00  0.00000000E+00
 -5.82142806E-18  0.00000000E+00  0.00000000E+00 -1.35280101E-17 -5.15343101E-20
  0.00000000E+00  0.00000000E+00  2.34099605E+00  0.00000000E+00  0.00000000E+00
  0.00000000E+00  0.00000000E+00  0.00000000E+00  0.00000000E+00  0.00000000E+00
  0.00000000E+00  0.00000000E+00  0.00000000E+00  0.00000000E+00  0.00000000E+00
  0.00000000E+00  0.00000000E+00  0.00000000E+00  0.00000000E+00  0.00000000E+00
  2.34099605E+00  8.21521216E-02  8.56913150E-01  2.02757604E+00  1.70065257E+00
  0.00000000E+00  0.00000000E+00 -4.31876456E-01  0.00000000E+00  0.00000000E+00
 -2.46148840E+00  0.00000000E+00  0.00000000E+00 -3.76467418E+00  1.49569112E+00
  0.00000000E+00  0.00000000E+00  2.51643611E-17  0.00000000E+00  5.81567868E+00
  0.00000000E+00  0.00000000E+00  0.00000000E+00  0.00000000E+00 -3.74015982E-01
  0.00000000E+00  0.00000000E+00 -2.13171149E+00  0.00000000E+00  0.00000000E+00
 -3.26030348E+00  0.00000000E+00  0.00000000E+00  0.00000000E+00  1.38677668E+00
  0.00000000E+00  0.00000000E+00  0.00000000E+00  0.00000000E+00  5.14091485E+00
  0.00000000E+00  0.00000000E+00  0.00000000E+00  0.00000000E+00  0.00000000E+00
 -3.74015982E-01  0.00000000E+00  0.00000000E+00 -2.13171149E+00  0.00000000E+00
  0.00000000E+00 -3.26030348E+00  0.00000000E+00  0.00000000E+00  0.00000000E+00
  1.38677668E+00  0.00000000E+00  0.00000000E+00  0.00000000E+00  0.00000000E+00
  5.14091485E+00 -4.67185865E-18 -1.82809035E-17  2.16763885E-16  5.67976407E-18
  0.00000000E+00  0.00000000E+00  8.81103215E-18  0.00000000E+00  0.00000000E+00
 -1.06557504E-16  0.00000000E+00  0.00000000E+00  5.58716557E-17  4.87046026E-18
  0.00000000E+00  0.00000000E+00  1.06003336E+00  0.00000000E+00 -1.58087602E-17
  0.00000000E+00  0.00000000E+00  3.11662335E+00  0.00000000E+00  0.00000000E+00
  0.00000000E+00  0.00000000E+00  0.00000000E+00  0.00000000E+00  0.00000000E+00
  0.00000000E+00  0.00000000E+00  0.00000000E+00  0.00000000E+00  0.00000000E+00
  0.00000000E+00  0.00000000E+00  0.00000000E+00  0.00000000E+00  0.00000000E+00
  1.06003336E+00  0.00000000E+00  0.00000000E+00  0.00000000E+00  0.00000000E+00
  3.11662335E+00  1.84906183E-01  1.67894797E-01  1.18131511E-01  5.41035598E-02
  0.00000000E+00  0.00000000E+00  1.27440267E-01  0.00000000E+00  0.00000000E+00
  1.25692586E-01  0.00000000E+00  0.00000000E+00  8.36129152E-02  2.77106068E-02
  0.00000000E+00  0.00000000E+00  1.73603894E-19  0.00000000E+00  9.15790154E-02
  0.00000000E+00  0.00000000E+00  6.58327871E-19  0.00000000E+00  1.76393444E-01
  6.74566643E-01  9.18055368E-01  8.61933759E-01  5.07556163E-01  0.00000000E+00
  0.00000000E+00 -2.09086650E-01  0.00000000E+00  0.00000000E+00 -1.95566592E-01
  0.00000000E+00  0.00000000E+00  2.62416131E-01 -1.13920129E-01  0.00000000E+00
  0.00000000E+00 -5.37038154E-17  0.00000000E+00  2.43668106E-01  0.00000000E+00
  0.00000000E+00 -4.46568817E-18  0.00000000E+00  2.21880681E-01  7.67341928E-01
  6.63292550E-01  1.59532487E+00  2.65715882E+00  2.71533581E+00  0.00000000E+00
  0.00000000E+00 -4.73030706E-01  0.00000000E+00  0.00000000E+00 -1.25517403E+00
  0.00000000E+00  0.00000000E+00 -7.87588684E-01  9.85656115E-02  0.00000000E+00
  0.00000000E+00  1.49393122E-17  0.00000000E+00  8.69310253E-01  0.00000000E+00
  0.00000000E+00  6.64864583E-18  0.00000000E+00  1.39282807E-01  9.20511195E-01
  2.43427459E+00  3.27649530E-01  1.14471982E+00  3.58218320E+00  1.01497956E+01
  0.00000000E+00  0.00000000E+00 -2.84087266E-01  0.00000000E+00  0.00000000E+00
 -1.18853106E+00  0.00000000E+00  0.00000000E+00 -3.32152996E+00  1.31155414E-01
  0.00000000E+00  0.00000000E+00  5.03485062E-18  0.00000000E+00  1.32348916E+00
  0.00000000E+00  0.00000000E+00  3.64166956E-17  0.00000000E+00  5.68664226E-02
  5.29175765E-01  2.77544267E+00  9.89707047E+00  0.00000000E+00  0.00000000E+00
  0.00000000E+00  0.00000000E+00  1.60131870E-01  0.00000000E+00  0.00000000E+00
  1.22196621E-01  0.00000000E+00  0.00000000E+00  4.98598744E-02  0.00000000E+00
  0.00000000E+00  0.00000000E+00  1.33012617E-01  0.00000000E+00  0.00000000E+00
  0.00000000E+00  0.00000000E+00  8.22088330E-02  0.00000000E+00  0.00000000E+00
  0.00000000E+00  0.00000000E+00  0.00000000E+00  0.00000000E+00  0.00000000E+00
  1.77683014E-01  0.00000000E+00  0.00000000E+00  0.00000000E+00  0.00000000E+00
  0.00000000E+00  1.60131870E-01  0.00000000E+00  0.00000000E+00  1.22196621E-01
  0.00000000E+00  0.00000000E+00  4.98598744E-02  0.00000000E+00  0.00000000E+00
  0.00000000E+00  1.33012617E-01  0.00000000E+00  0.00000000E+00  0.00000000E+00
  0.00000000E+00  8.22088330E-02  0.00000000E+00  0.00000000E+00  0.00000000E+00
  0.00000000E+00  0.00000000E+00  0.00000000E+00  0.00000000E+00  1.77683014E-01
 -4.09904426E-01 -2.40810176E-01 -6.86269008E-02 -8.15416850E-03  0.00000000E+00
  0.00000000E+00 -2.33164331E-01  0.00000000E+00  0.00000000E+00 -2.10521555E-02
  0.00000000E+00  0.00000000E+00  9.08294620E-02  2.58811370E-02  0.00000000E+00
  0.00000000E+00 -6.43986565E-18  0.00000000E+00  1.82252200E-01  0.00000000E+00
  0.00000000E+00  9.83117821E-19  0.00000000E+00  0.00000000E+00  0.00000000E+00
  0.00000000E+00  0.00000000E+00  0.00000000E+00  0.00000000E+00  5.33049041E-01
  0.00000000E+00  0.00000000E+00  0.00000000E+00  0.00000000E+00  5.09552593E-01
  0.00000000E+00  0.00000000E+00  7.78114989E-01  0.00000000E+00  0.00000000E+00
  5.57191582E-01  0.00000000E+00  0.00000000E+00  0.00000000E+00 -1.34712926E-01
  0.00000000E+00  0.00000000E+00  0.00000000E+00  0.00000000E+00  6.21891571E-02
  0.00000000E+00  0.00000000E+00  0.00000000E+00  0.00000000E+00  0.00000000E+00
  0.00000000E+00  0.00000000E+00  1.71287901E-01  0.00000000E+00  0.00000000E+00
  6.44329897E-01  0.00000000E+00  0.00000000E+00  0.00000000E+00  0.00000000E+00
  0.00000000E+00  5.09552593E-01  0.00000000E+00  0.00000000E+00  7.78114989E-01
  0.00000000E+00  0.00000000E+00  5.57191582E-01  0.00000000E+00  0.00000000E+00
  0.00000000E+00 -1.34712926E-01  0.00000000E+00  0.00000000E+00  0.00000000E+00
  0.00000000E+00  6.21891571E-02  0.00000000E+00  0.00000000E+00  0.00000000E+00
  0.00000000E+00  0.00000000E+00  0.00000000E+00  0.00000000E+00  1.71287901E-01
  0.00000000E+00  0.00000000E+00  6.44329897E-01 -1.20568102E+00 -1.43502670E+00
 -7.36807967E-01 -1.26770675E-01  0.00000000E+00  0.00000000E+00  6.45170769E-01
  0.00000000E+00  0.00000000E+00  9.99456425E-01  0.00000000E+00  0.00000000E+00
  1.13440706E+00  1.11319422E-01  0.00000000E+00  0.00000000E+00 -5.06970965E-17
  0.00000000E+00  6.68940808E-01  0.00000000E+00  0.00000000E+00 -7.41159786E-18
  0.00000000E+00  0.00000000E+00  0.00000000E+00  0.00000000E+00  0.00000000E+00
  0.00000000E+00  0.00000000E+00  5.13863703E-01  0.00000000E+00  0.00000000E+00
  1.93298969E+00  0.00000000E+00  0.00000000E+00  0.00000000E+00  0.00000000E+00
  3.16001324E-01  0.00000000E+00  0.00000000E+00  1.17289357E+00  0.00000000E+00
  0.00000000E+00  2.67412238E+00  0.00000000E+00  0.00000000E+00  0.00000000E+00
 -3.52574838E-01  0.00000000E+00  0.00000000E+00  0.00000000E+00  0.00000000E+00
 -1.27179472E+00  0.00000000E+00  0.00000000E+00  0.00000000E+00  0.00000000E+00
  0.00000000E+00  0.00000000E+00  0.00000000E+00  5.91902931E-02  0.00000000E+00
  0.00000000E+00  6.06245580E-01  0.00000000E+00  0.00000000E+00  2.45098039E+00
  0.00000000E+00  0.00000000E+00  0.00000000E+00  0.00000000E+00  0.00000000E+00
  3.16001324E-01  0.00000000E+00  0.00000000E+00  1.17289357E+00  0.00000000E+00
  0.00000000E+00  2.67412238E+00  0.00000000E+00  0.00000000E+00  0.00000000E+00
 -3.52574838E-01  0.00000000E+00  0.00000000E+00  0.00000000E+00  0.00000000E+00
 -1.27179472E+00  0.00000000E+00  0.00000000E+00  0.00000000E+00  0.00000000E+00
  0.00000000E+00  0.00000000E+00  0.00000000E+00  5.91902931E-02  0.00000000E+00
  0.00000000E+00  6.06245580E-01  0.00000000E+00  0.00000000E+00  2.45098039E+00
 -7.60758421E-01 -2.22863127E+00 -3.27993356E+00 -1.49061461E+00  0.00000000E+00
  0.00000000E+00  7.82718924E-01  0.00000000E+00  0.00000000E+00  2.77220750E+00
  0.00000000E+00  0.00000000E+00  6.50319564E+00 -4.49463073E-01  0.00000000E+00
  0.00000000E+00 -1.58981779E-17  0.00000000E+00 -1.24054359E+00  0.00000000E+00
  0.00000000E+00  5.66929877E-17  0.00000000E+00  0.00000000E+00  0.00000000E+00
  0.00000000E+00  0.00000000E+00  0.00000000E+00  0.00000000E+00  1.77570879E-01
  0.00000000E+00  0.00000000E+00  1.81873674E+00  0.00000000E+00  0.00000000E+00
  7.35294118E+00  8.37813631E-01  5.49641857E-01  3.49980406E-01  1.65176912E-01
  0.00000000E+00  0.00000000E+00 -3.99418241E-02  0.00000000E+00  0.00000000E+00
  1.24494015E-02  0.00000000E+00  0.00000000E+00  1.63006924E-01 -1.02655445E-01
  0.00000000E+00  0.00000000E+00  1.82886965E-17  0.00000000E+00  2.24452885E-01
  0.00000000E+00  0.00000000E+00  8.40724747E-18  0.00000000E+00  2.15491797E-01
  4.99115551E-01  3.88699178E-01  1.72905964E-01  0.00000000E+00  0.00000000E+00
  0.00000000E+00  0.00000000E+00  0.00000000E+00  0.00000000E+00  0.00000000E+00
  0.00000000E+00  0.00000000E+00  8.67234311E-01  0.00000000E+00  0.00000000E+00
  0.00000000E+00  0.00000000E+00 -6.03732676E-01  0.00000000E+00  0.00000000E+00
 -3.87895727E-01  0.00000000E+00  0.00000000E+00 -6.83581226E-02  0.00000000E+00
  0.00000000E+00  0.00000000E+00 -1.51512035E-01  0.00000000E+00  0.00000000E+00
  0.00000000E+00  0.00000000E+00  9.61294977E-02  0.00000000E+00  0.00000000E+00
  0.00000000E+00  0.00000000E+00  0.00000000E+00  0.00000000E+00  0.00000000E+00
  0.00000000E+00  0.00000000E+00  0.00000000E+00  0.00000000E+00  0.00000000E+00
  0.00000000E+00  0.00000000E+00  0.00000000E+00  0.00000000E+00  0.00000000E+00
  7.09555345E-01  0.00000000E+00  0.00000000E+00  0.00000000E+00  0.00000000E+00
  0.00000000E+00 -6.03732676E-01  0.00000000E+00  0.00000000E+00 -3.87895727E-01
  0.00000000E+00  0.00000000E+00 -6.83581226E-02  0.00000000E+00  0.00000000E+00
  0.00000000E+00 -1.51512035E-01  0.00000000E+00  0.00000000E+00  0.00000000E+00
  0.00000000E+00  9.61294977E-02  0.00000000E+00  0.00000000E+00  0.00000000E+00
  0.00000000E+00  0.00000000E+00  0.00000000E+00  0.00000000E+00  0.00000000E+00
  0.00000000E+00  0.00000000E+00  0.00000000E+00  0.00000000E+00  0.00000000E+00
  0.00000000E+00  0.00000000E+00  0.00000000E+00  0.00000000E+00  7.09555345E-01
 -4.00211974E-18 -7.07905542E-18 -1.00241419E-17 -3.07716357E-18  0.00000000E+00
  0.00000000E+00 -2.61862383E-18  0.00000000E+00  0.00000000E+00 -4.04042627E-18
  0.00000000E+00  0.00000000E+00 -3.36717017E-18 -6.78331601E-18  0.00000000E+00
  0.00000000E+00  2.50777694E-01  0.00000000E+00 -2.78740331E-18  0.00000000E+00
  0.00000000E+00  1.28308027E-01  0.00000000E+00  3.43853382E-18 -3.07026618E-18
  1.14634663E-17  3.05936674E-18  0.00000000E+00  0.00000000E+00  0.00000000E+00
  0.00000000E+00  0.00000000E+00  0.00000000E+00  0.00000000E+00  0.00000000E+00
  0.00000000E+00 -2.96956932E-18  0.00000000E+00  0.00000000E+00  2.36518448E-01
  0.00000000E+00  0.00000000E+00  0.00000000E+00  0.00000000E+00  0.00000000E+00
  0.00000000E+00  0.00000000E+00  0.00000000E+00  0.00000000E+00  0.00000000E+00
  0.00000000E+00  0.00000000E+00  0.00000000E+00  0.00000000E+00  0.00000000E+00
  0.00000000E+00  0.00000000E+00  2.50777694E-01  0.00000000E+00  0.00000000E+00
  0.00000000E+00  0.00000000E+00  1.28308027E-01  0.00000000E+00  0.00000000E+00
  0.00000000E+00  0.00000000E+00  0.00000000E+00  0.00000000E+00  0.00000000E+00
  0.00000000E+00  0.00000000E+00  0.00000000E+00  0.00000000E+00  0.00000000E+00
  0.00000000E+00  0.00000000E+00  0.00000000E+00  0.00000000E+00  0.00000000E+00
  2.36518448E-01  1.10295454E+00  2.07473137E+00  2.30692607E+00  1.66062417E+00
  0.00000000E+00  0.00000000E+00 -1.23491222E+00  0.00000000E+00  0.00000000E+00
 -2.43807837E+00  0.00000000E+00  0.00000000E+00 -9.69167548E-01  8.29738522E-01
  0.00000000E+00  0.00000000E+00 -3.59159807E-18  0.00000000E+00  2.01128341E+00
  0.00000000E+00  0.00000000E+00 -3.48073333E-17  0.00000000E+00  8.21521216E-02
  8.56913150E-01  2.02757604E+00  1.70065257E+00  0.00000000E+00  0.00000000E+00
  0.00000000E+00  0.00000000E+00  0.00000000E+00  0.00000000E+00  0.00000000E+00
  0.00000000E+00  0.00000000E+00  5.99029423E-01  0.00000000E+00  0.00000000E+00
 -3.73488910E-18  0.00000000E+00  3.71120108E+00  0.00000000E+00  0.00000000E+00
  0.00000000E+00  0.00000000E+00 -8.21694829E-01  0.00000000E+00  0.00000000E+00
 -1.89515497E+00  0.00000000E+00  0.00000000E+00 -1.27920547E+00  0.00000000E+00
  0.00000000E+00  0.00000000E+00  8.84554040E-01  0.00000000E+00  0.00000000E+00
  0.00000000E+00  0.00000000E+00  2.13058925E+00  0.00000000E+00  0.00000000E+00
  0.00000000E+00  0.00000000E+00  0.00000000E+00  0.00000000E+00  0.00000000E+00
  0.00000000E+00  0.00000000E+00  0.00000000E+00  0.00000000E+00  0.00000000E+00
  0.00000000E+00  0.00000000E+00  0.00000000E+00  0.00000000E+00  0.00000000E+00
  4.90114982E-01  0.00000000E+00  0.00000000E+00  0.00000000E+00  0.00000000E+00
  3.03643725E+00  0.00000000E+00  0.00000000E+00  0.00000000E+00  0.00000000E+00
  0.00000000E+00 -8.21694829E-01  0.00000000E+00  0.00000000E+00 -1.89515497E+00
  0.00000000E+00  0.00000000E+00 -1.27920547E+00  0.00000000E+00  0.00000000E+00
  0.00000000E+00  8.84554040E-01  0.00000000E+00  0.00000000E+00  0.00000000E+00
  0.00000000E+00  2.13058925E+00  0.00000000E+00  0.00000000E+00  0.00000000E+00
  0.00000000E+00  0.00000000E+00  0.00000000E+00  0.00000000E+00  0.00000000E+00
  0.00000000E+00  0.00000000E+00  0.00000000E+00  0.00000000E+00  0.00000000E+00
  0.00000000E+00  0.00000000E+00  0.00000000E+00  0.00000000E+00  4.90114982E-01
  0.00000000E+00  0.00000000E+00  0.00000000E+00  0.00000000E+00  3.03643725E+00
  5.02702692E-18 -1.51103162E-17 -2.13823622E-17 -5.20356776E-17  0.00000000E+00
  0.00000000E+00  1.06357897E-18  0.00000000E+00  0.00000000E+00 -7.98662654E-18
  0.00000000E+00  0.00000000E+00 -2.42572019E-18 -1.30576079E-17  0.00000000E+00
  0.00000000E+00  4.93774798E-01  0.00000000E+00  9.78233303E-18  0.00000000E+00
  0.00000000E+00  1.18619686E+00  0.00000000E+00  2.81094821E-18  1.49833751E-17
 -2.78285986E-18  5.45854177E-17  0.00000000E+00  0.00000000E+00  0.00000000E+00
  0.00000000E+00  0.00000000E+00  0.00000000E+00  0.00000000E+00  0.00000000E+00
  0.00000000E+00 -7.91269418E-19  0.00000000E+00  0.00000000E+00  1.63371661E-01
  0.00000000E+00  8.62295285E-19  0.00000000E+00  0.00000000E+00  1.01214575E+00
  0.00000000E+00  0.00000000E+00  0.00000000E+00  0.00000000E+00  0.00000000E+00
  0.00000000E+00  0.00000000E+00  0.00000000E+00  0.00000000E+00  0.00000000E+00
  0.00000000E+00  0.00000000E+00  0.00000000E+00  0.00000000E+00  0.00000000E+00
  0.00000000E+00  0.00000000E+00  4.93774798E-01  0.00000000E+00  0.00000000E+00
  0.00000000E+00  0.00000000E+00  1.18619686E+00  0.00000000E+00  0.00000000E+00
  0.00000000E+00  0.00000000E+00  0.00000000E+00  0.00000000E+00  0.00000000E+00
  0.00000000E+00  0.00000000E+00  0.00000000E+00  0.00000000E+00  0.00000000E+00
  0.00000000E+00  0.00000000E+00  0.00000000E+00  0.00000000E+00  0.00000000E+00
  1.63371661E-01  0.00000000E+00  0.00000000E+00  0.00000000E+00  0.00000000E+00
  1.01214575E+00  1.38879224E-05  2.64930332E-02  4.37329354E-01  7.08250604E-01
  0.00000000E+00  0.00000000E+00  2.03656684E-05  0.00000000E+00  0.00000000E+00
  5.60763348E-02  0.00000000E+00  0.00000000E+00  1.18586787E+00  5.49294497E-04
  0.00000000E+00  0.00000000E+00  1.61270031E-21  0.00000000E+00  5.93904687E-01
  0.00000000E+00  0.00000000E+00 -3.87267763E-19  0.00000000E+00  1.72388541E-02
  4.88258762E-01  1.25337052E+00  9.30944008E-01  0.00000000E+00  0.00000000E+00
  3.87911640E-02  0.00000000E+00  0.00000000E+00  1.08695245E+00  0.00000000E+00
  0.00000000E+00  2.29231320E+00  2.04440092E-01  0.00000000E+00  0.00000000E+00
 -4.92108702E-19  0.00000000E+00  2.75377331E+00  0.00000000E+00  0.00000000E+00
  1.00903125E-18  0.00000000E+00  8.01101609E+00  4.32109168E-03  6.44657068E-02
  8.35111011E-01  1.85895659E+00  0.00000000E+00  0.00000000E+00  2.67278333E-03
  0.00000000E+00  0.00000000E+00  1.26824787E-01  0.00000000E+00  0.00000000E+00
  2.25855972E+00  3.73323704E-03  0.00000000E+00  0.00000000E+00  1.45067997E-19
  0.00000000E+00  8.99996504E-01  0.00000000E+00  0.00000000E+00 -2.80335486E-18
  0.00000000E+00  6.31608129E-02  7.60768951E-01  2.43721320E+00  2.52682492E+00
  0.00000000E+00  0.00000000E+00  1.24030220E-01  0.00000000E+00  0.00000000E+00
  1.47537888E+00  0.00000000E+00  0.00000000E+00  4.69245384E+00  3.35529759E-01
  0.00000000E+00  0.00000000E+00  4.23245534E-19  0.00000000E+00  3.55590163E+00
  0.00000000E+00  0.00000000E+00 -1.23866428E-17  0.00000000E+00  5.75535749E+00
  8.60196457E+00  1.10625500E-01  2.60641736E-01  1.14276480E+00  3.81679676E+00
  0.00000000E+00  0.00000000E+00 -4.26841989E-02  0.00000000E+00  0.00000000E+00
  9.00622683E-03  0.00000000E+00  0.00000000E+00  2.41491065E+00 -1.94691148E-02
  0.00000000E+00  0.00000000E+00 -6.44447365E-18  0.00000000E+00  6.60074248E-01
  0.00000000E+00  0.00000000E+00  5.15405434E-18  0.00000000E+00  7.50317835E-02
  6.91841144E-01  2.93788112E+00  5.42602995E+00  0.00000000E+00  0.00000000E+00
  7.85362624E-02  0.00000000E+00  0.00000000E+00  9.63853829E-01  0.00000000E+00
  0.00000000E+00  5.58653130E+00  2.55097169E-01  0.00000000E+00  0.00000000E+00
  1.97281456E-18  0.00000000E+00  2.63389042E+00  0.00000000E+00  0.00000000E+00
  7.85078043E-18  0.00000000E+00  3.06573252E+00  7.10107338E+00  1.02688972E+01
  2.06448758E-01  6.65438710E-01  2.10882994E+00  8.24033042E+00  0.00000000E+00
  0.00000000E+00 -1.62222552E-01  0.00000000E+00  0.00000000E+00 -5.92012966E-01
  0.00000000E+00  0.00000000E+00 -3.61753291E-01  5.23168411E-02  0.00000000E+00
  0.00000000E+00 -1.19860021E-17  0.00000000E+00  6.90796931E-01  0.00000000E+00
  0.00000000E+00 -1.90921883E-17  0.00000000E+00  4.72410927E-02  4.52930829E-01
  2.55284030E+00  1.07387606E+01  0.00000000E+00  0.00000000E+00  1.36710523E-02
  0.00000000E+00  0.00000000E+00  2.14775746E-01  0.00000000E+00  0.00000000E+00
  2.60976253E+00  1.45815000E-01  0.00000000E+00  0.00000000E+00  2.42240508E-18
  0.00000000E+00  1.55258491E+00  0.00000000E+00  0.00000000E+00 -1.23297025E-17
  0.00000000E+00  1.17470235E+00  3.44008976E+00  8.34030689E+00  1.77316931E+01
  0.00000000E+00  0.00000000E+00  0.00000000E+00  0.00000000E+00  1.91872093E-06
  0.00000000E+00  0.00000000E+00  9.65694931E-03  0.00000000E+00  0.00000000E+00
  2.12918152E-01  0.00000000E+00  0.00000000E+00  0.00000000E+00  1.18335826E-04
  0.00000000E+00  0.00000000E+00  0.00000000E+00  0.00000000E+00  1.85449903E-01
  0.00000000E+00  0.00000000E+00  0.00000000E+00  0.00000000E+00  0.00000000E+00
  0.00000000E+00  0.00000000E+00  8.62954443E-03  0.00000000E+00  0.00000000E+00
  2.89009371E-01  0.00000000E+00  0.00000000E+00  6.05658074E-01  0.00000000E+00
  0.00000000E+00  0.00000000E+00  8.95663794E-02  0.00000000E+00  0.00000000E+00
  0.00000000E+00  0.00000000E+00  1.28730029E+00  0.00000000E+00  0.00000000E+00
  0.00000000E+00  0.00000000E+00  0.00000000E+00  0.00000000E+00  0.00000000E+00
  8.01230566E+00  0.00000000E+00  0.00000000E+00  0.00000000E+00  0.00000000E+00
  0.00000000E+00  1.91872093E-06  0.00000000E+00  0.00000000E+00  9.65694931E-03
  0.00000000E+00  0.00000000E+00  2.12918152E-01  0.00000000E+00  0.00000000E+00
  0.00000000E+00  1.18335826E-04  0.00000000E+00  0.00000000E+00  0.00000000E+00
  0.00000000E+00  1.85449903E-01  0.00000000E+00  0.00000000E+00  0.00000000E+00
  0.00000000E+00  0.00000000E+00  0.00000000E+00  0.00000000E+00  8.62954443E-03
  0.00000000E+00  0.00000000E+00  2.89009371E-01  0.00000000E+00  0.00000000E+00
  6.05658074E-01  0.00000000E+00  0.00000000E+00  0.00000000E+00  8.95663794E-02
  0.00000000E+00  0.00000000E+00  0.00000000E+00  0.00000000E+00  1.28730029E+00
  0.00000000E+00  0.00000000E+00  0.00000000E+00  0.00000000E+00  0.00000000E+00
  0.00000000E+00  0.00000000E+00  8.01230566E+00 -3.15393450E-05 -3.13411603E-02
 -3.82964578E-02  2.70115323E-01  0.00000000E+00  0.00000000E+00 -4.57586072E-05
  0.00000000E+00  0.00000000E+00 -7.20478257E-02  0.00000000E+00  0.00000000E+00
  9.47311287E-02 -1.26553464E-03  0.00000000E+00  0.00000000E+00  1.18030381E-21
  0.00000000E+00 -3.18116923E-01  0.00000000E+00  0.00000000E+00 -6.54791540E-19
  0.00000000E+00 -3.63306288E-02 -3.21496090E-01  1.47838162E-01  4.03467415E-01
  0.00000000E+00  0.00000000E+00 -8.50611654E-02  0.00000000E+00  0.00000000E+00
 -6.60926715E-01  0.00000000E+00  0.00000000E+00  8.30664513E-01 -3.56575613E-01
  0.00000000E+00  0.00000000E+00  3.50429331E-19  0.00000000E+00  2.20669889E-01
  0.00000000E+00  0.00000000E+00  2.82794043E-18  0.00000000E+00  2.33622914E+00
  2.64724334E+00  1.57182013E+00  6.26212892E-01  0.00000000E+00  0.00000000E+00
  8.36767168E+00  0.00000000E+00  0.00000000E+00  0.00000000E+00  0.00000000E+00
  1.42188611E-03  0.00000000E+00  0.00000000E+00  3.30608986E-02  0.00000000E+00
  0.00000000E+00  6.47328627E-01  0.00000000E+00  0.00000000E+00  0.00000000E+00
  2.62032807E-03  0.00000000E+00  0.00000000E+00  0.00000000E+00  0.00000000E+00
  4.43703043E-01  0.00000000E+00  0.00000000E+00  0.00000000E+00  0.00000000E+00
  0.00000000E+00  0.00000000E+00  0.00000000E+00  3.65849029E-02  0.00000000E+00
  0.00000000E+00  5.69351255E-01  0.00000000E+00  0.00000000E+00  1.87205141E+00
  0.00000000E+00  0.00000000E+00  0.00000000E+00  1.98287604E-01  0.00000000E+00
  0.00000000E+00  0.00000000E+00  0.00000000E+00  2.58647168E+00  0.00000000E+00
  0.00000000E+00  0.00000000E+00  0.00000000E+00  0.00000000E+00  0.00000000E+00
  0.00000000E+00  4.98898198E+00  0.00000000E+00  0.00000000E+00  8.47895254E+00
  0.00000000E+00  0.00000000E+00  0.00000000E+00  0.00000000E+00  0.00000000E+00
  1.42188611E-03  0.00000000E+00  0.00000000E+00  3.30608986E-02  0.00000000E+00
  0.00000000E+00  6.47328627E-01  0.00000000E+00  0.00000000E+00  0.00000000E+00
  2.62032807E-03  0.00000000E+00  0.00000000E+00  0.00000000E+00  0.00000000E+00
  4.43703043E-01  0.00000000E+00  0.00000000E+00  0.00000000E+00  0.00000000E+00
  0.00000000E+00  0.00000000E+00  0.00000000E+00  3.65849029E-02  0.00000000E+00
  0.00000000E+00  5.69351255E-01  0.00000000E+00  0.00000000E+00  1.87205141E+00
  0.00000000E+00  0.00000000E+00  0.00000000E+00  1.98287604E-01  0.00000000E+00
  0.00000000E+00  0.00000000E+00  0.00000000E+00  2.58647168E+00  0.00000000E+00
  0.00000000E+00  0.00000000E+00  0.00000000E+00  0.00000000E+00  0.00000000E+00
  0.00000000E+00  4.98898198E+00  0.00000000E+00  0.00000000E+00  8.47895254E+00
 -8.64286401E-03 -8.02731532E-02 -5.44427878E-02  1.11865062E+00  0.00000000E+00
  0.00000000E+00 -6.28830129E-03  0.00000000E+00  0.00000000E+00 -1.59835991E-01
  0.00000000E+00  0.00000000E+00  3.52941413E-01 -8.21459414E-03  0.00000000E+00
  0.00000000E+00 -2.90175206E-19  0.00000000E+00 -4.89228789E-01  0.00000000E+00
  0.00000000E+00  2.15646081E-18  0.00000000E+00 -1.12078809E-01 -5.32259863E-01
  5.05136953E-01  1.70534488E+00  0.00000000E+00  0.00000000E+00 -2.15268616E-01
  0.00000000E+00  0.00000000E+00 -8.79513144E-01  0.00000000E+00  0.00000000E+00
  2.43197092E+00 -4.55075075E-01  0.00000000E+00  0.00000000E+00  1.54014512E-19
  0.00000000E+00  6.62022092E-01  0.00000000E+00  0.00000000E+00  1.01919175E-17
  0.00000000E+00  1.59525651E+00  4.85730795E+00  5.21508481E+00  2.79827420E+00
  0.00000000E+00  0.00000000E+00  5.33155778E+00  0.00000000E+00  0.00000000E+00
  9.76761233E+00  0.00000000E+00  0.00000000E+00  0.00000000E+00  0.00000000E+00
  5.40248124E-02  0.00000000E+00  0.00000000E+00  1.85247357E-01  0.00000000E+00
  0.00000000E+00  1.15666163E+00  0.00000000E+00  0.00000000E+00  0.00000000E+00
 -3.09376136E-02  0.00000000E+00  0.00000000E+00  0.00000000E+00  0.00000000E+00
  2.63149267E-01  0.00000000E+00  0.00000000E+00  0.00000000E+00  0.00000000E+00
  0.00000000E+00  0.00000000E+00  0.00000000E+00  3.11318024E-02  0.00000000E+00
  0.00000000E+00  4.29108655E-01  0.00000000E+00  0.00000000E+00  2.95715129E+00
  0.00000000E+00  0.00000000E+00  0.00000000E+00  8.00195279E-02  0.00000000E+00
  0.00000000E+00  0.00000000E+00  0.00000000E+00  1.81043084E+00  0.00000000E+00
  0.00000000E+00  0.00000000E+00  0.00000000E+00  0.00000000E+00  0.00000000E+00
  0.00000000E+00  1.45873833E+00  0.00000000E+00  0.00000000E+00  5.26095682E+00
  0.00000000E+00  0.00000000E+00  1.02856030E+01  0.00000000E+00  0.00000000E+00
  0.00000000E+00  0.00000000E+00  0.00000000E+00  5.40248124E-02  0.00000000E+00
  0.00000000E+00  1.85247357E-01  0.00000000E+00  0.00000000E+00  1.15666163E+00
  0.00000000E+00  0.00000000E+00  0.00000000E+00 -3.09376136E-02  0.00000000E+00
  0.00000000E+00  0.00000000E+00  0.00000000E+00  2.63149267E-01  0.00000000E+00
  0.00000000E+00  0.00000000E+00  0.00000000E+00  0.00000000E+00  0.00000000E+00
  0.00000000E+00  3.11318024E-02  0.00000000E+00  0.00000000E+00  4.29108655E-01
  0.00000000E+00  0.00000000E+00  2.95715129E+00  0.00000000E+00  0.00000000E+00
  0.00000000E+00  8.00195279E-02  0.00000000E+00  0.00000000E+00  0.00000000E+00
  0.00000000E+00  1.81043084E+00  0.00000000E+00  0.00000000E+00  0.00000000E+00
  0.00000000E+00  0.00000000E+00  0.00000000E+00  0.00000000E+00  1.45873833E+00
  0.00000000E+00  0.00000000E+00  5.26095682E+00  0.00000000E+00  0.00000000E+00
  1.02856030E+01 -3.16320376E-01 -6.70277105E-01 -7.34647217E-01  2.78672942E+00
  0.00000000E+00  0.00000000E+00  1.63886425E-01  0.00000000E+00  0.00000000E+00
  3.14744779E-01  0.00000000E+00  0.00000000E+00  9.77378541E-01  3.07905565E-02
  0.00000000E+00  0.00000000E+00  1.24838941E-17  0.00000000E+00 -1.64247120E-01
  0.00000000E+00  0.00000000E+00 -3.65672474E-17  0.00000000E+00 -1.04393558E-01
 -5.14301932E-01  2.78741014E-01  4.91253147E+00  0.00000000E+00  0.00000000E+00
 -3.67383976E-02  0.00000000E+00  0.00000000E+00 -7.07218558E-02  0.00000000E+00
  0.00000000E+00  3.88130828E+00 -2.59719577E-01  0.00000000E+00  0.00000000E+00
  7.12909552E-18  0.00000000E+00  2.53601594E-01  0.00000000E+00  0.00000000E+00
 -1.27420175E-17  0.00000000E+00  4.96172404E-01  3.28810445E+00  8.73408615E+00
  1.00098935E+01  0.00000000E+00  0.00000000E+00  1.57711892E+00  0.00000000E+00
  0.00000000E+00  6.47344798E+00  0.00000000E+00  0.00000000E+00  1.51875638E+01
  1.63344350E-04  2.67946073E-02 -5.94386250E-02  2.14273906E-03  0.00000000E+00
  0.00000000E+00  2.83550892E-04  0.00000000E+00  0.00000000E+00  6.67808875E-02
  0.00000000E+00  0.00000000E+00 -1.75815397E-01  4.41277255E-03  0.00000000E+00
  0.00000000E+00  7.10828891E-23  0.00000000E+00  4.09732489E-02  0.00000000E+00
  0.00000000E+00  1.75163389E-18  0.00000000E+00  7.25771502E-02  1.00060784E-01
 -1.46840813E-01  4.36391303E-02  0.00000000E+00  0.00000000E+00  1.70650284E-01
  0.00000000E+00  0.00000000E+00  1.20463752E-01  0.00000000E+00  0.00000000E+00
 -1.18601810E-01  4.16236988E-01  0.00000000E+00  0.00000000E+00  5.12639073E-19
  0.00000000E+00 -3.55670426E-01  0.00000000E+00  0.00000000E+00  3.79974964E-17
  0.00000000E+00  2.15491797E-01  4.99115551E-01  3.88699178E-01  1.72905964E-01
  0.00000000E+00  0.00000000E+00  2.62929782E+00  0.00000000E+00  0.00000000E+00
  3.40186296E+00  0.00000000E+00  0.00000000E+00  1.38571147E+00  8.70185695E+00
  0.00000000E+00  0.00000000E+00  0.00000000E+00  0.00000000E+00 -2.50623122E-05
  0.00000000E+00  0.00000000E+00 -2.15443241E-02  0.00000000E+00  0.00000000E+00
 -2.48604119E-02  0.00000000E+00  0.00000000E+00  0.00000000E+00 -8.60855026E-04
  0.00000000E+00  0.00000000E+00  0.00000000E+00  0.00000000E+00 -1.81893826E-01
  0.00000000E+00  0.00000000E+00  0.00000000E+00  0.00000000E+00  0.00000000E+00
  0.00000000E+00  0.00000000E+00 -3.79337033E-02  0.00000000E+00  0.00000000E+00
 -3.28166302E-01  0.00000000E+00  0.00000000E+00  1.17728971E-01  0.00000000E+00
  0.00000000E+00  0.00000000E+00 -2.46823032E-01  0.00000000E+00  0.00000000E+00
  0.00000000E+00  0.00000000E+00 -2.80920540E-01  0.00000000E+00  0.00000000E+00
  0.00000000E+00  0.00000000E+00  0.00000000E+00  0.00000000E+00  0.00000000E+00
  2.27703871E+00  0.00000000E+00  0.00000000E+00  2.94609974E+00  0.00000000E+00
  0.00000000E+00  1.20006133E+00  0.00000000E+00  0.00000000E+00  0.00000000E+00
  8.54417799E+00  0.00000000E+00  0.00000000E+00  0.00000000E+00  0.00000000E+00
  0.00000000E+00 -2.50623122E-05  0.00000000E+00  0.00000000E+00 -2.15443241E-02
  0.00000000E+00  0.00000000E+00 -2.48604119E-02  0.00000000E+00  0.00000000E+00
  0.00000000E+00 -8.60855026E-04  0.00000000E+00  0.00000000E+00  0.00000000E+00
  0.00000000E+00 -1.81893826E-01  0.00000000E+00  0.00000000E+00  0.00000000E+00
  0.00000000E+00  0.00000000E+00  0.00000000E+00  0.00000000E+00 -3.79337033E-02
  0.00000000E+00  0.00000000E+00 -3.28166302E-01  0.00000000E+00  0.00000000E+00
  1.17728971E-01  0.00000000E+00  0.00000000E+00  0.00000000E+00 -2.46823032E-01
  0.00000000E+00  0.00000000E+00  0.00000000E+00  0.00000000E+00 -2.80920540E-01
  0.00000000E+00  0.00000000E+00  0.00000000E+00  0.00000000E+00  0.00000000E+00
  0.00000000E+00  0.00000000E+00  2.27703871E+00  0.00000000E+00  0.00000000E+00
  2.94609974E+00  0.00000000E+00  0.00000000E+00  1.20006133E+00  0.00000000E+00
  0.00000000E+00  0.00000000E+00  8.54417799E+00  4.26316700E-22 -1.60675397E-18
 -1.77516998E-17  3.26487524E-17  0.00000000E+00  0.00000000E+00 -2.18756611E-22
  0.00000000E+00  0.00000000E+00  1.03793394E-18  0.00000000E+00  0.00000000E+00
 -6.48923522E-17  6.61089564E-21  0.00000000E+00  0.00000000E+00  4.94601404E-05
  0.00000000E+00  4.47373188E-17  0.00000000E+00  0.00000000E+00  4.99556321E-02
  0.00000000E+00  5.11822235E-19  2.65241965E-17 -2.99584544E-17  1.85558367E-17
  0.00000000E+00  0.00000000E+00  1.89168324E-19  0.00000000E+00  0.00000000E+00
 -4.28970241E-17  0.00000000E+00  0.00000000E+00  3.35604826E-17 -2.93800300E-18
  0.00000000E+00  0.00000000E+00  3.49325331E-02  0.00000000E+00  2.06217074E-17
  0.00000000E+00  0.00000000E+00  4.90979788E-01  0.00000000E+00 -5.33897550E-17
  3.24011810E-16  4.25653478E-17 -6.46855938E-17  0.00000000E+00  0.00000000E+00
 -3.01498509E-17  0.00000000E+00  0.00000000E+00  8.59815829E-17  0.00000000E+00
  0.00000000E+00 -3.96782524E-17  7.39515093E-18  0.00000000E+00  0.00000000E+00
  8.07114109E+00  0.00000000E+00  0.00000000E+00  0.00000000E+00  0.00000000E+00
  0.00000000E+00  0.00000000E+00  0.00000000E+00  0.00000000E+00  0.00000000E+00
  0.00000000E+00  0.00000000E+00  0.00000000E+00  0.00000000E+00  0.00000000E+00
  0.00000000E+00  0.00000000E+00  0.00000000E+00  4.94601404E-05  0.00000000E+00
  0.00000000E+00  0.00000000E+00  0.00000000E+00  4.99556321E-02  0.00000000E+00
  0.00000000E+00  0.00000000E+00  0.00000000E+00  0.00000000E+00  0.00000000E+00
  0.00000000E+00  0.00000000E+00  0.00000000E+00  0.00000000E+00  0.00000000E+00
  0.00000000E+00  0.00000000E+00  0.00000000E+00  0.00000000E+00  0.00000000E+00
  0.00000000E+00  3.49325331E-02  0.00000000E+00  0.00000000E+00  0.00000000E+00
  0.00000000E+00  4.90979788E-01  0.00000000E+00  0.00000000E+00  0.00000000E+00
  0.00000000E+00  0.00000000E+00  0.00000000E+00  0.00000000E+00  0.00000000E+00
  0.00000000E+00  0.00000000E+00  0.00000000E+00  0.00000000E+00  0.00000000E+00
  0.00000000E+00  0.00000000E+00  0.00000000E+00  0.00000000E+00  8.07114109E+00
  1.28743950E-01  1.89133629E-01 -1.34861564E-01  1.60795858E-01  0.00000000E+00
  0.00000000E+00  4.14762307E-03  0.00000000E+00  0.00000000E+00  6.14102149E-02
  0.00000000E+00  0.00000000E+00 -6.30600092E-01 -3.30427258E-02  0.00000000E+00
  0.00000000E+00  2.55857277E-18  0.00000000E+00 -9.12820471E-02  0.00000000E+00
  0.00000000E+00 -1.11186035E-17  0.00000000E+00  1.22299538E-01  1.34573155E-01
 -4.49091854E-01  5.18247170E-01  0.00000000E+00  0.00000000E+00  1.14975128E-01
  0.00000000E+00  0.00000000E+00 -1.24190095E-01  0.00000000E+00  0.00000000E+00
 -4.26190365E-01  2.57120809E-01  0.00000000E+00  0.00000000E+00  1.02419208E-17
  0.00000000E+00 -3.41466340E-01  0.00000000E+00  0.00000000E+00 -1.81588412E-17
  0.00000000E+00  8.21521216E-02  8.56913150E-01  2.02757604E+00  1.70065257E+00
  0.00000000E+00  0.00000000E+00  8.33290473E-01  0.00000000E+00  0.00000000E+00
  4.74935553E+00  0.00000000E+00  0.00000000E+00  7.26380678E+00  3.93715288E+00
  0.00000000E+00  0.00000000E+00  6.57432882E-17  0.00000000E+00  1.15458237E+01
  0.00000000E+00  0.00000000E+00  0.00000000E+00  0.00000000E+00 -3.83008474E-02
  0.00000000E+00  0.00000000E+00 -1.11988332E-01  0.00000000E+00  0.00000000E+00
 -7.00899630E-02  0.00000000E+00  0.00000000E+00  0.00000000E+00 -9.30238171E-03
  0.00000000E+00  0.00000000E+00  0.00000000E+00  0.00000000E+00 -3.27995279E-01
  0.00000000E+00  0.00000000E+00  0.00000000E+00  0.00000000E+00  0.00000000E+00
  0.00000000E+00  0.00000000E+00 -7.25994547E-02  0.00000000E+00  0.00000000E+00
 -4.74652711E-01  0.00000000E+00  0.00000000E+00  5.76469080E-01  0.00000000E+00
  0.00000000E+00  0.00000000E+00 -2.21650621E-01  0.00000000E+00  0.00000000E+00
  0.00000000E+00  0.00000000E+00 -2.86468660E-01  0.00000000E+00  0.00000000E+00
  0.00000000E+00  0.00000000E+00  0.00000000E+00  0.00000000E+00  0.00000000E+00
  7.21650718E-01  0.00000000E+00  0.00000000E+00  4.11306254E+00  0.00000000E+00
  0.00000000E+00  6.29064120E+00  0.00000000E+00  0.00000000E+00  0.00000000E+00
  3.82823844E+00  0.00000000E+00  0.00000000E+00  0.00000000E+00  0.00000000E+00
  1.08710599E+01  0.00000000E+00  0.00000000E+00  0.00000000E+00  0.00000000E+00
  0.00000000E+00 -3.83008474E-02  0.00000000E+00  0.00000000E+00 -1.11988332E-01
  0.00000000E+00  0.00000000E+00 -7.00899630E-02  0.00000000E+00  0.00000000E+00
  0.00000000E+00 -9.30238171E-03  0.00000000E+00  0.00000000E+00  0.00000000E+00
  0.00000000E+00 -3.27995279E-01  0.00000000E+00  0.00000000E+00  0.00000000E+00
  0.00000000E+00  0.00000000E+00  0.00000000E+00  0.00000000E+00 -7.25994547E-02
  0.00000000E+00  0.00000000E+00 -4.74652711E-01  0.00000000E+00  0.00000000E+00
  5.76469080E-01  0.00000000E+00  0.00000000E+00  0.00000000E+00 -2.21650621E-01
  0.00000000E+00  0.00000000E+00  0.00000000E+00  0.00000000E+00 -2.86468660E-01
  0.00000000E+00  0.00000000E+00  0.00000000E+00  0.00000000E+00  0.00000000E+00
  0.00000000E+00  0.00000000E+00  7.21650718E-01  0.00000000E+00  0.00000000E+00
  4.11306254E+00  0.00000000E+00  0.00000000E+00  6.29064120E+00  0.00000000E+00
  0.00000000E+00  0.00000000E+00  3.82823844E+00  0.00000000E+00  0.00000000E+00
  0.00000000E+00  0.00000000E+00  1.08710599E+01 -4.37161184E-21  3.06997012E-18
  5.29866070E-17  1.27877486E-16  0.00000000E+00  0.00000000E+00  2.82654649E-20
  0.00000000E+00  0.00000000E+00 -1.02149975E-18  0.00000000E+00  0.00000000E+00
  5.89963884E-17 -6.34549319E-20  0.00000000E+00  0.00000000E+00  9.17104292E-03
  0.00000000E+00  2.18684041E-17  0.00000000E+00  0.00000000E+00  1.57640754E-01
  0.00000000E+00 -1.86357952E-19  1.74111537E-17  5.77126302E-17 -1.86958168E-16
  0.00000000E+00  0.00000000E+00 -1.16953311E-18  0.00000000E+00  0.00000000E+00
 -4.15718056E-18  0.00000000E+00  0.00000000E+00  2.15649587E-16 -9.05401792E-19
  0.00000000E+00  0.00000000E+00  5.89883394E-02  0.00000000E+00  6.69611661E-18
  0.00000000E+00  0.00000000E+00  1.12891371E+00  0.00000000E+00  2.29287787E-17
  4.88260982E-17  1.00895784E-16 -5.56299232E-18  0.00000000E+00  0.00000000E+00
  1.94807420E-17  0.00000000E+00  0.00000000E+00 -2.20685365E-17  0.00000000E+00
  0.00000000E+00  4.82984508E-17  4.75582600E-17  0.00000000E+00  0.00000000E+00
  3.50149512E+00  0.00000000E+00  8.08829339E-17  0.00000000E+00  0.00000000E+00
  8.84676839E+00  0.00000000E+00  0.00000000E+00  0.00000000E+00  0.00000000E+00
  0.00000000E+00  0.00000000E+00  0.00000000E+00  0.00000000E+00  0.00000000E+00
  0.00000000E+00  0.00000000E+00  0.00000000E+00  0.00000000E+00  0.00000000E+00
  0.00000000E+00  0.00000000E+00  0.00000000E+00  9.17104292E-03  0.00000000E+00
  0.00000000E+00  0.00000000E+00  0.00000000E+00  1.57640754E-01  0.00000000E+00
  0.00000000E+00  0.00000000E+00  0.00000000E+00  0.00000000E+00  0.00000000E+00
  0.00000000E+00  0.00000000E+00  0.00000000E+00  0.00000000E+00  0.00000000E+00
  0.00000000E+00  0.00000000E+00  0.00000000E+00  0.00000000E+00  0.00000000E+00
  0.00000000E+00  5.89883394E-02  0.00000000E+00  0.00000000E+00  0.00000000E+00
  0.00000000E+00  1.12891371E+00  0.00000000E+00  0.00000000E+00  0.00000000E+00
  0.00000000E+00  0.00000000E+00  0.00000000E+00  0.00000000E+00  0.00000000E+00
  0.00000000E+00  0.00000000E+00  0.00000000E+00  0.00000000E+00  0.00000000E+00
  0.00000000E+00  0.00000000E+00  0.00000000E+00  0.00000000E+00  3.50149512E+00
  0.00000000E+00  0.00000000E+00  0.00000000E+00  0.00000000E+00  8.84676839E+00
Number of independent functions            I               69
Alpha MO coefficients                      R   N=        4761
  1.84892066E-01  3.16438440E-01  3.26584646E-01  1.91632718E-02  4.45123517E-17
 -1.00104004E-16  1.10460578E-02 -5.83891269E-16  9.70340661E-16  2.11550142E-02
  8.88121471E-16  2.04033363E-15  4.73753283E-02  1.20151537E-03 -5.06888796E-17
  3.59001468E-17  2.62255351E-12  1.45148112E-17  9.55301077E-04 -1.59716682E-16
  9.09061509E-16 -4.80605874E-11 -7.75497156E-17  1.89274296E-01  2.65613719E-01
 -6.53641657E-02 -2.75377802E-02 -9.78247010E-17  1.04629094E-16 -1.00919737E-02
  5.56040504E-16 -1.06562008E-15  5.37185726E-03 -1.50542304E-15 -2.47967516E-15
  5.39161242E-02  9.29756014E-04 -6.45959723E-17  9.74242707E-17  1.98032943E-12
 -2.46791208E-17 -1.14470863E-02 -5.54541853E-16  4.32933525E-16 -3.86654347E-11
  3.20857619E-17  2.44330126E-02  4.52926816E-02 -1.49879387E-02  6.38913374E-03
  4.96075147E-17 -7.26891150E-17 -2.09162260E-03 -5.73202325E-17  8.33618699E-17
 -1.18915444E-02  1.41742439E-15  4.65173310E-16  3.48772099E-04  1.26032227E-03
  6.30718844E-18  6.15220039E-17  1.10253934E-12  1.68907985E-17  1.39935452E-03
 -3.43079509E-16 -2.99246822E-16 -1.01004201E-11  4.23642015E-17 -6.02089704E-02
 -1.29522790E-01 -1.14973988E-01  3.92555542E-03 -1.94553686E-17  8.24019829E-17
 -2.25523310E-03 -1.90872785E-16 -1.03424388E-15 -7.22302231E-03 -2.48783855E-15
  6.62766200E-16 -4.63563794E-03 -6.74479838E-04  3.34796735E-17 -5.12441774E-17
 -1.22310537E-12 -2.96228867E-17  1.51302295E-04 -3.22149495E-16 -2.08049163E-16
  2.66532338E-11 -4.41304091E-17 -1.87317262E-02 -1.80790424E-02 -6.01900466E-02
 -1.62307554E-02  4.88391735E-17 -8.83875319E-17  6.67794098E-03 -1.16751909E-16
  6.97456210E-16  5.99039889E-03  3.11785894E-15 -9.65373913E-16 -2.45567089E-02
  1.97016963E-03  6.90122033E-17 -5.22375280E-17  1.12674821E-12  2.77582592E-17
  3.77839632E-03 -2.71590408E-16 -8.59222827E-16 -5.26301816E-12  4.96456578E-18
  2.38129403E-01  5.12929313E-01  4.25639035E-01  1.66265939E-02 -8.90339320E-18
 -1.35653439E-16  1.28330274E-04  5.34970457E-17  4.57419439E-16 -1.07975736E-03
 -1.16547788E-15  4.00982002E-16 -1.31207747E-02  5.99552192E-04 -5.49900167E-17
  6.00580013E-17  5.28957901E-12  3.21259486E-17  1.49469927E-03  3.80396967E-16
 -4.38383672E-16 -1.07573296E-10  4.67159998E-17 -3.65118550E-01 -4.54973602E-01
  3.34143550E-01  2.03931753E-02  2.36511850E-16  1.36085361E-16  3.99381760E-02
 -1.82096557E-15 -2.68356385E-16  1.63880394E-01 -8.68521607E-15 -3.41808630E-15
  1.22562870E-01  3.75754660E-02  1.75495213E-16  7.14623260E-17  7.13001287E-12
  1.79971587E-16  3.19159226E-02 -2.68375633E-15 -1.63136779E-15  5.82859000E-11
 -2.49280844E-16  3.75051706E-01  4.91747658E-01 -2.25794310E-01 -2.24202726E-02
 -3.51818601E-16 -2.67347954E-16  3.52306295E-02  1.44076355E-15  1.52858604E-15
  1.81295672E-01  9.78786729E-15  4.48476396E-15  1.02361120E-01 -3.66562127E-02
  3.82551396E-17  2.31069670E-16 -6.81042182E-12 -7.95687457E-17 -1.58468905E-03
 -1.07626858E-15  1.67108082E-16 -6.23727168E-11  1.19605231E-16 -6.82292672E-02
 -2.00161579E-01 -1.67346158E-01  1.38357279E-03 -9.09907761E-17  5.27814163E-17
 -3.95751776E-03  2.97445886E-16 -5.54728508E-16  3.32767997E-02 -3.07330166E-15
 -1.52710822E-15  3.27269349E-02 -9.39992498E-04  1.49804654E-16 -1.91689044E-16
 -3.49876293E-13 -1.50178207E-16 -2.28055020E-02  6.39901537E-16  5.83017893E-16
  3.05003817E-11  4.78883950E-17 -1.29009728E-02  5.95111193E-01  1.37476309E+01
  2.10204515E+00  1.45747615E-15  1.81747503E-15 -1.25871508E-03  5.22801215E-16
 -8.89051284E-15  2.09733104E-01 -2.17631245E-15 -9.32776293E-15  2.88093958E+00
  5.75314949E-03  6.41488646E-16 -9.59625394E-16  7.42033114E-12  1.33260117E-16
  5.45311432E-02  1.18706798E-15 -3.86920276E-15 -7.41649553E-11  4.14630490E-16
 -2.97025964E-02 -4.67581196E-01 -1.21210490E+01 -4.92949030E-02  1.16260535E-15
 -5.20787107E-16 -6.55293391E-03 -2.95310146E-15  6.43892742E-15  2.40503241E-01
  4.21502318E-15  8.20591306E-15  5.12963991E+00 -8.19108835E-03  1.05452499E-15
 -6.42066623E-16  2.64008205E-12  4.67104880E-17 -1.77666210E-01 -8.95983990E-16
 -6.29455809E-15  2.32353884E-11 -1.45170070E-16 -1.54023530E-01  2.33689063E-01
 -1.66446682E+00 -2.09828623E+00 -1.81950539E-15 -1.10288986E-15  4.28858891E-02
  2.41021389E-15  1.31833651E-15 -3.46254119E-02 -4.88944249E-15  1.75844100E-15
  8.38578423E-01 -1.18266406E-02  1.37858517E-16  1.77244305E-16  6.78279074E-12
  5.82119403E-16 -2.15226293E-02 -2.75529941E-16 -1.55893035E-15  3.96690658E-11
 -2.87489413E-16  5.97192577E-02  3.87650753E-01  3.25274823E+00 -1.01811683E+01
 -3.69024857E-17  1.31409962E-15  3.55273200E-02 -4.88764988E-15 -1.65498465E-14
  3.06806216E-02  1.23922530E-14 -2.37974595E-15  3.42202137E-01  1.13433645E-02
 -9.01865883E-16 -4.02467205E-16  8.52422902E-12 -1.74731520E-16 -6.32480415E-02
  1.95952805E-15 -4.20282115E-15 -1.86789881E-11 -1.60885316E-16  7.35389433E-02
 -5.72124477E-02 -3.13488272E+00  1.55820941E+01  5.94913842E-16 -5.23292147E-16
 -2.14498733E-02  1.93528223E-16  8.85772990E-15  1.21155139E-01 -1.70417627E-14
 -1.96059100E-15  1.77269009E+00  9.98222538E-03 -5.14401431E-16 -6.40729831E-17
  1.05592066E-11  2.74431750E-16 -1.74295873E-01 -6.13742688E-15 -1.73844797E-14
 -6.64646185E-11  1.52564158E-16  2.08719216E-01  1.84399676E-01 -1.53453304E+00
 -5.13489432E+00  5.68727524E-17 -7.02599255E-16 -4.23862531E-02  1.41654926E-15
  4.74388123E-15 -1.04955360E-01  7.00739393E-15  8.26511595E-15  4.47634971E-01
  1.67165539E-02 -2.42277659E-16  4.63003660E-17 -1.01775311E-11 -7.95734660E-17
 -1.83272467E-02 -4.84937302E-15 -6.91105951E-15 -3.36173757E-11  6.98517077E-16
 -1.54315028E-15 -2.16212755E-14 -7.50912607E-13 -1.04419215E-13 -1.80853279E-02
 -3.59629681E-16  1.09308603E-16  5.11399903E-02  2.71307498E-15 -6.96112124E-15
 -6.57299401E-01  1.45107913E-15 -1.86585764E-13  4.90737361E-17  3.58386093E-04
 -3.86991717E-17 -1.20256002E-17  5.20425207E-17 -3.76535115E-15 -3.88852283E-02
  2.44332441E-15  1.60310917E-16  4.06555811E-17  4.46522557E-16  1.80188395E-14
  7.71327849E-13  1.23917095E-13 -1.80977839E-02  8.83289400E-17  1.15933742E-16
  4.35136578E-02 -2.34234203E-15 -4.58424053E-15  1.40935769E-01 -6.14815565E-15
 -1.99101270E-13 -2.15747785E-16 -3.88658490E-04 -1.11143817E-16  2.96894412E-17
  1.53892523E-16  9.49637869E-15  3.29526856E-02  2.87563517E-15 -2.41012277E-16
 -2.88791272E-17 -1.25432099E-15 -5.00654148E-15  1.10792704E-14 -4.15817376E-14
 -2.02613707E-02 -2.51209049E-16  8.04413142E-17  4.11368491E-02 -1.71501241E-16
  4.43166836E-15 -7.45335273E-01 -1.08878236E-14  1.94914933E-14  6.96764500E-17
 -3.94418085E-04  5.17815735E-17 -7.28636432E-18  6.79043022E-17 -4.27253917E-15
  3.27037145E-02  1.26905540E-15  1.08240684E-16  6.50192399E-17 -2.59485699E-15
 -4.61827451E-14 -2.66560248E-12 -1.04245614E-13 -5.77683784E-17 -1.80853279E-02
  1.12583464E-16  1.97638492E-15  5.11399907E-02 -1.04518862E-14  1.12014218E-14
 -6.57299401E-01 -5.39184031E-13 -1.33828312E-16  1.98512363E-17  3.58386097E-04
 -1.02571799E-17  1.11990651E-16  1.11656541E-15  1.97019532E-15 -3.88852283E-02
  7.71536992E-17 -1.81214609E-17  9.34298505E-18  1.59955465E-14  2.36409518E-12
  1.20324211E-13  4.39510859E-16 -1.80977839E-02  4.86788849E-16 -2.55715238E-15
  4.35136579E-02 -1.23181677E-14 -2.72589569E-15  1.40935769E-01 -9.39365895E-13
 -4.80937461E-16  3.24810686E-18 -3.88658492E-04 -5.07911633E-17  1.22359081E-16
  2.40905070E-14  2.08868928E-15  3.29526859E-02  1.41372128E-16  1.64852293E-16
  1.72493875E-15 -1.40646327E-14  3.40641765E-13 -2.77643528E-14  1.68213082E-16
 -2.02613707E-02 -2.05574540E-16 -1.01480995E-15  4.11368493E-02  4.61055659E-15
  4.71859661E-15 -7.45335273E-01 -9.92510277E-14 -9.69497125E-17  1.24299704E-17
 -3.94418087E-04  1.73587256E-17  3.69966522E-17 -2.57941981E-15  4.96635082E-17
  3.27037147E-02 -1.01843513E-16  7.79545052E-17 -2.96109389E-01 -1.95677520E+00
 -2.98798158E+01 -6.27685527E+00 -6.13283080E-16 -6.18865393E-15 -3.84933351E-02
 -1.08075546E-14  7.02864023E-14 -7.86233143E-01 -1.03384319E-13  3.58799283E-13
 -8.12224243E+00 -2.56443707E-02 -3.34774465E-16  2.92984850E-16  2.07065846E-11
  3.32787115E-16 -3.36428391E-01 -2.49419205E-14  6.78258838E-14 -2.04403327E-10
 -4.29903892E-15 -6.75320832E-03  1.93521522E+00  3.07955335E+01  7.73277364E+00
 -2.48948209E-15  3.40557856E-15  5.79292046E-02  2.24349297E-14 -5.85998239E-14
 -5.49576889E-01  1.38080457E-13 -3.76764415E-13 -8.09433557E+00 -1.62906994E-02
 -1.49388326E-15 -3.94613049E-16 -1.07810505E-11 -4.03582711E-16  3.55028520E-01
  1.17084044E-15  7.56572243E-14  1.24316351E-10  3.87664486E-15 -2.77897840E-02
 -2.79027970E-01  8.80068447E-01 -2.52231336E+00  2.28294917E-15  3.66310938E-15
 -1.63028711E-03 -5.88390915E-15 -2.52636698E-14  1.31911870E-01 -3.10732233E-14
  7.59009209E-14  7.25023050E-01  8.86383765E-03 -4.57324902E-16  9.79908864E-16
  2.05313295E-12 -9.78581402E-16 -1.25942194E-01  1.31674801E-14  2.21920242E-15
 -2.38090079E-11 -2.48477243E-15  9.32941686E-15 -2.18343273E-13 -8.77222461E-12
  9.04157608E-14  5.69791196E-03 -3.26652477E-16  1.26712999E-15 -3.20539177E-01
  3.97767200E-15 -6.11677659E-14 -1.80413959E+00  1.66871527E-14 -1.72622738E-12
 -1.67964443E-15 -9.47509816E-03  4.70084473E-17 -1.09471028E-17  1.12215074E-17
 -1.77205192E-15 -2.47563908E-01  3.43314888E-15  2.17633427E-16 -1.35947431E-16
  8.42341199E-16  9.86862383E-14  7.40800906E-12 -2.62635574E-13 -2.29842879E-02
  1.66087644E-16 -3.26168169E-15  2.96356793E-01 -3.20343469E-15 -9.05550598E-14
  8.55178890E-01 -1.57158792E-14 -3.25495475E-12  3.31549814E-15  3.14625053E-03
 -5.06026940E-17 -2.18939738E-17  1.89346332E-17  7.50554828E-14 -4.68898624E-01
  4.24718431E-15 -5.84003027E-17 -2.57636934E-17  1.27429636E-15 -1.92400712E-14
  1.39695918E-12  2.08058269E-13  8.49320733E-03  7.75009792E-17  8.54559108E-16
  3.49519831E-02 -8.21702342E-16  5.68797777E-15  7.90514478E-01 -3.90299592E-15
 -5.68544997E-13 -1.30804324E-15  1.90397122E-04  4.43647746E-17 -1.07393484E-17
 -5.04259590E-17  1.38213327E-14 -1.38223896E-01  1.77745368E-16  6.35689579E-17
 -2.10567792E-16 -4.91258071E-14  1.00294403E-12  4.42313046E-11 -7.59202834E-13
  2.06894112E-16  5.69791200E-03 -6.21118657E-15 -4.05311359E-15 -3.20539177E-01
  2.90934679E-13  1.32468848E-15 -1.80413960E+00  8.62432217E-12  8.79078238E-15
 -4.41035124E-16 -9.47509818E-03  1.51029510E-17 -3.32232398E-17  5.19919862E-15
  7.25899405E-16 -2.47563908E-01 -3.15328797E-16  8.45835594E-16 -2.29956407E-15
 -4.60046270E-13 -3.65488781E-11  1.81957660E-12 -1.13785377E-16 -2.29842880E-02
  1.68460921E-14  1.69708447E-15  2.96356794E-01  4.36300335E-13 -1.71211416E-14
  8.55178892E-01  1.68332696E-11 -1.60827157E-14 -7.85124360E-17  3.14625052E-03
  5.17523348E-17  8.16730916E-17 -3.15854982E-13 -6.22810710E-15 -4.68898625E-01
  1.12322248E-16 -4.04850130E-16  1.16002668E-14  9.21944161E-14 -7.79375662E-12
 -1.26301307E-12 -1.79704018E-16  8.49320733E-03 -1.06525527E-14  1.00167531E-15
  3.49519831E-02 -2.05193197E-15  1.23990965E-14  7.90514478E-01  3.24737908E-12
  9.01487775E-15  1.09767417E-16  1.90397133E-04  3.27896099E-17 -8.61653204E-18
 -1.00833086E-13 -4.13165342E-15 -1.38223896E-01 -1.98333824E-16 -1.14446075E-16
 -5.57944591E-02  1.93292128E+00  7.67335415E+01 -1.22719627E+00  2.22601303E-15
  1.51410097E-14 -2.52016469E-03 -4.67041093E-14 -8.68886946E-14  6.10729423E-01
  1.69167979E-13 -1.87682119E-13  1.54750333E+01  1.72704182E-02 -3.35713568E-15
  3.59138741E-15 -3.31781646E-12 -1.04247979E-15  9.98635623E-02  4.69548181E-14
 -8.98228856E-14  2.58454108E-11  1.37311218E-14 -1.31546080E-04 -1.06584620E+00
 -6.21085668E+01  3.63744836E+00  2.73709745E-15  4.10786984E-15  2.67162339E-02
 -2.52962649E-14  4.08462630E-14  8.66962801E-01 -3.73511020E-13  8.67153736E-13
  2.96522528E+01 -3.26389368E-02  3.58092827E-15 -2.39957317E-15 -7.94501135E-12
  9.07203671E-16 -4.24084889E-01 -1.01219339E-13 -2.01872144E-14  2.08641148E-11
 -1.23973961E-14  8.09812362E-02  2.33811790E-02 -1.47243265E+01 -2.84301027E+00
 -4.80064217E-15 -1.21500813E-14 -3.30309180E-02  2.87381970E-14  5.77094051E-14
  3.69986736E-02  2.48341516E-13 -7.40721752E-13  6.71379664E+00  2.29219886E-02
  2.72029729E-15 -4.35891487E-15 -9.75042522E-12  4.18437091E-16 -2.77102888E-01
 -8.17762223E-14  4.66459312E-14 -2.43635812E-12  9.06206784E-15  1.29163220E-13
 -1.12357258E-12 -4.20297454E-11 -1.20655063E-12  1.99439253E-02 -6.17010993E-16
  3.22750629E-14 -2.51408921E-01  8.05141334E-15 -2.00564343E-13 -3.48615056E+00
 -9.40345173E-14 -8.75020411E-12  6.06934870E-15  1.12796862E-02  1.17201364E-15
  5.85518025E-17 -2.68631405E-16 -6.07086379E-15 -4.43712701E-01 -3.54696563E-15
 -6.91122847E-16  1.34726784E-15  6.14291439E-14  2.97032283E-13  4.13005585E-11
  1.58385209E-12 -4.02128732E-03  6.92275590E-16 -2.85817892E-14  2.75197951E-01
 -5.35469247E-15 -3.78967740E-13  4.68792391E+00  1.22665695E-13 -1.24333977E-11
  2.54078042E-14  1.24516356E-03  6.74873951E-16  2.95575140E-17  1.24175977E-16
  6.52910767E-13 -2.68703570E-01  4.92734196E-15  5.19069005E-16 -1.47508769E-15
  2.30032643E-13 -3.95944186E-13  1.66377372E-12 -7.91144471E-13 -1.79290962E-02
  5.32175230E-17 -5.25208502E-14  1.20058477E-01 -2.85376463E-16  1.25689035E-13
 -1.71336925E+00 -4.20150380E-14  4.13320317E-13  1.90767002E-14 -1.56259795E-02
 -3.86883143E-16  2.17998865E-17 -2.43037137E-16 -1.63351852E-13  9.62897477E-02
  4.14531642E-15 -8.41351534E-17  1.83595249E-18 -2.83355654E-13  3.25075134E-12
  1.05066941E-10  2.66170060E-12 -6.24663055E-16  1.99439253E-02 -6.58584603E-14
  6.85737912E-15 -2.51408921E-01  8.01442644E-13  8.52946903E-14 -3.48615056E+00
  2.15308108E-11  7.12580206E-15 -2.55947482E-16  1.12796862E-02  4.48907320E-17
 -1.26225237E-16  7.41346892E-14  1.96954129E-14 -4.43712702E-01 -4.18012702E-16
  2.03781513E-15 -1.30216264E-13 -1.45088441E-12 -1.01433282E-10 -3.58728037E-12
  1.02645706E-15 -4.02128733E-03  6.77994766E-14 -1.50451627E-14  2.75197951E-01
  1.17880215E-12 -1.21035133E-13  4.68792391E+00  3.21059324E-11 -6.79205888E-14
  6.57098151E-16  1.24516356E-03  1.19549328E-17  3.28906572E-16 -1.57850545E-12
  1.54404151E-15 -2.68703570E-01  3.24210842E-16 -2.94856914E-15 -5.10732025E-13
  1.00702791E-12 -5.76587411E-12  1.85310489E-12 -2.87874958E-16 -1.79290962E-02
  1.13834525E-13  3.46615613E-16  1.20058477E-01 -2.69946118E-13  4.44973330E-14
 -1.71336925E+00 -4.15691997E-13 -4.44834272E-14  7.04329515E-16 -1.56259795E-02
  5.07159010E-17 -1.47990168E-16  3.53266956E-13 -8.60397462E-15  9.62897482E-02
 -3.75609023E-16  4.88575108E-16 -3.22041430E-01  3.46163008E+00  4.98564833E+01
  1.34679212E+00  1.05439554E-14 -4.93018297E-15 -6.04034476E-02 -1.05874445E-13
  9.14985925E-14  4.99860952E-01 -1.34566079E-12  2.89015980E-12  1.12909479E+01
 -2.00018301E-02  5.31906056E-15 -1.15698078E-14 -1.26094078E-11  4.75733748E-17
  8.24432150E-02 -1.38995295E-13  3.03378486E-13 -2.71693805E-11  1.42033957E-14
 -2.02497647E-01 -8.84046370E-01 -5.48164438E+01 -9.97085962E-01  1.65252876E-15
  2.26988217E-15  7.80983137E-02  7.29238790E-14 -1.68162766E-13  1.19011134E+00
  1.76650776E-12 -3.85111288E-12  1.22180417E+01 -1.02501350E-01  4.55117838E-15
 -1.96886486E-15 -2.72516656E-11  2.77880684E-16 -1.43458287E+00 -1.51188679E-13
  1.14344922E-13  2.75094797E-10 -1.14189473E-14 -6.87799832E-01  8.41275670E-01
  2.29330568E+00  7.66444557E-01 -1.27149302E-14  1.15303155E-14  1.57929095E-01
  6.84819101E-14 -6.88001337E-14 -2.41175268E-01 -6.21652499E-13  1.39769300E-12
 -2.23474481E+00 -5.53445596E-02 -4.91409231E-15  1.26083578E-14  4.95316818E-11
  2.69637057E-16  2.76098164E-01 -8.40786648E-15 -1.00847383E-13 -5.70134459E-12
  1.34050213E-14  1.62812997E-01  1.66730873E+00 -2.94404174E+01 -4.68696441E+00
 -2.76329802E-15  2.98881195E-15  6.28147353E-02  2.54302484E-14 -5.80749066E-14
 -3.44761717E-01  5.04794192E-13 -1.32597956E-12 -8.95915227E+00 -4.81132585E-03
 -2.90039829E-15  2.45679898E-15 -4.28323033E-11  4.36192834E-16 -5.04938082E-01
  4.46901467E-14 -1.36779893E-13  3.56948157E-10 -1.08194068E-14  3.99048282E-03
  9.76898696E-01  2.88032025E+01  7.27479023E+00 -1.44777119E-15 -6.82459790E-16
 -3.61710062E-02 -1.53174408E-14  8.77155535E-14  2.50888701E-01 -6.68738119E-13
  1.74926574E-12 -4.53670680E+00 -4.81287700E-03 -2.57207702E-15 -5.27520158E-16
 -2.29814337E-11 -7.27340807E-16 -6.40159425E-01  4.58574768E-14 -7.40134716E-14
  1.08543044E-10  8.71692831E-15 -9.93229596E-02  3.02003700E-01 -1.12587881E+00
 -2.41958145E+00  5.08924989E-15 -4.59860781E-15  2.41119982E-02 -2.61651835E-14
  3.29512529E-14 -2.22832865E-01  2.45886808E-13 -6.23331685E-13  1.05715378E+00
  6.07300341E-03  2.62510899E-15 -5.65144498E-15  8.65372585E-12 -9.72530287E-16
 -6.78952608E-02 -6.05882888E-16  3.39850527E-14 -2.64109803E-11 -7.55518076E-15
  5.00798286E-02 -3.79647506E+00  1.70730380E+01 -1.98247208E-01  7.99136780E-15
  1.07621855E-14 -7.39924056E-02 -5.31604345E-14 -1.08009473E-13 -1.19013015E+00
  3.03861069E-14 -5.93390182E-14  2.07754665E+00 -9.25967982E-02 -4.95403503E-16
 -6.49931727E-15  9.74589737E-12 -5.31114968E-16 -2.70506087E-01  7.17486856E-15
 -4.64823016E-14 -1.55711336E-10  9.54826575E-15 -1.38165177E-01  3.32301205E+00
 -4.74457764E+00  9.27151312E-01  5.03353385E-15 -3.19551365E-15 -8.91942720E-02
 -4.21114235E-15  6.79258212E-14 -1.24232467E+00 -5.48354493E-14  4.37812946E-14
  1.14273426E+01  8.01616421E-02  4.25894452E-15 -3.65221178E-15 -4.61448706E-13
  5.47370520E-16  8.71297670E-01 -8.17937915E-14 -1.03745141E-13  1.16326054E-10
 -9.20251148E-15 -4.76555384E-01  1.45457481E+00 -1.34193458E+01  2.33979212E-01
 -1.02896083E-14 -5.27668245E-15  7.63436443E-02  2.95881267E-14  1.84145627E-14
  3.23004027E-01  3.98618240E-14  2.51114951E-14  5.38227984E+00 -2.88279681E-02
  2.21539607E-15  1.02013397E-15 -1.27053482E-11  1.87308616E-15 -2.71878752E-01
 -4.55964079E-14 -3.47446338E-14  5.36832811E-10 -1.02821563E-15  2.60789861E-02
  4.20824706E+00  2.02929199E+02  9.72243767E-01  3.59905541E-14  1.22146211E-13
  1.97134021E-02 -3.39736086E-13 -1.53778082E-12  1.21580031E+00 -2.83456214E-13
  5.25945227E-14  3.74251779E+01  5.64293267E-02 -5.29593394E-15 -3.56051741E-14
 -1.97338454E-11 -1.19574938E-14 -4.84573135E-02  2.04215730E-13 -8.96534770E-13
  2.12416746E-10  1.74926458E-13  4.59397411E-02 -2.12667262E+00 -1.71421529E+02
 -1.23382626E-01  4.06466013E-14 -4.68171529E-14 -3.17212703E-03 -1.99536864E-13
  8.98325928E-13  1.56034993E+00  1.44401893E-13 -5.56796906E-13  7.72374974E+01
 -1.27278708E-02  3.07939596E-14 -1.46380808E-14 -1.07750311E-11  3.49220690E-15
 -1.56806740E+00 -7.26282514E-13 -1.59585135E-12  6.57555342E-11 -6.82663621E-14
  4.31470459E-02  9.00848198E-01 -3.32261938E+01 -6.68708428E-01 -5.78812229E-14
 -2.93290859E-14 -3.00118715E-02  2.51671805E-13  1.99752923E-13 -3.14328881E-01
  1.79671245E-13  8.92062144E-13  1.03128628E+01  1.97824513E-02  1.09218191E-14
  3.62657547E-15  9.31739176E-12  7.68064126E-16 -1.57912592E-01 -5.24299139E-13
 -4.00227430E-13 -1.78277520E-10  1.67224395E-13 -5.13845830E-12  3.98399804E-10
 -3.48209415E-08  3.14175332E-10 -2.35313434E-16 -2.05044169E-16  3.31425692E-11
 -2.82113512E-15  2.89597077E-15  6.59611413E-10  3.08834705E-15  4.63938482E-15
 -5.60763889E-09  5.35150282E-11 -6.43621076E-16 -2.17568234E-16 -3.07965079E-02
 -1.77397974E-07  4.60829432E-10  2.32478713E-15  3.02763627E-15  3.07914658E-01
  1.77368930E-06  8.46958213E-11 -2.24664378E-09  2.89208513E-08 -1.18648153E-09
  1.57105723E-16  2.44561542E-16  4.43123822E-11 -1.11287853E-15 -1.21434132E-15
  2.03809384E-10 -3.22621283E-15 -4.84517043E-15 -1.46968189E-08 -2.72930103E-11
 -5.15739619E-16 -2.78386871E-16 -3.76827689E-02 -2.17065094E-07  4.59962102E-10
 -3.26695384E-15  4.39502098E-15  4.21671803E-01  2.42896773E-06  3.96673628E-10
 -1.18047083E-09  8.14573899E-09  1.64014715E-10 -1.74496494E-16  2.53477103E-16
 -8.46080825E-11 -5.31776445E-16  7.05275997E-17  1.06991159E-10  2.49431415E-15
 -6.64614169E-16 -2.79137268E-09  1.31980907E-11  2.60124356E-16  6.49681193E-17
 -4.34756737E-02 -2.50434123E-07  1.30307132E-10 -1.74031074E-15  6.39923395E-16
  5.97181913E-01  3.43996345E-06  5.72741622E-14 -1.71638956E-12 -3.17122821E-11
 -1.13896940E-13  6.81422895E-16  2.83656929E-16 -7.56781509E-15 -1.34404932E-14
 -5.71754618E-15 -5.72598907E-13 -1.46167736E-14 -2.51614053E-14 -5.77187207E-12
 -2.74092361E-14 -5.43221068E-16 -1.65393963E-16  1.77397974E-07 -3.07965079E-02
 -1.73374084E-13 -7.48863027E-15 -9.84879602E-15 -1.77368930E-06  3.07914658E-01
  2.24536435E-14  1.43168419E-12  2.48597897E-11 -1.65445171E-13 -4.61218056E-16
 -6.62662291E-16 -2.68655931E-14  8.73977773E-15  8.69573287E-15 -6.99431138E-13
  1.03482592E-14  2.57810749E-14 -1.32271287E-11  3.77616219E-14 -1.02246797E-16
  7.27915292E-17  2.17065094E-07 -3.76827689E-02  1.98795730E-13 -1.66764365E-14
 -1.30261980E-14 -2.42896773E-06  4.21671803E-01  3.09475273E-14 -1.18808135E-13
  7.02379635E-12  2.62784430E-13 -2.80582819E-16 -2.79916246E-16  5.48000120E-15
 -6.43675587E-16  1.76004733E-15 -5.25869806E-14  6.31952533E-15 -3.06821896E-15
 -2.42128790E-12  1.29927439E-15 -1.21196065E-16 -3.00626833E-17  2.50434123E-07
 -4.34756737E-02  1.40691049E-13 -7.69958189E-15 -2.88368759E-17 -3.43996345E-06
  5.97181913E-01  3.30676387E-01 -4.64294296E+00  4.60774472E+01  1.09908200E+00
 -4.68324264E-15  7.75478018E-14 -2.47315628E-02  1.08736435E-13 -1.07032214E-12
 -1.56467741E+00  1.63410271E-13 -1.24482438E-12  1.02144714E+01 -9.63058334E-02
  9.68822656E-16 -1.66298742E-14  5.25495290E-11  5.08445414E-15 -6.82906128E-01
  1.87850212E-13 -8.13196947E-13 -9.54423066E-10 -3.55836263E-14  1.59671580E-01
  5.13309145E+00 -5.17808853E+01 -1.65177519E+00  1.32633610E-14 -2.95485724E-14
 -1.61757938E-01 -1.46218225E-13  6.47180432E-13 -1.79841716E+00 -2.08008744E-13
  1.05861406E-12  8.81269755E+00  1.77879506E-01  5.77554659E-15 -2.43674231E-16
 -4.48664601E-11  1.07295951E-14 -4.30517566E-01  5.33221021E-14 -1.39051543E-12
  8.54637039E-10 -1.27331199E-13  2.05352511E-01  1.14889040E-01  4.85732070E+00
  7.42634937E-01 -1.05477209E-14 -4.61818362E-15  7.41538941E-03  6.65249110E-14
 -1.00085600E-13 -7.22246359E-01  2.12734763E-15  4.40771323E-13 -2.64666179E+00
  2.90016999E-02  8.30823828E-16  1.15102355E-15 -2.77911855E-11  9.39105878E-15
  4.05147041E-01 -9.94053607E-14 -3.30142881E-13  1.39680205E-10 -6.17038029E-14
 -2.79907676E-14  8.31087115E-13  6.54804070E-12 -1.04081626E-13 -7.78111538E-02
 -3.23985022E-15  3.91469321E-15  1.24029306E+00  5.76461063E-14  3.03962008E-13
  1.91119592E+00  7.85939863E-14  1.12527378E-12  1.37288381E-14  2.87255341E-02
  1.51272557E-15  6.21994740E-17 -9.68014661E-16  1.45016356E-13  1.00508548E+00
  4.14085621E-14 -1.24095973E-15  2.57009864E-15 -1.36728911E-14 -8.37268141E-13
 -4.09573046E-12  2.83804489E-13  4.06754071E-02  1.63598640E-15  1.44540692E-14
 -8.82363478E-01 -4.23907972E-14  3.38912884E-13 -1.54461652E+00 -4.24364586E-14
  3.33764843E-12 -2.09727984E-14  4.81258015E-03  4.02047063E-17  7.61035221E-17
 -8.83358263E-16 -2.90186391E-14  1.82892141E+00  9.77340835E-14  9.54359014E-16
  1.05632010E-14 -2.09999187E-14  5.45590423E-14 -2.45876821E-12 -1.74041758E-13
 -1.07653686E-02 -1.59224832E-15 -5.79969134E-16  3.44153657E-01  2.34487875E-14
  3.95860632E-14 -6.70134915E-01 -5.12351423E-14  9.54661886E-13 -2.98108287E-15
 -4.89373025E-03 -7.66139199E-16 -5.52225581E-17  3.71426535E-16 -6.15885097E-14
  5.41312097E-01  4.69990888E-14  1.30967975E-15 -5.00913632E-15 -2.27619868E-13
  1.34722591E-12 -1.45492783E-10 -1.77627312E-12 -1.69961214E-15  7.78111538E-02
  2.23241083E-14  4.23321707E-14 -1.24029307E+00  3.83415926E-13  1.04904129E-13
 -1.91119592E+00 -2.92230381E-11  6.04232309E-14  1.06121717E-16 -2.87255341E-02
  1.74285627E-16  3.87722115E-16  6.46455631E-14  6.91354756E-14 -1.00508548E+00
 -3.52181663E-15 -6.73838866E-15 -1.11999806E-13 -2.40570756E-12  1.32090311E-10
  1.41177877E-12  4.43924658E-15 -4.06754071E-02  1.28910102E-13 -6.13027624E-14
  8.82363478E-01  2.95619261E-13 -8.46291992E-14  1.54461652E+00 -4.79170830E-11
 -1.12969338E-13  6.03948719E-16 -4.81258015E-03  2.64155764E-16  6.89502852E-16
  7.28086298E-13  6.82340504E-14 -1.82892141E+00  2.00288722E-15 -6.70467939E-15
 -1.27567808E-13 -3.51934238E-13  1.47221782E-11  4.46747747E-14 -1.60545412E-15
  1.07653686E-02 -1.32559643E-15  2.24739209E-14 -3.44153657E-01  7.77227397E-13
 -2.48195486E-14  6.70134915E-01 -4.32729203E-12 -3.38297122E-14  4.59741700E-16
  4.89373026E-03 -2.71514478E-16 -3.06651583E-16  1.12168826E-13  7.82371070E-15
 -5.41312098E-01  4.63702230E-15  3.75479752E-15 -1.19283951E-10  6.06156823E-09
  4.59879294E-08 -1.16652028E-09 -2.68946978E-16  1.02096113E-16  7.75468699E-11
  3.01756790E-15  3.03421643E-15  1.44132779E-09 -4.04271805E-15  6.08872201E-15
  7.08479955E-09  1.07682839E-10 -5.67278262E-16  6.32517909E-16  5.41057783E-02
  3.33844815E-07  5.48093538E-11 -7.48999911E-15  1.01462192E-14 -8.50347303E-01
 -5.24683402E-06  1.31120335E-12 -4.17588822E-09 -3.72904697E-08  1.97283822E-09
 -7.61980147E-16  8.18671109E-16  1.02111309E-10  1.50009342E-14 -2.02669424E-14
  1.93480884E-09 -1.32660346E-14  2.10969721E-14  2.11171370E-08 -1.23977129E-10
 -2.81095058E-16  3.28793705E-16  1.18031445E-02  7.28280547E-08 -1.27163726E-09
 -6.62513363E-15  2.07092946E-14  3.45920757E-02  2.13440887E-07  3.87963365E-11
  8.14765512E-11 -9.56634790E-09 -1.01311184E-09 -3.94639486E-16  1.40549670E-16
 -2.11751173E-11  3.36986101E-15 -5.04542913E-15 -3.38771997E-11  8.03978538E-15
 -1.81727428E-14  2.80551105E-09 -6.03373441E-12  1.84272547E-16 -6.87582251E-16
 -4.42210669E-02 -2.72853924E-07  1.03128418E-10 -7.61726236E-15  1.86828256E-14
  7.01720727E-01  4.32977463E-06 -9.24128738E-15 -1.57043936E-14 -2.06262599E-12
 -4.86640157E-15 -9.29058498E-16 -1.53499848E-15 -8.04478572E-16  1.24599460E-14
  1.92084924E-14 -1.27703923E-14  2.39654604E-14  1.13579413E-14 -4.39418998E-13
 -3.11272027E-16 -2.49122522E-16  5.05184410E-16 -3.33844815E-07  5.41057783E-02
  1.62767110E-14  2.34068068E-15  9.98590524E-15  5.24683401E-06 -8.50347303E-01
 -5.01586331E-15 -3.78160794E-14  2.20906513E-12  1.15060449E-15 -1.45839316E-16
  1.79722763E-16  3.76962346E-15  4.25165075E-15 -7.89489770E-15 -2.02145368E-14
 -4.47314166E-14 -1.26123084E-14 -4.91845746E-13 -1.80811285E-15 -4.47979058E-16
  1.30926884E-16 -7.28280548E-08  1.18031445E-02  3.27666695E-14  9.58658480E-15
  1.75305367E-14 -2.13440884E-07  3.45920757E-02 -6.72818938E-15  5.44646125E-16
 -1.01160933E-13 -8.43726502E-16 -4.97214173E-16 -5.71658341E-16  5.27446071E-16
  3.50378295E-15  6.97874782E-15  1.80202081E-14  1.23506860E-14 -7.40150375E-15
  7.06106379E-14 -7.51249651E-16  9.51815010E-16  9.69922313E-17  2.72853923E-07
 -4.42210669E-02 -4.04022792E-16 -1.60206456E-14  6.41856441E-15 -4.32977463E-06
  7.01720727E-01  1.34436796E-14  1.21132080E-14  3.16509994E-12  1.00171994E-13
  2.92146136E-02 -7.34439895E-16  4.35649347E-16 -1.91124781E-01  2.28887384E-14
  3.78391448E-14  1.32098832E-01 -1.64877994E-14  7.35327104E-13 -2.71471478E-17
  2.43521980E-02  1.79028843E-15  8.08986827E-16 -5.95535125E-17  1.02864956E-14
  3.40870213E-01  5.48424957E-15 -1.25878565E-14 -4.83123635E-15  5.92300002E-15
  6.30430526E-15 -3.24412398E-12 -1.12886890E-13  6.11461300E-02  7.95792252E-16
 -6.27798838E-15 -9.52263363E-01 -2.41760938E-14  4.10233443E-14  1.07761588E+00
  6.27696842E-14  7.48560858E-13  2.46855494E-15  4.86387919E-03  1.18437162E-15
  2.51269889E-16  4.99594149E-16 -1.56111003E-14  5.75639794E-01  4.23898973E-14
 -7.97197895E-16 -9.04805588E-15  5.86974219E-15 -2.45055675E-15  3.88944134E-14
  2.74460963E-14  3.36570508E-02  2.65710743E-16 -1.90840089E-16 -4.15271378E-01
  3.37036181E-15 -2.49444338E-14 -5.15090340E-01 -4.82193196E-14 -3.51179348E-14
  8.70379682E-16 -2.35541952E-02 -2.40403130E-15 -5.44522789E-16 -1.30602437E-15
 -1.43139976E-14  6.02397737E-01  4.76365805E-14  9.32863035E-15  1.56266329E-14
 -2.54001025E-14  1.60400992E-13 -1.37267844E-11 -5.03132805E-13 -1.85677536E-16
  2.92146136E-02  6.20089498E-15 -1.19039176E-15 -1.91124781E-01 -5.08232672E-14
 -3.66073696E-14  1.32098831E-01 -3.24719555E-12  1.15522538E-14 -1.65489513E-16
  2.43521980E-02 -1.05771918E-15  3.41951067E-17 -1.71564818E-13 -2.05489018E-14
  3.40870213E-01  1.70870249E-14  3.26226904E-15 -6.69061011E-15 -1.13465568E-13
  1.27211657E-11  4.67594177E-13 -1.35686030E-15  6.11461300E-02  2.15699660E-14
  2.56870437E-14 -9.52263363E-01 -1.11489843E-13  1.85608551E-14  1.07761588E+00
 -3.83238566E-12 -9.23728675E-15  5.18514939E-16  4.86387920E-03 -1.93014378E-16
  3.13692754E-16 -8.31354742E-14 -2.36271457E-14  5.75639794E-01 -7.55409042E-16
 -6.36748627E-15 -9.75611576E-15  6.56000239E-14  1.02794584E-12 -1.63435949E-14
 -4.80956359E-16  3.36570509E-02 -1.25225230E-15  8.15306173E-15 -4.15271378E-01
  1.30204751E-13  4.74347185E-15 -5.15090340E-01 -5.08440128E-13 -6.60115746E-15
 -3.86644718E-16 -2.35541953E-02  7.68807972E-16 -4.46710912E-16  1.81409627E-13
 -3.49629660E-15  6.02397738E-01 -1.29063435E-14  8.71749323E-15 -8.32762781E-13
 -8.88433837E-11  3.18698119E-10 -3.13101350E-11  3.17192070E-04  2.96992481E-15
 -6.76558038E-13 -1.84410591E-02 -5.08605364E-14 -4.39616988E-11  2.49136855E+00
  1.50435270E-13  1.63177121E-11 -1.57687678E-12 -2.86139703E-02 -2.95375085E-15
  1.88800097E-17 -4.25964896E-16 -2.90055971E-11  1.01563297E+00  2.51631789E-14
 -8.70865959E-16  6.86007034E-15 -1.38321725E-12  1.14394024E-10 -1.73608970E-10
  4.40563687E-11  4.88058861E-02  1.13567630E-15 -5.58685981E-13 -5.35304105E-01
 -3.96735009E-15 -3.61384463E-11 -3.49564955E+00 -1.94444521E-13  2.06041237E-10
  1.37599574E-12 -6.84471540E-03 -3.37761872E-15 -1.67111924E-16  7.97030747E-17
  9.91851709E-12 -1.00456606E-01 -1.26748450E-14 -2.03916181E-16 -1.31314629E-15
 -1.39401236E-12 -1.72057782E-12 -1.48420173E-10 -1.56932025E-11  3.75960110E-02
  1.30615884E-15  7.37126153E-14 -6.29116962E-01 -1.52360822E-14  1.66834448E-12
  1.63325362E+00  8.59356990E-14  5.56462919E-11  4.11176610E-13  5.56383255E-02
  4.00209312E-15  2.19153359E-17  1.26494007E-15 -7.41490061E-12 -1.14369557E+00
 -7.52975479E-14 -1.23052822E-15 -7.39830433E-15  4.50057124E-12  5.24491293E-10
  1.81111027E-10  1.75951047E-10 -1.12133597E-15 -3.17192074E-04  4.62443518E-12
  2.84108047E-14  1.84410590E-02  2.43325367E-10  1.11731141E-13 -2.49136855E+00
  2.37927974E-10  9.82267003E-12 -8.21464197E-16  2.86139703E-02 -3.56160942E-17
 -6.66596588E-16  1.42460922E-10  8.75974884E-14 -1.01563297E+00 -1.10263318E-15
  1.77158887E-14  8.79443819E-12 -6.38697380E-10 -7.36809052E-10 -2.50419271E-10
  3.61520115E-15 -4.88058861E-02  4.10788440E-12 -3.49781286E-14  5.35304105E-01
  1.94645106E-10 -1.93518455E-13  3.49564954E+00 -3.85022420E-10 -7.75402670E-12
  3.97225713E-15  6.84471539E-03 -3.37946174E-17  1.40676905E-15 -8.40329682E-11
 -4.24494137E-14  1.00456606E-01  5.23053394E-15 -2.38157468E-14  8.99569476E-12
  2.37116170E-11  5.48532660E-10  9.26823255E-11  3.88942990E-16 -3.75960110E-02
 -6.13168521E-13 -2.94092646E-14  6.29116962E-01 -6.67624068E-12  9.88564227E-14
 -1.63325362E+00 -2.57526650E-10 -2.74012305E-12  1.75254628E-15 -5.56383255E-02
  1.54517666E-16 -2.24546543E-16  6.65198653E-11 -5.39090291E-14  1.14369557E+00
 -3.23192280E-15  3.35340644E-15  7.08830730E-02  8.10072099E+00 -3.79579819E+00
  2.75398897E+00  1.39555924E-15  1.47944188E-14  6.94450309E-02 -1.35939032E-13
 -1.11641417E-12  3.81010123E+00  2.71038022E-11  1.61514360E-10  2.61122195E+00
  1.50042935E-01 -3.08458418E-13 -1.85027883E-12 -3.06145042E-11  3.42578256E-16
  2.29408368E+00  1.10791776E-11  6.58180262E-11  8.19599753E-10 -3.71341630E-15
  1.33994025E-01 -9.98384347E+00 -5.75945760E+00 -3.91009630E+00  5.30087270E-13
  3.16213570E-12  6.07960579E-02 -5.84567632E-12 -3.47034487E-11  3.06604474E+00
 -3.80253759E-11 -2.26626650E-10 -8.61388871E+00 -1.20891335E-01 -7.28633742E-14
 -4.42528796E-13  4.35790601E-11 -3.80546789E-16 -1.21643115E+00 -1.04875501E-12
 -6.44445095E-12 -1.02912313E-09  9.16710824E-15  1.36702824E-01  3.22465328E-01
  9.53086980E+00  1.43512603E+00  4.18764083E-13  2.44142728E-12 -8.95818497E-03
 -6.91316196E-12 -4.08293729E-11 -1.13423188E-01  1.77770661E-11  1.05883619E-10
 -4.20911947E+00 -4.13209411E-02  6.01645226E-13  3.60563062E-12 -3.53606580E-11
  1.09475168E-15  9.55262734E-01 -1.23968890E-11 -7.40970072E-11  3.89899322E-10
 -8.62356570E-15  1.80368471E-02  7.14381867E-01 -1.30358299E+02  3.67537600E-01
 -3.36504993E-14 -1.24472668E-13 -2.88888580E-02  2.55987310E-13  2.21292451E-12
  1.17768522E+00  6.32773807E-12 -9.17593468E-12 -2.16048418E+01 -1.38768227E-02
 -7.10392984E-14  1.12573226E-13  2.95996068E-11  1.95782888E-14  1.69051588E+00
  2.19368175E-12 -1.38744775E-12 -6.83873389E-10 -5.34131657E-13 -3.25604417E-02
 -2.82100717E+00  1.11323874E+02 -5.02940717E-01  7.31662556E-14 -1.38897279E-13
 -3.57028819E-02 -9.24546187E-13  8.38683801E-13  1.29595487E+00 -8.76920588E-12
  1.37225198E-11 -5.19379496E+01 -3.24826316E-02 -6.16604146E-14  1.34971218E-13
 -2.47974881E-11 -3.32325079E-14  1.29540714E+00  5.95701526E-13  1.32845235E-12
  6.74274404E-10  7.04404761E-13 -4.19001202E-02 -6.73146237E-01  2.05419472E+01
  7.53526451E-02  1.74626773E-13 -6.36032099E-14  9.04110770E-03 -2.18927857E-12
  1.16160720E-12 -1.38430872E-01  4.03498051E-12 -6.82971589E-12 -4.72603084E+00
  1.44628262E-02  1.37096931E-13 -3.33559984E-13  1.59377564E-11 -2.45534956E-15
 -1.23381068E+00 -2.46423215E-12  6.77574928E-12 -1.81357413E-10 -2.33665692E-13
 -3.11684016E-15 -1.94732865E-13 -9.05179097E-12 -1.56666697E-13 -2.90996474E-02
  4.47862814E-15 -4.70068515E-15  6.77491844E-01 -8.76720506E-14 -3.86912279E-14
  9.96582310E-01 -1.52390169E-14 -1.68998482E-12 -4.44324571E-15 -1.35822431E-02
  7.97511616E-17 -1.84762475E-16  2.24066632E-15  2.28761366E-14  1.32972079E+00
 -1.27294934E-13  6.43195125E-15 -6.48483515E-14 -8.60855241E-15  1.25589264E-13
  8.24858420E-12  2.16926060E-13  1.94445029E-02 -6.23287150E-16 -2.97037303E-15
 -4.23637369E-01  3.87697059E-14 -8.84052984E-15 -9.98771673E-01 -2.94333839E-14
 -3.18117098E-12  1.02796686E-15  4.69068464E-02 -5.97804814E-15 -1.09838896E-16
 -3.33668035E-15  1.30424206E-13  1.88271706E-01 -2.68732345E-14 -9.49944611E-15
  7.41435598E-14 -9.98137892E-15 -5.27272710E-14  9.11583509E-13 -7.96592877E-14
  1.34688685E-02 -9.18847300E-17  6.11311929E-16 -2.75187125E-01  9.56563154E-15
  6.26518594E-15  4.48757639E-02  6.45681633E-14 -1.14985455E-13  1.72966553E-15
 -4.41297738E-02  7.21712601E-15 -2.45865163E-16  1.07256062E-15 -1.14833336E-13
  8.06740523E-01 -1.45227413E-13  3.92885519E-15 -2.33260078E-14 -3.84752413E-14
 -3.56744411E-12  3.51654124E-10 -2.83530419E-13 -4.41243800E-15 -2.90996474E-02
  5.69470284E-14  9.29692204E-14  6.77491844E-01 -3.55165004E-12  1.88658664E-13
  9.96582309E-01  5.94382198E-11 -1.69413369E-15 -2.42874584E-15 -1.35822432E-02
  2.32978313E-16  1.32740229E-15 -4.22038190E-12  1.82667051E-13  1.32972079E+00
 -8.60304611E-15 -3.55278135E-14  7.62714532E-14  8.60666109E-12 -3.00549399E-10
  6.94970985E-13  2.21504393E-15  1.94445029E-02  6.97843289E-14 -5.25732434E-14
 -4.23637369E-01 -3.84820494E-12 -2.17337806E-13 -9.98771672E-01  1.38591195E-10
  1.04967831E-13  4.93971510E-15  4.69068464E-02 -4.48670623E-16 -1.82941652E-15
 -2.76848921E-12  3.74659722E-14  1.88271706E-01  1.20367025E-14  4.50321609E-14
  1.08557962E-13  1.35436216E-12 -5.46721008E-11 -2.20848954E-13  4.10239533E-15
  1.34688685E-02 -1.92416028E-14 -6.14200262E-14 -2.75187124E-01  2.32722971E-13
  4.82974539E-14  4.48757637E-02  1.30326707E-11 -3.19037702E-14 -4.42353679E-15
 -4.41297738E-02  4.38421575E-16  7.08323278E-16  3.03112225E-12  7.96235575E-14
  8.06740523E-01 -6.65339207E-15 -2.09209047E-14 -2.45572416E-11 -1.68215023E-09
  5.30019705E-09  1.37972280E-09  8.86495322E-17  1.22261661E-16 -2.63881161E-11
  5.14083020E-15 -2.81212977E-15  4.11284486E-10  1.30387614E-14  4.10064038E-15
  8.17440202E-10  5.25347440E-11  3.16093575E-16 -7.55996564E-17  4.94949095E-02
  9.35588436E-07  5.86926115E-10  1.35924384E-14 -7.15638236E-15 -1.43819461E+00
 -2.71857906E-05  1.00070558E-12 -1.39274540E-09  1.17273331E-09 -2.49629673E-09
  6.42862538E-16  2.59145454E-16  1.02014311E-10 -1.19483888E-14  2.07115296E-15
 -1.06371278E-09 -1.78221508E-14 -5.61978272E-15  4.73906690E-09 -3.41765754E-11
  8.60316622E-16 -4.68493418E-16 -6.71689815E-02 -1.26967648E-06  1.71127487E-09
 -6.13214936E-15  3.78906566E-15  1.77881599E+00  3.36244613E-05 -2.28257389E-11
 -1.20751834E-09 -4.33973578E-09  9.33918575E-10 -4.02876628E-16  2.69130066E-16
 -3.97557411E-11  3.47998841E-15 -2.30839266E-15  1.09553036E-09  5.78271415E-15
  3.68936820E-15  6.12755137E-10 -4.89628681E-11  1.17589717E-15  5.43145397E-16
  3.67360425E-02  6.94411141E-07  1.00175881E-09 -2.01957740E-15 -6.73096565E-15
 -7.27479082E-01 -1.37513337E-05  7.07146554E-15  1.71148376E-12 -8.22673042E-11
 -1.91689287E-13 -1.29671919E-15  3.26013051E-16 -1.10083551E-14  3.77968640E-14
  8.60160855E-15  1.13993495E-12  7.49359339E-14  7.39993346E-14 -1.42432755E-11
  1.62950156E-14  1.59494054E-16 -4.64467618E-16  9.35588437E-07 -4.94949095E-02
  9.84571261E-13  7.74265666E-14  4.62525219E-14 -2.71857906E-05  1.43819461E+00
 -1.36170788E-14 -2.71041854E-12  7.06340577E-11  9.46957101E-14  2.10782088E-15
  2.36516745E-16 -8.26265691E-15 -3.72958418E-14 -3.30450167E-15  1.16165818E-12
 -9.17677670E-14 -9.75014945E-14 -3.18865942E-11 -2.93610121E-14  4.41303031E-15
  1.07862456E-15 -1.26967648E-06  6.71689815E-02  3.47623249E-13 -4.56189080E-15
 -1.98655752E-15  3.36244613E-05 -1.77881599E+00 -2.60529823E-14 -1.00137982E-13
  1.23005346E-11  3.32204570E-14 -1.23665125E-15  3.00697793E-16 -2.22779845E-16
  8.09385650E-15 -1.10103094E-14  3.35352711E-14  1.52593807E-14  3.04552188E-14
 -3.00580507E-12  6.95325784E-15 -1.56050750E-15 -8.22117018E-16  6.94411140E-07
 -3.67360425E-02 -6.87547491E-13  1.86340837E-14  4.22892470E-15 -1.37513337E-05
  7.27479082E-01 -6.07060674E-02  1.56778852E+01  2.77009837E+01 -9.04904001E-01
  2.34073518E-14  3.03718121E-14  1.94927815E-01 -2.24877926E-13 -4.05495275E-13
  3.88037847E+00 -8.07779374E-14  6.99258455E-13  5.73185290E+00  1.55391541E-01
  8.57061631E-16 -2.17546939E-14  1.54713885E-11  3.21842385E-15  7.35991874E-01
  1.42013382E-13  2.75424292E-13 -6.23283884E-10 -1.00370726E-13  4.40491753E-02
 -1.06684447E+01 -3.31389421E+01  2.38927730E+00  2.34483107E-14 -2.06703126E-15
 -1.57608214E-02 -2.30138919E-13  1.31465226E-13  6.12981126E+00  8.86698673E-15
 -9.96450441E-13  7.21233243E+00 -1.75537224E-01  2.24819486E-14 -2.52057572E-15
 -3.32780046E-11 -2.81439698E-15 -5.33217147E+00 -5.84253674E-13 -4.08868951E-13
  8.41397361E-10  1.18902865E-13  1.46574178E-01  3.32470855E+00  5.36565834E-01
 -8.96307583E-01 -3.70900316E-14 -1.18563826E-14  4.75112817E-02  4.15891057E-13
  1.43185695E-13 -1.64400944E+00  5.94181386E-14  3.91902037E-13 -1.94366941E-01
  2.91194029E-02  2.97254474E-15  4.71726563E-15 -5.39139145E-13  7.26272741E-15
 -3.90649159E-01 -2.70405119E-13 -2.57624049E-13 -3.13385294E-10 -5.76759250E-14
 -3.42130437E-02 -5.99821381E+00 -5.88768406E+01 -1.58086613E-01 -5.11669885E-14
 -6.62091957E-14  3.46672019E-02  6.41635573E-13  9.58422832E-13 -3.40522199E+00
 -1.77076742E-13 -9.72211928E-13 -1.14992948E+01 -7.46325780E-02  6.75397286E-15
  3.95091182E-14 -1.22178057E-12 -5.89217986E-15 -1.24819537E+00 -4.61858576E-13
 -4.11564835E-13  3.90688218E-11  2.12457284E-13 -1.75609343E-02  5.72861194E+00
  4.60563956E+01 -1.79404593E-01 -5.25742194E-14  9.59626519E-16  2.07036641E-02
  5.62638319E-13 -2.74173378E-13 -2.86326079E+00  5.32579040E-13  1.48867769E-12
 -2.27216440E+01  2.97703899E-02 -5.10274942E-14 -1.47161990E-15  6.79651591E-13
  4.73165553E-15  1.03284071E+00  1.54003537E-12  1.07747702E-12 -4.16911852E-11
 -2.47320859E-13  4.94093728E-02 -1.11884760E+00  1.33707111E+01  3.34066843E-01
  8.66202334E-14  3.35441867E-14  3.21779327E-02 -9.98484558E-13 -4.65588316E-13
 -9.09732907E-01 -4.00126036E-13 -6.55650419E-13 -5.09319186E+00 -2.52016510E-02
 -1.84845532E-14 -1.15795099E-14 -4.37079724E-12 -1.47555494E-14  1.44639547E+00
  8.51450840E-13  5.74558491E-13 -5.49182097E-12  1.11048486E-13  5.92894095E-14
 -4.83972141E-12 -2.38568164E-10  1.87572076E-13  5.62855666E-02  3.70174043E-15
 -5.64666320E-14 -9.77743080E-01 -1.30949818E-13 -8.45138610E-13  7.90766723E-01
 -1.51370521E-15 -4.34571571E-11  5.35460049E-15 -2.26088351E-02 -7.00947961E-15
  2.66345889E-16  8.09734147E-16  4.19161326E-13  9.04266512E-01 -7.04824608E-14
  4.80887832E-15 -2.38348997E-14 -2.20764659E-14  5.19749162E-13  2.02154495E-10
 -1.92934774E-12  5.67296697E-02 -1.02182870E-14  6.91577660E-14 -9.65203785E-01
  1.89412236E-13 -1.45420059E-12 -1.55671280E+00  1.27293034E-14 -9.13007791E-11
 -3.92666931E-15  4.96822053E-02 -6.96636832E-15  4.66335632E-16  1.00048573E-15
  3.18807419E-12 -2.41803083E+00  8.20658353E-15 -9.88217405E-15  2.56826517E-14
 -1.17923713E-13 -2.43728461E-12  4.02533494E-11  1.36611678E-12 -6.77614945E-02
  2.30202250E-15 -2.40284964E-15  1.40073190E+00 -3.11569508E-14 -1.79129523E-13
  9.62824303E-01 -1.53343245E-14 -1.25347216E-11 -3.83935813E-14  4.14773504E-02
 -4.49291588E-15 -5.07602341E-16  2.31433445E-15  6.42387864E-13 -1.52190863E+00
  5.36925266E-14  4.66800818E-15 -1.08145013E-14 -3.54509895E-14  5.15934837E-12
  1.38105564E-10  2.38455861E-15 -2.02475319E-15 -5.62855666E-02  6.69545306E-14
  4.01403015E-14  9.77743081E-01  1.62149109E-12 -2.39661726E-14 -7.90766722E-01
  2.51808115E-11  6.78889589E-14  1.90002280E-15  2.26088351E-02 -5.80611786E-16
 -1.17127664E-15 -2.21590883E-13 -3.88364856E-14 -9.04266512E-01  4.69204483E-15
 -1.51917908E-15  2.35637486E-14 -2.76322171E-12 -1.17774217E-10  9.44796873E-13
 -1.44063258E-15 -5.67296697E-02 -2.63966678E-15  4.12369716E-14  9.65203785E-01
  1.93377565E-12  4.70127670E-14  1.55671280E+00  5.25998530E-11 -6.61605181E-14
 -1.01780675E-15 -4.96822053E-02  2.81861793E-16  1.14250888E-15 -1.84592820E-12
  9.85893018E-14  2.41803083E+00 -4.78890240E-15  1.72837808E-15  6.65296817E-14
  1.18950848E-12 -2.24217638E-11 -7.11983358E-13  9.65638494E-16  6.77614945E-02
  3.16630645E-15 -5.85269293E-14 -1.40073190E+00  8.90356083E-14 -3.11591324E-14
 -9.62824303E-01  6.77143589E-12  4.38608377E-15 -2.44459876E-15 -4.14773504E-02
 -1.08435604E-16 -5.44709435E-16 -1.74646673E-13  5.69191793E-14  1.52190863E+00
  5.95111746E-16  8.39632799E-16 -1.22365340E-02  6.82529106E+00  2.06084973E+01
  3.58676812E+00 -9.66546026E-15  3.16805794E-14 -1.07004387E-01  5.32699639E-13
 -7.35914922E-13  4.36494731E+00 -5.35167615E-14 -2.47504940E-14  6.21068061E+00
  1.06153349E-01  1.90114830E-14 -1.07288810E-14  4.71148378E-12  2.23117742E-15
  1.54990875E+00 -6.23565342E-15 -2.40313445E-13 -5.93379959E-11 -2.12383347E-14
 -1.63263478E-01 -9.60139750E+00 -2.69273527E+01 -4.94372563E+00  6.27666012E-15
 -1.85693560E-14  1.44915861E-01 -1.89947651E-13  6.67359957E-13  1.49553261E+00
  2.18351865E-13 -8.32996177E-14  5.13097496E-01 -9.05088323E-02  6.85787726E-15
 -8.43393916E-15  1.30122072E-11  5.59646897E-16 -1.44191966E+00  6.14598226E-13
 -4.15591390E-13 -1.67243542E-11  2.35951671E-14 -1.61196077E-01  1.75014971E-01
  7.93584462E+00  1.65702644E+00  3.73949291E-15  1.97130532E-15  1.68421424E-01
 -2.63762203E-13  5.55092401E-14 -1.72823398E+00 -2.03227425E-13  1.35451893E-13
 -3.33581141E+00 -6.84814431E-02 -1.03354612E-14 -4.61219378E-15  4.94518126E-11
  7.58894904E-15  1.12629640E+00  2.86024816E-13 -7.10917752E-14 -8.30984875E-11
 -1.90502474E-14  7.85329258E-15 -7.34927003E-13 -4.54373753E-12 -7.85594486E-13
 -1.19589796E-01  6.28465037E-16  3.66100926E-15  4.25831282E+00  8.68907027E-14
 -4.24183518E-13  1.95000103E+00  6.90729002E-14 -1.29221681E-12 -9.78535058E-15
  6.60325661E-02  2.28650645E-15 -3.77007484E-16 -2.10086214E-15 -1.75951765E-13
  1.69161279E+00  4.40173640E-14  4.05751171E-15 -5.30847498E-16  9.47256256E-15
  9.94647525E-13  5.88082347E-12  1.09827412E-12  1.07069964E-01  1.04602768E-15
 -1.86744757E-14 -3.55506990E+00 -7.75425724E-14 -1.22338063E-13 -1.78172597E+00
 -8.35297605E-14 -3.15045581E-13  9.60501164E-15  4.07981294E-02  2.00996526E-15
  2.74854262E-16  7.56598671E-16  2.31303524E-13  2.91450671E+00  5.39261130E-14
 -3.97611554E-15  3.83749356E-15  1.25273743E-15 -1.86983553E-14 -1.43713364E-12
 -3.83539943E-13  1.28543435E-02 -3.47534745E-15 -1.94775456E-14 -7.85844599E-01
 -2.11064694E-14  2.27121820E-13 -8.71174466E-02  2.58231255E-14  6.87658369E-13
  5.48115722E-15  2.06546198E-02  1.04848387E-15 -2.82221823E-16 -1.91102340E-15
 -1.81517792E-13  4.73613947E-01 -6.18688539E-15  1.17107788E-15 -1.74418704E-16
 -7.38403586E-14 -9.00751388E-12  1.73593597E-10  6.71774860E-13  2.91347348E-15
 -1.19589796E-01 -7.93227068E-14 -1.27379036E-13  4.25831282E+00 -4.45658352E-12
  1.03362817E-13  1.95000103E+00  3.20244908E-11 -2.34958783E-13  6.45109220E-16
  6.60325661E-02 -5.83583177E-16  2.82541749E-16 -1.03764457E-12  4.63373742E-14
  1.69161279E+00  8.01349650E-16  9.26494154E-15 -1.25514983E-13  1.06004873E-11
 -1.50822990E-10  1.32589775E-13 -4.00233368E-15  1.07069964E-01 -8.95576515E-14
  3.91986832E-15 -3.55506990E+00 -5.31975412E-12 -1.84871865E-13 -1.78172597E+00
  6.37808827E-11  1.67552580E-13  2.14005712E-15  4.07981294E-02  7.46947176E-16
 -8.27305957E-16 -1.14759272E-12 -1.87365085E-13  2.91450671E+00 -2.83009547E-16
 -9.90607606E-15  1.04608043E-13  1.01627822E-12 -2.42764406E-11 -5.06294756E-13
  2.19357932E-15  1.28543435E-02  1.27916680E-13  7.88286502E-14 -7.85844599E-01
 -8.32747112E-13  1.07425904E-13 -8.71174465E-02  7.01590475E-12  7.73603849E-15
 -1.06700407E-15  2.06546198E-02  8.69839211E-16  4.65371672E-16  4.69397034E-13
 -1.14019809E-13  4.73613947E-01 -2.87265021E-17  1.90588277E-15 -3.24967766E-01
  3.00442274E+01  2.25132738E+00  1.53980899E+00  2.07150890E-14 -3.51378053E-14
  4.04516702E-01  1.52269169E-13  1.80909585E-12  1.30125381E+01 -4.28097658E-14
  1.14323282E-12  8.94472266E-01  5.99088939E-01  2.34885094E-14 -5.73264969E-15
 -1.64204178E-11  2.94600566E-16  2.01894790E+00 -1.24750004E-13  8.98819070E-13
 -5.25487990E-12 -3.01950604E-15  2.52231211E-01 -2.90153421E+01 -4.73298508E-02
 -1.51008344E+00  1.87905202E-14  2.30958389E-14  3.17665088E-01  9.90920537E-14
 -1.63629340E-12  1.38034468E+01  1.28670137E-13 -1.16485846E-12  2.74609983E+00
 -6.04650283E-01  2.07028845E-14 -1.85379060E-14  1.08856338E-11  3.10558102E-15
 -2.08073500E+00  3.43842088E-13  1.15992123E-12  1.74589253E-11 -4.89423519E-16
  1.67492741E-01  1.98484079E-01 -3.11390498E+00  2.80071971E-01 -8.96579267E-15
 -1.37375887E-15 -7.56702253E-02 -1.79150681E-13 -2.67237442E-13  7.07226345E-01
 -1.02690953E-13  1.03380820E-13  1.23484102E+00 -3.54994241E-02  2.45425047E-15
  8.41457701E-15  7.19118233E-12  3.25970497E-15 -4.61636057E-01  2.03882427E-13
  9.45812747E-14  5.80245111E-12  1.08963028E-14  3.27451720E-01  7.64421640E+00
  2.91067024E+01 -2.66810232E+00  1.80948982E-14  3.09658950E-14 -2.86811705E-01
  9.02222726E-14  1.08129858E-12  4.05984662E+00 -2.31316705E-13  8.19592179E-13
  6.00600890E+00 -1.91780581E-01  2.04985245E-14 -6.78029482E-15 -3.86865377E-12
 -1.22320752E-15  1.00332451E+00 -1.61153393E-13  4.84781500E-13  5.95896283E-11
 -3.02342758E-14 -4.51238189E-01 -7.03506175E+00 -2.46562527E+01  3.44524771E+00
  3.22211888E-14  1.64447793E-14 -2.50637660E-01  1.25884738E-13 -8.30210073E-13
  4.28912345E+00  3.76426430E-13 -8.08538469E-13  9.83402692E+00  1.78666850E-01
  2.83748097E-14 -1.55557133E-14 -7.87871606E-12  7.90111982E-15 -1.08345466E+00
  2.79555622E-13  9.07871386E-13 -3.12752046E-11  3.14753222E-14 -7.50111600E-01
  1.47035302E+00 -5.31772734E+00 -1.25930559E+00 -5.25662075E-14 -1.60029718E-14
 -1.74796338E-01 -1.14185104E-13 -2.71550398E-13  4.88108714E-01 -1.91432922E-13
  3.34668517E-14  1.81266065E+00  2.54897654E-02 -1.54238791E-14  2.99658396E-15
 -4.18865978E-11  1.96596390E-14 -4.86332113E-01  2.22338049E-13  1.86381019E-13
  4.01919955E-11 -2.35375856E-14  7.18033094E-01  2.96400675E+00  2.69042313E+01
  1.26461554E+00  2.41968266E-14  6.30357320E-14 -3.51880418E-01  4.76377738E-14
  4.32936506E-13  1.18808157E+00 -1.59260616E-13  4.65059555E-13  5.02985192E+00
 -3.57068237E-02  1.70291700E-14 -1.46498691E-14  3.06199812E-11  2.93814316E-16
 -1.63164272E-02 -8.29178529E-14  2.27822228E-13 -3.80016141E-11 -1.94462645E-14
  6.41070433E-02 -1.75364000E+00 -2.33960158E+01 -1.44183860E+00  3.63569763E-14
  1.03952144E-14 -1.21515880E-01  3.17067591E-14 -3.43778836E-13  2.95349703E+00
  2.56061866E-13 -4.71597167E-13  9.54601044E+00  3.52603396E-01  3.09414872E-14
 -2.44068189E-14  2.67570548E-11  9.66259779E-15 -1.00937289E+00  1.30547414E-13
  4.23382984E-13 -2.03601130E-11  1.88799320E-14  6.71584580E-01 -1.03748681E+00
 -3.50279169E+00  3.45198942E-01 -7.20813150E-14 -2.58060868E-14  5.33030474E-02
 -1.72301684E-14 -1.22245662E-13  7.83871255E-01 -1.31692448E-13  4.12262223E-14
  1.45548828E+00  2.62241093E-01 -1.31196351E-14  4.82241225E-15  6.40890394E-11
  2.63869123E-14 -7.55648773E-01  1.15086830E-13  8.22745899E-14 -4.43596919E-11
 -2.02211578E-14  4.68996025E-01  8.68191190E+00  5.46709807E+01 -6.71262153E-01
  1.22832183E-13  3.47143928E-13  1.55722076E-01  1.03400349E-13  3.13183833E-13
  1.79814025E+00 -3.50901037E-13  7.86746881E-13  9.55818027E+00  5.23396424E-01
  1.03884013E-13  7.71268653E-15  1.20884172E-10  2.12720008E-14 -2.93015250E-01
 -1.51344060E-13  2.67540669E-13 -3.34530875E-11 -4.77580581E-14  1.09069443E+00
 -7.32526115E+00 -5.07707247E+01  1.20575010E+00  2.02947510E-13  1.26240140E-13
  2.23852532E-01 -1.21526383E-13 -4.53497121E-13  2.91814555E+00  5.97583385E-13
 -7.53782844E-13  1.99965868E+01  9.56283011E-02  1.27745286E-13 -1.56264102E-13
  1.40637884E-10  6.40802516E-14 -3.57131707E+00  2.15195869E-13  5.78014645E-13
 -5.09022465E-11  2.80290181E-14 -8.65055176E-01  3.14243538E+00 -6.30444466E+00
 -3.68221047E-01 -2.95099046E-13 -9.43199776E-14 -1.43599818E-01  1.03079661E-13
 -1.17405636E-13 -1.17293013E+00 -3.06698532E-13  8.05600160E-14  1.41379335E+00
 -1.49960567E-01 -7.84163033E-14  4.98568516E-14 -2.61859484E-11  1.59685417E-13
  3.58176108E-01  2.24489738E-13  5.83120069E-14 -3.13420404E-12 -8.24786951E-14
 -1.13240438E-10 -1.44485291E-09 -9.72108801E-09 -4.16234645E-11  1.95034429E-13
 -1.36801021E-13 -2.39662849E-14 -2.27396895E-13  1.55138297E-13 -3.45751123E-10
 -5.48784126E-15  1.33654997E-14 -1.74215183E-09 -9.48534524E-11  1.08110954E-13
 -7.87025309E-14  6.83068663E-01  1.44560349E-04  4.05182706E-11 -1.05933894E-13
  7.61410517E-14 -2.07657447E-01 -4.39473139E-05 -2.01271063E-10  1.31812503E-09
  8.97908034E-09  4.60059834E-12  1.98188244E-13 -1.40134902E-13 -4.59335224E-11
 -7.79122397E-14  5.94669611E-14 -5.34493574E-10  8.21753116E-14 -7.17250165E-14
 -3.46672538E-09 -3.61508792E-11 -1.57486315E-13  1.09247121E-13  6.77522692E-01
  1.43386634E-04  6.17547601E-10 -2.16158729E-15  7.38489405E-17 -2.70980723E-01
 -5.73486531E-05  1.17773786E-10 -4.82391019E-10  1.06244658E-09 -9.75668795E-12
  3.94409176E-14 -2.83543379E-14  2.70629445E-11 -1.71480007E-15  1.29807826E-15
  1.75472935E-10  6.02100640E-15  3.95870492E-16 -2.39337110E-10  2.14565221E-11
  1.19856190E-13 -7.70310776E-14  1.78280984E-01  3.77302643E-05 -4.79907085E-11
 -1.02004603E-13  6.72354932E-14 -1.40068626E-03 -2.96432418E-07  2.84366493E-14
  8.42323415E-13  1.16447646E-11 -1.24624889E-15 -5.52931275E-14 -1.53200095E-13
  2.01076867E-14  6.12363780E-14  1.80073641E-13  1.97879235E-13 -3.40839690E-15
 -5.49141493E-15  2.14984511E-12  1.83114182E-14 -2.54664413E-14 -8.54109528E-14
  1.44560349E-04 -6.83068663E-01 -1.90938307E-14  2.92536478E-14  8.38164338E-14
 -4.39473139E-05  2.07657447E-01  5.99332230E-14 -5.94277895E-13 -1.03360707E-11
  7.75859180E-14 -5.84185705E-14 -1.58729570E-13 -3.55827682E-15  2.18587586E-14
  6.20256037E-14  3.29893467E-13 -2.26028040E-14 -5.28809205E-14  4.26837119E-12
  1.03281423E-14  5.11230457E-14  1.30783783E-13  1.43386634E-04 -6.77522692E-01
 -3.27949743E-13 -1.20135512E-14 -1.51249269E-15 -5.73486531E-05  2.70980723E-01
 -5.24252748E-14  2.39505133E-13 -1.58032987E-12 -5.24905723E-14 -6.91229353E-15
 -3.32081192E-14 -1.13711307E-14  1.90204609E-15  2.50697314E-15 -5.98998139E-14
  3.03313834E-15 -8.25146580E-15  4.40592192E-13 -1.79389940E-15 -4.29198974E-14
 -9.78095649E-14  3.77302643E-05 -1.78280984E-01  1.01568847E-14  2.60828305E-14
  8.39784956E-14 -2.96432416E-07  1.40068626E-03 -7.26265858E-15 -1.42487821E-12
 -9.76837920E-12  3.76698547E-14  5.35207085E-01 -6.39360291E-14 -1.40793114E-14
 -6.32084120E-01  1.02481970E-13 -4.15566213E-13 -1.81371961E-02  2.14098868E-16
 -1.76725857E-12 -2.96074775E-14  2.94966395E-01 -2.82068991E-14 -2.47709923E-13
 -7.66186819E-14 -2.78063747E-14 -2.99234918E-01  4.67632556E-14  7.88441816E-14
  2.55404074E-14 -1.08506489E-13  1.18717002E-12  8.57812896E-12 -1.44203032E-13
  5.52656843E-01 -6.58814103E-14 -2.10336005E-14 -2.11870560E-01 -3.81849574E-16
 -5.31857875E-13  2.30233794E-01 -1.61658480E-14 -3.70988062E-12 -2.89929801E-14
 -4.43667055E-01  6.36924702E-14 -2.41852390E-13 -6.87038194E-14  4.29786048E-13
 -2.95637938E-03  1.20922068E-14  9.40376209E-14  2.61873053E-14  7.36751658E-14
 -3.42034894E-13  1.50699229E-12  7.44039976E-14  1.16768618E-01 -2.57373926E-14
  2.55479000E-14 -7.64390399E-03  8.39147371E-15  7.88274308E-14  1.56631764E-02
 -1.45022144E-14 -4.45262834E-13 -7.73643945E-15  3.44947849E-01 -6.74205667E-14
 -6.59337593E-14 -1.58559978E-14  7.95886673E-15 -2.89425333E-01  5.07549954E-14
  2.54185814E-15  6.72905625E-16  2.12162483E-13  3.95192428E-12  4.87830764E-11
 -1.12033647E-13 -6.16873410E-14 -5.35207085E-01  5.84256981E-14  8.61339183E-14
  6.32084120E-01  9.17221676E-13  5.46254661E-16  1.81371960E-02  8.92621811E-12
  1.50538808E-13 -4.15290538E-14 -2.94966395E-01 -1.76831271E-13  1.96631802E-13
 -1.24289444E-13  3.95652940E-14  2.99234918E-01  5.57989504E-14 -5.70093703E-14
  3.56503918E-13 -2.98903992E-12 -4.35307211E-11  4.68884412E-13 -6.59383190E-14
 -5.52656843E-01  2.83880870E-14  2.56462945E-14  2.11870560E-01  1.51110180E-12
 -2.16489506E-14 -2.30233794E-01  1.78547987E-11  4.80208009E-14  6.38563560E-14
  4.43667055E-01 -1.65659974E-13  1.98578087E-13 -1.62313382E-12  1.25210792E-14
  2.95637941E-03  6.45688730E-14 -8.33342726E-14 -2.74652688E-13  1.22198267E-12
 -6.45657418E-12 -2.51316257E-13 -6.59751109E-15 -1.16768618E-01 -3.30391293E-14
 -1.14750502E-14  7.64390398E-03 -3.84187077E-13 -7.34652047E-15 -1.56631764E-02
  1.76804328E-12 -4.84311147E-14 -5.68625689E-14 -3.44947849E-01 -4.78857641E-14
  4.81165284E-14  9.91771071E-14  5.06630911E-14  2.89425333E-01  1.97854668E-15
  2.22514400E-15 -4.25466348E-12 -1.88663734E-10  1.98554211E-09 -4.86093918E-10
  4.66323462E-15 -8.38629352E-15  1.80870325E-11  5.76544206E-15 -2.48227860E-14
 -1.94953603E-10 -2.00140870E-15  1.36492114E-14  2.53061611E-10  2.49999067E-11
  6.32756013E-15 -1.59048758E-14 -1.82008615E-01  1.21226206E-04 -6.05255701E-11
  2.77521163E-15 -5.66291883E-15  1.04399564E-02 -6.95349674E-06  5.66767831E-11
  2.38574057E-10 -1.46759023E-09  6.19628254E-10  5.01460325E-15 -1.69405215E-14
  2.06011180E-12 -1.38963833E-14  3.79795742E-14 -1.90754029E-10  5.99245793E-15
 -3.38253910E-14  9.61107730E-10  2.10710424E-11  5.94085217E-15 -1.04757717E-14
 -5.99828363E-02  3.99513599E-05 -1.18007826E-10  3.44334828E-17 -1.52709206E-14
  1.42709963E-01 -9.50514756E-05 -5.89840880E-11  2.74791454E-10 -6.66438649E-10
 -2.23502930E-10 -1.97035963E-15 -2.61926505E-15 -4.76849545E-11  2.64597475E-15
  3.59031396E-15 -6.01762152E-11 -2.79676346E-15  1.73167443E-14  2.17309867E-10
  2.84736852E-11 -8.60711381E-15  3.98800415E-14  1.09128744E+00 -7.26848211E-04
  3.67423110E-12  2.87493452E-15 -2.39055454E-14 -4.53916534E-01  3.02329532E-04
 -1.11812275E-13 -2.39961574E-12 -3.11065109E-11 -3.87238045E-13 -4.89492002E-14
  2.70412953E-15 -4.70644487E-14 -5.55284998E-14  2.11382950E-14 -6.42282547E-13
  3.98890876E-14 -6.46776831E-15 -5.80685997E-12 -3.47498630E-14 -5.34050829E-14
  6.20802402E-15 -1.21226206E-04 -1.82008615E-01  3.15619910E-14 -2.25342495E-14
  1.00092002E-14  6.95349674E-06  1.04399564E-02 -1.41310420E-13  1.78607003E-12
  2.76728747E-11  2.83173578E-13 -5.87422714E-14  1.40155538E-14  2.16076844E-14
  1.24985988E-13 -3.11011284E-14 -1.06491011E-12 -1.05531957E-13  1.62379230E-14
 -1.12990702E-11 -1.32604347E-14 -5.48455590E-14  1.52823201E-14 -3.99513599E-05
 -5.99828363E-02  8.31898250E-13 -2.34753155E-14  5.11317505E-15  9.50514756E-05
  1.42709963E-01  8.85054317E-14 -4.50069361E-13  4.04371819E-12 -2.71321892E-14
 -2.13273919E-14  1.89032975E-15 -2.45743388E-14  1.29830219E-14 -2.62404343E-15
  1.31673989E-13  4.62980816E-14 -6.97732827E-15 -1.13228007E-12  3.78109613E-14
  1.45924535E-13 -1.79495174E-14  7.26848211E-04  1.09128744E+00 -3.04743589E-14
 -7.61586013E-14  1.05020868E-14 -3.02329532E-04 -4.53916534E-01  8.44060900E-14
  2.31823123E-12  3.30617935E-11 -5.57408481E-16 -3.49844870E-01 -2.17342286E-14
  6.93436312E-14 -2.84128836E-01  9.75449866E-15  4.92608292E-13  3.82976836E-01
  8.69029929E-15  6.11552827E-12  4.03940165E-14 -3.08670422E-01 -1.85666599E-14
  2.57030230E-15  2.42560848E-14 -6.02985776E-14 -9.08621245E-02  2.49563385E-16
  1.05002257E-15  1.37282198E-15  1.80457528E-13 -1.59645424E-12 -2.93451342E-11
  2.38790480E-13 -3.65659183E-01 -2.32654691E-14 -2.86160526E-14  7.14876426E-01
  2.68362147E-14  9.42497427E-13 -8.73669589E-01 -2.27653536E-14  1.21003953E-11
  4.65763019E-14 -3.43847364E-01 -1.12401991E-14  5.40191761E-16  2.04971963E-15
 -9.58987210E-13 -1.59078434E-01  9.59410355E-15 -2.72554526E-15 -2.09228766E-14
 -1.35680322E-13  6.69936581E-13 -4.49179076E-12 -1.55366487E-13 -1.08350368E-01
 -1.09034621E-14 -3.25807643E-14  6.87066274E-02  1.04364853E-15 -1.62508116E-13
  3.86030435E-01  4.26105140E-15  1.26978772E-12  1.73086110E-15  1.00415681E+00
  3.41787408E-14  1.15135137E-14 -1.64692491E-13  1.51495116E-14 -5.64644366E-01
 -7.81996285E-15 -4.00474382E-15  6.94071296E-14 -6.83311517E-14 -9.01439832E-13
 -1.31425971E-11 -5.19841699E-14 -3.49347104E-14  3.49844870E-01 -3.51696296E-14
  3.53319842E-14  2.84128836E-01 -1.85204686E-13  3.13379138E-14 -3.82976836E-01
 -2.45832551E-12 -1.99335694E-14 -1.02883691E-14  3.08670422E-01  2.45469998E-15
 -1.04861471E-15  3.78977981E-14  1.19187534E-14  9.08621246E-02 -3.46200041E-15
 -7.09352179E-16 -5.26402975E-14  6.02478298E-13  1.18316918E-11 -1.40051138E-14
 -2.12168017E-14  3.65659183E-01  3.27842806E-14  5.53068990E-15 -7.14876426E-01
 -4.28711459E-13 -6.00009652E-14  8.73669589E-01 -4.70106289E-12  8.49273969E-15
  1.64672296E-15  3.43847364E-01  5.66555187E-16  4.36471048E-15  3.68860052E-13
  8.46976437E-15  1.59078434E-01  5.45420238E-15 -1.18314725E-15  4.08790214E-14
 -2.11914654E-13  1.59988673E-12  3.28959730E-14 -1.32032167E-14  1.08350368E-01
  8.24176016E-15  4.61750225E-15 -6.87066274E-02  5.49811029E-14  1.79543505E-14
 -3.86030435E-01 -4.27022647E-13  2.12246994E-14  3.30383297E-14 -1.00415681E+00
  4.56341984E-14 -2.20379948E-14 -2.18322743E-14 -1.85649765E-14  5.64644366E-01
 -1.80309798E-14  8.90787084E-15 -4.51905665E-13 -8.34745371E-12 -8.46486135E-11
  5.33503085E-13 -1.92990353E-01  1.51542112E-14 -4.83234256E-13  3.60823600E-01
 -2.32594441E-14 -1.64923026E-12 -1.03984453E-01  5.55025274E-14 -1.54701796E-11
  7.30227549E-14  4.34937616E-01 -3.91889067E-14 -8.23024721E-15 -4.03156452E-14
  2.61166580E-13  9.03612144E-02  1.33312373E-14  5.99860648E-15  1.90493427E-14
 -5.45977434E-13  5.78120481E-12  7.50174197E-11 -1.47978223E-12  1.31372682E-01
 -2.37707951E-14  3.68114166E-13 -6.70748897E-01  4.76759369E-14 -4.21704034E-12
  7.48037161E-02 -6.97657342E-14 -3.15201478E-11  5.52963022E-14  1.57195150E-01
 -1.32415595E-14  6.06275152E-15  3.82325094E-14  2.76930671E-12 -3.02016422E-01
  2.09600230E-14 -5.66442089E-15 -1.93197467E-14  2.23460076E-13 -1.45246394E-12
  1.18833880E-11  7.79638451E-13 -1.26051791E+00  8.72307434E-14 -3.17626703E-13
  1.09077685E+00 -7.64322849E-14  4.86986235E-13 -1.97335940E-01  3.46170916E-14
 -3.54082615E-12  2.40941443E-13 -1.15711334E-02  5.60731264E-15 -4.41556435E-15
 -5.16559729E-15 -5.58968039E-14 -2.55254185E-01  9.11984541E-15  2.45555718E-15
  3.46221282E-15 -2.01551353E-13 -2.78432506E-12 -1.65923502E-11  7.43383485E-14
 -2.88314110E-14 -1.92990353E-01 -1.23986884E-13  6.24266526E-14  3.60823600E-01
 -7.93772753E-13 -4.43621579E-16 -1.03984453E-01 -3.15414358E-12 -1.04703963E-15
  4.17181074E-14  4.34937616E-01 -5.71526627E-15  4.13320662E-15  2.41560966E-15
  2.16420839E-14  9.03612144E-02  3.34934498E-15 -3.37180636E-15 -9.72754109E-14
  2.23750547E-12  1.53650793E-11 -2.42429902E-13  1.54130790E-14  1.31372682E-01
  1.10351768E-13 -8.29624809E-14 -6.70748897E-01 -1.52654397E-12 -8.84166864E-15
  7.48037161E-02 -5.79010051E-12  9.86974587E-14  3.25841825E-14  1.57195150E-01
  7.83549388E-15 -4.97157426E-15  6.49308583E-13 -2.21220505E-14 -3.02016422E-01
 -3.72173088E-15  4.86856865E-15  3.69539906E-15 -1.79530943E-13  1.67781623E-12
  1.38988896E-13 -8.61932167E-14 -1.26051791E+00 -1.33906906E-13  7.42442473E-14
  1.09077685E+00  1.12186690E-13 -4.76876961E-15 -1.97335940E-01 -4.24043802E-13
  1.64535912E-13 -2.91623683E-15 -1.15711334E-02  3.45606904E-15 -1.05085482E-15
 -7.87182629E-14 -2.11503048E-14 -2.55254185E-01 -6.36075918E-16 -1.29617522E-15
 -2.79270499E-01 -6.57077600E+00 -5.34316666E+00 -8.19212029E-01  1.33783613E-15
  6.67829818E-15  5.53876895E-01 -4.51410598E-14  7.20482839E-14 -4.26155964E+00
 -3.06493037E-14 -9.05061665E-14 -2.07994754E+00 -1.70670395E-01  3.98024983E-14
 -3.81832131E-16 -3.02656525E-12  3.47370424E-14 -9.78596153E-01 -8.20725670E-15
  8.59120795E-16 -8.63054037E-12 -1.49209158E-14  1.35201640E-02  8.18200339E+00
  7.81727386E+00  1.35685339E+00  7.97099464E-15  7.69520794E-14 -5.77184046E-01
 -2.11753153E-14 -9.54150480E-14 -2.54698785E+00  4.99514973E-14  1.39745587E-13
  8.68371828E-01  2.08841477E-01 -4.04255180E-14  6.19230003E-14  1.20971825E-12
 -2.49424713E-14  2.69788208E-01 -5.99515551E-14  3.76528938E-14 -1.17452680E-11
  1.51082526E-14 -2.21856097E-01  2.95033866E-01 -3.21310714E+00 -4.38207266E-01
 -1.09133724E-13  9.28317353E-14 -3.53121510E-01  1.18141576E-13 -7.54198308E-14
  4.13756722E-01 -3.45105298E-14 -3.58660522E-14  1.52921175E+00  7.63886303E-01
 -7.62959064E-14  1.41584285E-14 -3.24523021E-11  3.86924158E-14 -6.33497345E-01
 -4.99297221E-15  2.65532892E-14 -3.00721743E-12 -1.64071301E-14  6.42829019E-01
  8.32469546E+00 -2.29558715E+01 -7.34436069E-01 -2.47763515E-13 -2.18546288E-13
  8.19960947E-01  2.56708388E-13  2.48152747E-13  1.71180007E+00 -1.19139190E-13
 -2.37913083E-13 -4.10812397E+00 -2.94463826E-01  3.79201667E-13  2.44347538E-13
 -3.60146472E-11  9.74615585E-14  1.89976516E-03 -5.07758165E-14 -7.89347163E-14
  2.23515465E-11 -4.42888566E-14  3.57569927E-01 -6.58241623E+00  1.62252075E+01
  1.13547243E+00 -1.59865732E-13 -2.35471018E-14 -7.25096212E-01 -1.72578416E-13
 -1.53740342E-13  5.47469172E+00  9.14273689E-14  2.92781343E-13 -9.41080178E+00
 -3.95929681E-01 -9.63804055E-14 -7.89628045E-14  2.25213358E-11 -1.01771000E-13
 -1.43145691E+00 -6.82595406E-14  4.99158461E-14 -2.34443880E-11  5.21422379E-14
  1.32874767E-01 -2.82177559E-01  5.81036357E+00 -3.82713150E-01 -6.48224884E-13
 -1.62945674E-13  6.39281511E-01  5.50583945E-13  1.49784788E-13 -1.80039053E-01
 -1.43795562E-13 -1.34212108E-13 -1.82016269E+00 -5.90928518E-01 -1.38598157E-13
 -7.36993175E-14  2.45850946E-11  6.37249491E-14  1.17580860E-01 -5.88635801E-14
  1.77808653E-14 -2.05476527E-11 -2.54030304E-14 -4.90307341E-11 -1.56198710E-09
 -7.57869929E-12 -4.03888433E-11  6.48698112E-15  2.26325763E-14 -4.46009100E-11
 -2.59425132E-14 -1.47573300E-14 -5.81999470E-10  2.57107046E-16  1.78190883E-14
  6.54164370E-12 -3.76828036E-11 -1.29481143E-14 -1.42149351E-14 -9.16074886E-01
 -1.42940167E-04 -7.56877484E-11 -1.77528344E-15  1.75393985E-14  5.45447421E-01
  8.51091398E-05 -2.69067973E-12  1.42850833E-09 -6.80507909E-11  1.94597057E-11
 -1.52713020E-15  3.53777858E-14  2.50815853E-11  2.08187104E-14 -3.34123161E-14
 -7.90301473E-10 -3.64990254E-15 -1.84657574E-14 -1.64422222E-10  5.81301978E-11
 -1.84322267E-15  2.37837373E-14  9.47086693E-01  1.47779109E-04  1.68904105E-10
 -1.44932007E-14 -2.21535830E-14 -5.89643325E-01 -9.20052679E-05 -2.08309198E-12
 -3.34024038E-11  1.87572165E-10 -2.09506504E-12  6.55120662E-15  5.48358944E-15
  1.16849121E-11 -2.59194672E-15  4.38549369E-15 -4.74710599E-11  6.23417493E-15
  1.20643450E-14 -6.45046337E-11  3.09259661E-11  1.87712989E-15  1.00107201E-14
 -8.44686142E-02 -1.31800991E-05  1.57268101E-11 -2.83709865E-15 -1.53854592E-14
  1.28386775E-01  2.00328896E-05  6.58765401E-14  6.12760525E-13 -1.20696013E-11
 -7.48460748E-14  3.03991039E-14  2.68853570E-14  1.19579012E-13 -6.45769887E-14
 -8.76370336E-15  4.48446044E-14  1.16945784E-14  4.24226850E-14 -2.25182366E-12
 -4.70091204E-14 -3.98254803E-14 -1.78276877E-14  1.42940167E-04 -9.16074886E-01
 -9.09212269E-15 -1.41666054E-15  3.45272376E-14 -8.51091398E-05  5.45447421E-01
  1.57591369E-14 -4.48088250E-13  1.01827668E-11  7.27659523E-14  1.08752827E-14
  3.94413350E-14 -1.22055945E-13  4.27147839E-14 -5.66895201E-14  5.76248900E-13
 -1.92783031E-14 -5.41783001E-14 -4.45677145E-12 -6.09052102E-14  1.32735435E-14
  3.56615844E-14 -1.47779109E-04  9.47086693E-01 -3.30896134E-15 -3.04086964E-14
 -3.62578148E-14  9.20052679E-05 -5.89643325E-01  3.72573564E-14 -1.71832881E-13
  1.88336070E-12  3.91221928E-15  4.58735416E-14 -1.55103636E-14  3.71478048E-14
 -3.13674500E-14  2.46499381E-14  7.07358938E-14  2.36826786E-14  2.56130276E-14
 -5.50290690E-13 -5.46958791E-14  1.01438261E-14  2.17597173E-14  1.31800991E-05
 -8.44686142E-02 -2.26354944E-14 -5.78454995E-15 -3.23228538E-14 -2.00328896E-05
  1.28386775E-01  2.59304323E-13  1.18559331E-12 -7.17773843E-11 -1.35465645E-13
  2.87713508E-01  1.12552911E-13  2.90221294E-13  7.20182962E-01  5.49995736E-14
  4.30630670E-13  6.74280700E-01  1.90866244E-13 -1.32283244E-11 -6.03103025E-14
 -1.46252344E-01 -7.40897800E-14  3.50515769E-15  2.55177270E-14  1.16683328E-13
  7.54965662E-01  1.70593444E-13 -2.74377185E-16 -1.98659526E-14 -2.07076399E-13
 -1.31258335E-12  6.16042024E-11 -1.98320007E-13  8.91669152E-01  1.93608576E-13
 -3.77788677E-13 -1.65760297E+00 -3.10409806E-13  1.83805354E-12 -7.49574686E-01
 -2.22959672E-13 -2.67279762E-11 -3.45782969E-13  8.91880653E-01  1.82511374E-13
 -2.13853433E-15 -2.91377015E-14  8.48408689E-13 -1.36634038E-01 -8.11581205E-14
 -1.69670345E-16  2.42044643E-14  2.50205054E-13 -1.28096031E-12  1.09243740E-11
  2.70324707E-13 -3.22838193E-02 -1.67094639E-14  3.51353134E-15  1.04477090E-01
  4.29059492E-14  5.92118709E-13  3.14777654E-01  9.81337341E-14 -3.22800240E-12
 -2.16010991E-13  3.54674623E-01  8.31039405E-14 -1.52575857E-15  4.37274647E-15
 -1.29560802E-13 -3.58568857E-01 -1.02610639E-13  8.13514241E-16 -7.36350439E-15
  1.74563245E-14 -6.56088232E-13  6.80419288E-12  1.90657151E-13  1.03861898E-13
 -2.87713508E-01 -9.56646663E-14  1.09587971E-14 -7.20182962E-01  3.09446662E-14
  1.00081278E-13 -6.74280700E-01  1.20765657E-12  1.44226200E-13 -7.80646659E-14
  1.46252344E-01 -3.19583879E-14 -4.80783959E-14 -4.52197530E-14  1.27292567E-13
 -7.54965662E-01  1.93283378E-14  2.59380523E-14 -1.93211293E-13  6.27100899E-13
 -4.98000970E-12 -2.56021746E-13  1.87784428E-13 -8.91669152E-01  5.15608891E-15
 -2.48142664E-13  1.65760297E+00 -2.23209666E-13 -1.10287283E-13  7.49574686E-01
  2.84382115E-12 -7.06195351E-14  1.78081652E-13 -8.91880653E-01  3.56545569E-14
  4.32551120E-14  2.78434069E-13 -1.02557267E-13  1.36634038E-01 -2.13857251E-14
 -2.42308291E-14  4.00773166E-15 -1.18757649E-13 -1.71754527E-12  8.48487579E-14
 -2.45069304E-14  3.22838193E-02 -2.24558692E-13  5.16492537E-14 -1.04477090E-01
  2.86684609E-13  5.92516849E-14 -3.14777654E-01  5.55719370E-13  1.10528348E-13
  7.13083874E-14 -3.54674623E-01  5.43278515E-16  5.12751276E-15 -1.09588689E-13
 -8.14837831E-14  3.58568857E-01  3.06655020E-15  7.50633861E-16  5.60466358E-01
  5.48629213E+00  5.99383173E+00  6.33331494E-01  5.12222931E-14  7.59818595E-13
  1.05656633E-01 -5.02532669E-13 -2.55563606E-12  2.21416789E+00 -2.20604625E-13
 -3.69954161E-13  6.28013860E-01 -1.44219157E-01 -8.68161082E-14 -7.70043652E-13
 -2.02305938E-11  2.24242398E-14  7.12256357E-02 -2.55482221E-13 -4.18264532E-13
 -7.00108467E-12 -1.86096764E-14 -2.16987143E-01 -3.78995149E+00 -6.10071544E-01
 -6.76568438E-01 -2.21606350E-13 -4.07690691E-14 -5.11204013E-01  6.54810608E-13
  1.63321894E-12  5.07776410E+00  2.37994290E-13  2.73572237E-13  5.01506388E+00
 -3.87487921E-01 -2.25674670E-13 -2.83546441E-13  2.74163369E-11 -2.01008020E-14
  3.41769429E-01 -1.14921731E-13 -1.52210240E-12 -1.68025700E-11  1.83514419E-14
  4.73038919E-01 -1.54990597E+00 -5.61613030E+00  2.47066872E-01  4.25956887E-14
 -4.19447195E-13 -1.25784098E+00 -2.70526928E-14  7.15035020E-13  2.65228627E+00
 -5.74658496E-14  1.42245102E-13  2.05779045E+00 -5.26304173E-01 -8.42422767E-14
 -4.81304982E-14  8.47311797E-12 -2.18837048E-17 -7.73547750E-01  7.75871329E-14
 -3.72689001E-13 -1.38951687E-11 -1.02536599E-15 -3.19401443E-14 -9.18374045E-13
 -3.77427283E-11  1.67515705E-13  1.00732475E+00  9.82204628E-14  5.27415743E-14
 -3.87459554E+00 -2.80051983E-13 -2.50835993E-13 -7.74804452E-01 -2.28587485E-14
 -6.75257054E-12 -2.33091860E-14 -1.05297163E+00 -9.88539102E-14  5.20508035E-15
  1.33864127E-14  1.08681332E-13 -8.14769768E-01 -2.44182602E-14 -3.71743588E-15
 -7.19996045E-15 -3.72419974E-14  2.87266349E-13  3.13375493E-11 -5.26115013E-13
 -2.16531084E-01  3.28935183E-14 -1.19614640E-14  2.73077546E+00  1.32547828E-13
 -4.13358588E-13  6.36964831E-01  2.22677861E-14 -1.48512788E-11 -4.31375274E-14
 -5.37299003E-01 -1.38365394E-14 -7.34977627E-15 -1.74576284E-14  4.39926969E-13
 -2.24333007E+00 -1.79288909E-13  5.02216043E-15  7.80883945E-15  2.78482421E-14
 -3.35175496E-13  6.93830459E-12  2.95860609E-13 -5.60445367E-01 -7.08762949E-14
  1.97868881E-13  9.96441104E-01  1.10755972E-13 -2.09836635E-13  1.52760290E-01
  5.58729451E-15 -2.20521959E-12 -9.37203543E-15 -9.55434952E-02 -1.82185541E-15
  8.27461271E-16 -8.04235652E-15  1.15834253E-13 -4.98275494E-01 -4.62360743E-14
 -1.61287837E-15  7.36583916E-16 -2.87984782E-13 -2.87424099E-12 -1.25162521E-10
 -3.51215676E-13 -1.09867373E-13  1.00732475E+00  6.49007533E-14  3.03046277E-13
 -3.87459554E+00 -3.94005181E-13 -3.93035093E-14 -7.74804452E-01 -2.24126150E-11
  3.23115423E-13  8.80075113E-14 -1.05297163E+00  6.12426514E-15  1.27893784E-14
  4.52314102E-13  5.53299727E-15 -8.14769768E-01 -5.51517544E-15 -1.17343346E-14
 -2.67170053E-13  7.72827771E-14  1.03627308E-10 -4.65052308E-13 -1.29588139E-14
 -2.16531084E-01  1.63358676E-13 -1.33725660E-13  2.73077546E+00 -2.38775988E-12
  8.19855130E-14  6.36964831E-01 -4.94835845E-11 -1.97872782E-13 -5.93481652E-16
 -5.37299003E-01 -6.66975584E-15 -1.38511983E-14  1.28724687E-12  2.22198539E-13
 -2.24333007E+00  5.45644899E-15  1.23802961E-14 -1.55603172E-13 -3.24572945E-13
  2.34227224E-11  4.75914892E-13  6.20099429E-14 -5.60445367E-01  1.18084886E-12
 -1.11818436E-13  9.96441104E-01 -1.80293294E-12 -6.47560303E-14  1.52760290E-01
 -7.30248105E-12  3.57430795E-13 -1.31231646E-14 -9.55434952E-02 -4.63024078E-15
  5.60419386E-15  5.58098200E-13  8.91083112E-14 -4.98275494E-01  3.97558047E-16
 -3.97573136E-15  6.65607058E-01  2.34184948E+01  8.14012595E+00  2.07834409E-01
  4.24926533E-14 -3.06837591E-13 -6.85777995E-02  5.21104244E-16  1.76229907E-12
  1.08557069E+01 -1.54934556E-13  6.96848848E-13  2.36160198E+00  1.29903692E+00
  1.55011662E-13  3.87980788E-13 -1.92708948E-11 -3.42721582E-18  1.53267993E+00
 -1.96433235E-13  5.80647463E-13  2.26991308E-11 -7.43709828E-15 -6.14225111E-01
 -2.29620048E+01 -8.67543270E+00 -4.50948993E-02 -2.92927927E-13  1.81910662E-13
 -2.20154726E-01  3.42106746E-13 -1.47615391E-12  1.12733714E+01  1.82709244E-13
 -7.00678062E-13  1.95306401E+00 -1.24878689E+00  2.78368136E-14  3.40035785E-13
  1.77495039E-11 -7.74404352E-15 -1.94580859E+00  1.79680955E-13  9.50898698E-13
 -1.97950221E-11  8.96395650E-15 -1.27861848E-01  5.68605985E-01 -1.37236334E-02
 -1.56172009E-01  1.04058486E-13  1.56854267E-13  3.38142228E-01 -1.85840983E-13
 -3.50524635E-13 -2.26195076E-01 -6.96691300E-14  5.86886080E-14  9.99828334E-02
  9.15759705E-02 -5.55805314E-15  7.30960103E-14 -4.53302641E-12 -1.66065850E-14
 -1.72498330E-01  1.52443442E-13  1.27330885E-13  7.08543512E-12  8.04421807E-15
 -9.74350599E-14 -4.28543791E-12 -2.81750176E-12 -1.83537681E-13  9.82467604E-01
 -1.53663314E-15  4.73897548E-14  1.38393882E-01 -6.01333462E-14 -1.93367765E-12
 -4.07612974E-01 -1.37407359E-14 -7.28473701E-13 -1.41716889E-13  1.26911077E+00
 -2.70650385E-14 -1.69529436E-15  3.05837345E-15 -3.12367690E-13 -2.95055980E-01
 -1.21818898E-14  2.56004135E-15 -4.00950728E-15  6.82641914E-15  4.21069110E-12
  2.80801031E-12  1.94724921E-13 -1.04302161E+00  1.11555424E-14  7.94317959E-14
  1.97267836E-02  4.26054177E-14 -2.08044792E-12  4.46776161E-01  1.06469167E-14
 -7.76036704E-13  1.87928447E-13  1.24265069E+00 -2.21450030E-14 -2.69347274E-16
 -5.37649734E-16  4.18705717E-13 -4.03030187E-02 -3.67814524E-14 -1.12288538E-15
  3.45601629E-15  1.40642238E-14 -1.21907120E-13  1.36497753E-13 -2.80370686E-14
  7.56001580E-02 -6.94666615E-15 -4.44896251E-14 -1.49076440E-01  1.61975325E-14
  2.34944125E-14 -5.57054764E-02  2.67778497E-15 -5.51424593E-14  4.97044688E-15
  1.95484862E-01 -5.23238372E-15 -2.01408982E-15  1.24562362E-15  3.52693249E-14
  3.10936499E-02 -8.11694598E-15  2.53231623E-15 -1.11970142E-15 -3.12387243E-14
 -2.16957458E-12 -5.04909853E-11 -2.79444498E-13  1.94717298E-14  9.82467604E-01
  4.18872645E-14 -4.99218987E-14  1.38393882E-01 -8.00980080E-13 -3.10926918E-14
 -4.07612974E-01 -9.44523139E-12 -1.10751704E-13  6.85525010E-15  1.26911077E+00
 -1.08306500E-15  2.24607456E-15  1.40597568E-14 -2.56102488E-14 -2.95055980E-01
  1.44807143E-15 -5.18250175E-15 -4.49563803E-15  1.53204262E-12  4.39006140E-11
  6.12727488E-14 -2.18944844E-14 -1.04302161E+00 -4.68960735E-14  5.17549080E-14
  1.97267836E-02 -7.53527537E-13  3.01270421E-14  4.46776161E-01 -1.85774488E-11
 -2.48739951E-14  6.01313166E-15  1.24265069E+00  2.43337260E-15 -1.40482514E-15
  7.71655342E-13 -2.65652899E-14 -4.03030187E-02 -8.54324152E-16  5.62871950E-15
  6.70391196E-14 -5.28061732E-13  7.26004404E-12  1.32723957E-13  2.20285572E-15
  7.56001580E-02  2.74464812E-14  3.17860707E-15 -1.49076440E-01  1.05455802E-13
 -1.86045100E-15 -5.57054763E-02 -2.10626997E-12 -8.77751237E-15  1.58874303E-15
  1.95484862E-01 -2.93883019E-15  2.70282202E-15 -3.67570583E-14 -1.28578485E-15
  3.10936499E-02  1.84600184E-15 -2.81500628E-15 -6.25759380E-01  3.50736849E+00
  4.56327502E-01  2.94435755E-01 -3.92456999E-14  6.18860137E-15  4.69838220E-01
 -4.34979294E-15  1.39779674E-13  2.80354000E+00  2.22271452E-15  5.17795025E-14
 -1.72282705E-01  1.39668068E+00 -4.31805409E-14  5.30560471E-14 -2.78025449E-12
 -1.09991958E-15  2.53508556E-01 -1.05618822E-14  4.92202453E-14  2.79705098E-12
 -5.80752602E-16 -1.94211137E+00 -2.79001313E+00  2.67515119E+00 -4.58255334E-01
  1.63019572E-14 -3.75586874E-15  8.26718755E-01  3.98169461E-14 -1.32208683E-13
  1.29649058E+00  6.14719787E-16 -4.80429271E-14  1.86298651E+00  5.74900021E-01
 -5.45043958E-14  5.43334924E-14  2.99661156E-12  4.93253182E-16  1.09049963E+00
  2.76977484E-14  6.77350731E-14 -7.90635173E-12  1.20648163E-15  2.91456073E-01
 -1.37199430E+00 -2.32762824E+00  8.97278055E-02  9.27245260E-15  8.71798993E-15
 -1.45089642E-01 -1.65096414E-14 -2.08364440E-14  1.03780107E+00 -7.50879795E-15
  3.34145528E-15  7.87959455E-01 -4.44582190E-01 -1.76881757E-14  9.39548151E-15
  8.17031596E-13  3.67562793E-16 -5.96715392E-02  2.23129428E-14  5.79088766E-15
 -7.15389478E-14  9.51302294E-16  1.74435762E+00  6.12235178E+00 -8.02756656E-02
 -2.23363019E-01 -3.17832785E-14 -2.02335071E-14  2.00660741E+00  2.54039688E-14
  1.30768734E-13  1.56020241E+00  2.84745636E-14  8.97162799E-14 -2.35380410E-01
  7.62994207E-01 -2.70887946E-14  1.03088776E-14 -1.78603266E-12 -1.34148617E-15
 -9.49702412E-03 -1.93675583E-15  6.41670863E-14  2.58422575E-12  1.92191838E-15
 -4.79164754E-01 -6.59345465E+00 -1.17607316E+00  4.57144800E-01  2.81591608E-15
  2.14895581E-14  1.99972713E+00  2.51493174E-14 -1.23391421E-13  1.64785038E+00
 -3.21328114E-14 -9.69913477E-14  3.05116096E-01 -1.59584242E+00 -3.58037830E-14
  1.43757603E-14  1.47909194E-12  1.13432237E-15 -1.32378778E+00  5.08295402E-14
  7.25680662E-14 -4.50957296E-12 -2.89941319E-15 -3.99426096E-01  1.63058057E+00
  4.80792026E-01 -1.77835275E-01  1.34077376E-14  5.87646996E-15  1.44419132E-01
 -3.28431609E-14 -2.11475995E-14 -1.27369906E+00  3.77652593E-15  1.68056204E-14
 -2.64586941E-01  4.25283794E-01 -5.99486719E-15  3.97434640E-15 -9.47090895E-14
 -2.28365886E-15  2.65509437E-01  2.48196078E-14  4.04656843E-15  1.06623986E-12
  3.00504784E-15
Beta MO coefficients                       R   N=        4761
  1.84892066E-01  3.16438440E-01  3.26584646E-01  1.91632718E-02  4.45123517E-17
 -1.00104004E-16  1.10460578E-02 -5.83891269E-16  9.70340661E-16  2.11550142E-02
  8.88121471E-16  2.04033363E-15  4.73753283E-02  1.20151537E-03 -5.06888796E-17
  3.59001468E-17  2.62255351E-12  1.45148112E-17  9.55301077E-04 -1.59716682E-16
  9.09061509E-16 -4.80605874E-11 -7.75497156E-17  1.89274296E-01  2.65613719E-01
 -6.53641657E-02 -2.75377802E-02 -9.78247010E-17  1.04629094E-16 -1.00919737E-02
  5.56040504E-16 -1.06562008E-15  5.37185726E-03 -1.50542304E-15 -2.47967516E-15
  5.39161242E-02  9.29756014E-04 -6.45959723E-17  9.74242707E-17  1.98032943E-12
 -2.46791208E-17 -1.14470863E-02 -5.54541853E-16  4.32933525E-16 -3.86654347E-11
  3.20857619E-17  2.44330126E-02  4.52926816E-02 -1.49879387E-02  6.38913374E-03
  4.96075147E-17 -7.26891150E-17 -2.09162260E-03 -5.73202325E-17  8.33618699E-17
 -1.18915444E-02  1.41742439E-15  4.65173310E-16  3.48772099E-04  1.26032227E-03
  6.30718844E-18  6.15220039E-17  1.10253934E-12  1.68907985E-17  1.39935452E-03
 -3.43079509E-16 -2.99246822E-16 -1.01004201E-11  4.23642015E-17 -6.02089704E-02
 -1.29522790E-01 -1.14973988E-01  3.92555542E-03 -1.94553686E-17  8.24019829E-17
 -2.25523310E-03 -1.90872785E-16 -1.03424388E-15 -7.22302231E-03 -2.48783855E-15
  6.62766200E-16 -4.63563794E-03 -6.74479838E-04  3.34796735E-17 -5.12441774E-17
 -1.22310537E-12 -2.96228867E-17  1.51302295E-04 -3.22149495E-16 -2.08049163E-16
  2.66532338E-11 -4.41304091E-17 -1.87317262E-02 -1.80790424E-02 -6.01900466E-02
 -1.62307554E-02  4.88391735E-17 -8.83875319E-17  6.67794098E-03 -1.16751909E-16
  6.97456210E-16  5.99039889E-03  3.11785894E-15 -9.65373913E-16 -2.45567089E-02
  1.97016963E-03  6.90122033E-17 -5.22375280E-17  1.12674821E-12  2.77582592E-17
  3.77839632E-03 -2.71590408E-16 -8.59222827E-16 -5.26301816E-12  4.96456578E-18
  2.38129403E-01  5.12929313E-01  4.25639035E-01  1.66265939E-02 -8.90339320E-18
 -1.35653439E-16  1.28330274E-04  5.34970457E-17  4.57419439E-16 -1.07975736E-03
 -1.16547788E-15  4.00982002E-16 -1.31207747E-02  5.99552192E-04 -5.49900167E-17
  6.00580013E-17  5.28957901E-12  3.21259486E-17  1.49469927E-03  3.80396967E-16
 -4.38383672E-16 -1.07573296E-10  4.67159998E-17 -3.65118550E-01 -4.54973602E-01
  3.34143550E-01  2.03931753E-02  2.36511850E-16  1.36085361E-16  3.99381760E-02
 -1.82096557E-15 -2.68356385E-16  1.63880394E-01 -8.68521607E-15 -3.41808630E-15
  1.22562870E-01  3.75754660E-02  1.75495213E-16  7.14623260E-17  7.13001287E-12
  1.79971587E-16  3.19159226E-02 -2.68375633E-15 -1.63136779E-15  5.82859000E-11
 -2.49280844E-16  3.75051706E-01  4.91747658E-01 -2.25794310E-01 -2.24202726E-02
 -3.51818601E-16 -2.67347954E-16  3.52306295E-02  1.44076355E-15  1.52858604E-15
  1.81295672E-01  9.78786729E-15  4.48476396E-15  1.02361120E-01 -3.66562127E-02
  3.82551396E-17  2.31069670E-16 -6.81042182E-12 -7.95687457E-17 -1.58468905E-03
 -1.07626858E-15  1.67108082E-16 -6.23727168E-11  1.19605231E-16 -6.82292672E-02
 -2.00161579E-01 -1.67346158E-01  1.38357279E-03 -9.09907761E-17  5.27814163E-17
 -3.95751776E-03  2.97445886E-16 -5.54728508E-16  3.32767997E-02 -3.07330166E-15
 -1.52710822E-15  3.27269349E-02 -9.39992498E-04  1.49804654E-16 -1.91689044E-16
 -3.49876293E-13 -1.50178207E-16 -2.28055020E-02  6.39901537E-16  5.83017893E-16
  3.05003817E-11  4.78883950E-17 -1.29009728E-02  5.95111193E-01  1.37476309E+01
  2.10204515E+00  1.45747615E-15  1.81747503E-15 -1.25871508E-03  5.22801215E-16
 -8.89051284E-15  2.09733104E-01 -2.17631245E-15 -9.32776293E-15  2.88093958E+00
  5.75314949E-03  6.41488646E-16 -9.59625394E-16  7.42033114E-12  1.33260117E-16
  5.45311432E-02  1.18706798E-15 -3.86920276E-15 -7.41649553E-11  4.14630490E-16
 -2.97025964E-02 -4.67581196E-01 -1.21210490E+01 -4.92949030E-02  1.16260535E-15
 -5.20787107E-16 -6.55293391E-03 -2.95310146E-15  6.43892742E-15  2.40503241E-01
  4.21502318E-15  8.20591306E-15  5.12963991E+00 -8.19108835E-03  1.05452499E-15
 -6.42066623E-16  2.64008205E-12  4.67104880E-17 -1.77666210E-01 -8.95983990E-16
 -6.29455809E-15  2.32353884E-11 -1.45170070E-16 -1.54023530E-01  2.33689063E-01
 -1.66446682E+00 -2.09828623E+00 -1.81950539E-15 -1.10288986E-15  4.28858891E-02
  2.41021389E-15  1.31833651E-15 -3.46254119E-02 -4.88944249E-15  1.75844100E-15
  8.38578423E-01 -1.18266406E-02  1.37858517E-16  1.77244305E-16  6.78279074E-12
  5.82119403E-16 -2.15226293E-02 -2.75529941E-16 -1.55893035E-15  3.96690658E-11
 -2.87489413E-16  5.97192577E-02  3.87650753E-01  3.25274823E+00 -1.01811683E+01
 -3.69024857E-17  1.31409962E-15  3.55273200E-02 -4.88764988E-15 -1.65498465E-14
  3.06806216E-02  1.23922530E-14 -2.37974595E-15  3.42202137E-01  1.13433645E-02
 -9.01865883E-16 -4.02467205E-16  8.52422902E-12 -1.74731520E-16 -6.32480415E-02
  1.95952805E-15 -4.20282115E-15 -1.86789881E-11 -1.60885316E-16  7.35389433E-02
 -5.72124477E-02 -3.13488272E+00  1.55820941E+01  5.94913842E-16 -5.23292147E-16
 -2.14498733E-02  1.93528223E-16  8.85772990E-15  1.21155139E-01 -1.70417627E-14
 -1.96059100E-15  1.77269009E+00  9.98222538E-03 -5.14401431E-16 -6.40729831E-17
  1.05592066E-11  2.74431750E-16 -1.74295873E-01 -6.13742688E-15 -1.73844797E-14
 -6.64646185E-11  1.52564158E-16  2.08719216E-01  1.84399676E-01 -1.53453304E+00
 -5.13489432E+00  5.68727524E-17 -7.02599255E-16 -4.23862531E-02  1.41654926E-15
  4.74388123E-15 -1.04955360E-01  7.00739393E-15  8.26511595E-15  4.47634971E-01
  1.67165539E-02 -2.42277659E-16  4.63003660E-17 -1.01775311E-11 -7.95734660E-17
 -1.83272467E-02 -4.84937302E-15 -6.91105951E-15 -3.36173757E-11  6.98517077E-16
 -1.54315028E-15 -2.16212755E-14 -7.50912607E-13 -1.04419215E-13 -1.80853279E-02
 -3.59629681E-16  1.09308603E-16  5.11399903E-02  2.71307498E-15 -6.96112124E-15
 -6.57299401E-01  1.45107913E-15 -1.86585764E-13  4.90737361E-17  3.58386093E-04
 -3.86991717E-17 -1.20256002E-17  5.20425207E-17 -3.76535115E-15 -3.88852283E-02
  2.44332441E-15  1.60310917E-16  4.06555811E-17  4.46522557E-16  1.80188395E-14
  7.71327849E-13  1.23917095E-13 -1.80977839E-02  8.83289400E-17  1.15933742E-16
  4.35136578E-02 -2.34234203E-15 -4.58424053E-15  1.40935769E-01 -6.14815565E-15
 -1.99101270E-13 -2.15747785E-16 -3.88658490E-04 -1.11143817E-16  2.96894412E-17
  1.53892523E-16  9.49637869E-15  3.29526856E-02  2.87563517E-15 -2.41012277E-16
 -2.88791272E-17 -1.25432099E-15 -5.00654148E-15  1.10792704E-14 -4.15817376E-14
 -2.02613707E-02 -2.51209049E-16  8.04413142E-17  4.11368491E-02 -1.71501241E-16
  4.43166836E-15 -7.45335273E-01 -1.08878236E-14  1.94914933E-14  6.96764500E-17
 -3.94418085E-04  5.17815735E-17 -7.28636432E-18  6.79043022E-17 -4.27253917E-15
  3.27037145E-02  1.26905540E-15  1.08240684E-16  6.50192399E-17 -2.59485699E-15
 -4.61827451E-14 -2.66560248E-12 -1.04245614E-13 -5.77683784E-17 -1.80853279E-02
  1.12583464E-16  1.97638492E-15  5.11399907E-02 -1.04518862E-14  1.12014218E-14
 -6.57299401E-01 -5.39184031E-13 -1.33828312E-16  1.98512363E-17  3.58386097E-04
 -1.02571799E-17  1.11990651E-16  1.11656541E-15  1.97019532E-15 -3.88852283E-02
  7.71536992E-17 -1.81214609E-17  9.34298505E-18  1.59955465E-14  2.36409518E-12
  1.20324211E-13  4.39510859E-16 -1.80977839E-02  4.86788849E-16 -2.55715238E-15
  4.35136579E-02 -1.23181677E-14 -2.72589569E-15  1.40935769E-01 -9.39365895E-13
 -4.80937461E-16  3.24810686E-18 -3.88658492E-04 -5.07911633E-17  1.22359081E-16
  2.40905070E-14  2.08868928E-15  3.29526859E-02  1.41372128E-16  1.64852293E-16
  1.72493875E-15 -1.40646327E-14  3.40641765E-13 -2.77643528E-14  1.68213082E-16
 -2.02613707E-02 -2.05574540E-16 -1.01480995E-15  4.11368493E-02  4.61055659E-15
  4.71859661E-15 -7.45335273E-01 -9.92510277E-14 -9.69497125E-17  1.24299704E-17
 -3.94418087E-04  1.73587256E-17  3.69966522E-17 -2.57941981E-15  4.96635082E-17
  3.27037147E-02 -1.01843513E-16  7.79545052E-17 -2.96109389E-01 -1.95677520E+00
 -2.98798158E+01 -6.27685527E+00 -6.13283080E-16 -6.18865393E-15 -3.84933351E-02
 -1.08075546E-14  7.02864023E-14 -7.86233143E-01 -1.03384319E-13  3.58799283E-13
 -8.12224243E+00 -2.56443707E-02 -3.34774465E-16  2.92984850E-16  2.07065846E-11
  3.32787115E-16 -3.36428391E-01 -2.49419205E-14  6.78258838E-14 -2.04403327E-10
 -4.29903892E-15 -6.75320832E-03  1.93521522E+00  3.07955335E+01  7.73277364E+00
 -2.48948209E-15  3.40557856E-15  5.79292046E-02  2.24349297E-14 -5.85998239E-14
 -5.49576889E-01  1.38080457E-13 -3.76764415E-13 -8.09433557E+00 -1.62906994E-02
 -1.49388326E-15 -3.94613049E-16 -1.07810505E-11 -4.03582711E-16  3.55028520E-01
  1.17084044E-15  7.56572243E-14  1.24316351E-10  3.87664486E-15 -2.77897840E-02
 -2.79027970E-01  8.80068447E-01 -2.52231336E+00  2.28294917E-15  3.66310938E-15
 -1.63028711E-03 -5.88390915E-15 -2.52636698E-14  1.31911870E-01 -3.10732233E-14
  7.59009209E-14  7.25023050E-01  8.86383765E-03 -4.57324902E-16  9.79908864E-16
  2.05313295E-12 -9.78581402E-16 -1.25942194E-01  1.31674801E-14  2.21920242E-15
 -2.38090079E-11 -2.48477243E-15  9.32941686E-15 -2.18343273E-13 -8.77222461E-12
  9.04157608E-14  5.69791196E-03 -3.26652477E-16  1.26712999E-15 -3.20539177E-01
  3.97767200E-15 -6.11677659E-14 -1.80413959E+00  1.66871527E-14 -1.72622738E-12
 -1.67964443E-15 -9.47509816E-03  4.70084473E-17 -1.09471028E-17  1.12215074E-17
 -1.77205192E-15 -2.47563908E-01  3.43314888E-15  2.17633427E-16 -1.35947431E-16
  8.42341199E-16  9.86862383E-14  7.40800906E-12 -2.62635574E-13 -2.29842879E-02
  1.66087644E-16 -3.26168169E-15  2.96356793E-01 -3.20343469E-15 -9.05550598E-14
  8.55178890E-01 -1.57158792E-14 -3.25495475E-12  3.31549814E-15  3.14625053E-03
 -5.06026940E-17 -2.18939738E-17  1.89346332E-17  7.50554828E-14 -4.68898624E-01
  4.24718431E-15 -5.84003027E-17 -2.57636934E-17  1.27429636E-15 -1.92400712E-14
  1.39695918E-12  2.08058269E-13  8.49320733E-03  7.75009792E-17  8.54559108E-16
  3.49519831E-02 -8.21702342E-16  5.68797777E-15  7.90514478E-01 -3.90299592E-15
 -5.68544997E-13 -1.30804324E-15  1.90397122E-04  4.43647746E-17 -1.07393484E-17
 -5.04259590E-17  1.38213327E-14 -1.38223896E-01  1.77745368E-16  6.35689579E-17
 -2.10567792E-16 -4.91258071E-14  1.00294403E-12  4.42313046E-11 -7.59202834E-13
  2.06894112E-16  5.69791200E-03 -6.21118657E-15 -4.05311359E-15 -3.20539177E-01
  2.90934679E-13  1.32468848E-15 -1.80413960E+00  8.62432217E-12  8.79078238E-15
 -4.41035124E-16 -9.47509818E-03  1.51029510E-17 -3.32232398E-17  5.19919862E-15
  7.25899405E-16 -2.47563908E-01 -3.15328797E-16  8.45835594E-16 -2.29956407E-15
 -4.60046270E-13 -3.65488781E-11  1.81957660E-12 -1.13785377E-16 -2.29842880E-02
  1.68460921E-14  1.69708447E-15  2.96356794E-01  4.36300335E-13 -1.71211416E-14
  8.55178892E-01  1.68332696E-11 -1.60827157E-14 -7.85124360E-17  3.14625052E-03
  5.17523348E-17  8.16730916E-17 -3.15854982E-13 -6.22810710E-15 -4.68898625E-01
  1.12322248E-16 -4.04850130E-16  1.16002668E-14  9.21944161E-14 -7.79375662E-12
 -1.26301307E-12 -1.79704018E-16  8.49320733E-03 -1.06525527E-14  1.00167531E-15
  3.49519831E-02 -2.05193197E-15  1.23990965E-14  7.90514478E-01  3.24737908E-12
  9.01487775E-15  1.09767417E-16  1.90397133E-04  3.27896099E-17 -8.61653204E-18
 -1.00833086E-13 -4.13165342E-15 -1.38223896E-01 -1.98333824E-16 -1.14446075E-16
 -5.57944591E-02  1.93292128E+00  7.67335415E+01 -1.22719627E+00  2.22601303E-15
  1.51410097E-14 -2.52016469E-03 -4.67041093E-14 -8.68886946E-14  6.10729423E-01
  1.69167979E-13 -1.87682119E-13  1.54750333E+01  1.72704182E-02 -3.35713568E-15
  3.59138741E-15 -3.31781646E-12 -1.04247979E-15  9.98635623E-02  4.69548181E-14
 -8.98228856E-14  2.58454108E-11  1.37311218E-14 -1.31546080E-04 -1.06584620E+00
 -6.21085668E+01  3.63744836E+00  2.73709745E-15  4.10786984E-15  2.67162339E-02
 -2.52962649E-14  4.08462630E-14  8.66962801E-01 -3.73511020E-13  8.67153736E-13
  2.96522528E+01 -3.26389368E-02  3.58092827E-15 -2.39957317E-15 -7.94501135E-12
  9.07203671E-16 -4.24084889E-01 -1.01219339E-13 -2.01872144E-14  2.08641148E-11
 -1.23973961E-14  8.09812362E-02  2.33811790E-02 -1.47243265E+01 -2.84301027E+00
 -4.80064217E-15 -1.21500813E-14 -3.30309180E-02  2.87381970E-14  5.77094051E-14
  3.69986736E-02  2.48341516E-13 -7.40721752E-13  6.71379664E+00  2.29219886E-02
  2.72029729E-15 -4.35891487E-15 -9.75042522E-12  4.18437091E-16 -2.77102888E-01
 -8.17762223E-14  4.66459312E-14 -2.43635812E-12  9.06206784E-15  1.29163220E-13
 -1.12357258E-12 -4.20297454E-11 -1.20655063E-12  1.99439253E-02 -6.17010993E-16
  3.22750629E-14 -2.51408921E-01  8.05141334E-15 -2.00564343E-13 -3.48615056E+00
 -9.40345173E-14 -8.75020411E-12  6.06934870E-15  1.12796862E-02  1.17201364E-15
  5.85518025E-17 -2.68631405E-16 -6.07086379E-15 -4.43712701E-01 -3.54696563E-15
 -6.91122847E-16  1.34726784E-15  6.14291439E-14  2.97032283E-13  4.13005585E-11
  1.58385209E-12 -4.02128732E-03  6.92275590E-16 -2.85817892E-14  2.75197951E-01
 -5.35469247E-15 -3.78967740E-13  4.68792391E+00  1.22665695E-13 -1.24333977E-11
  2.54078042E-14  1.24516356E-03  6.74873951E-16  2.95575140E-17  1.24175977E-16
  6.52910767E-13 -2.68703570E-01  4.92734196E-15  5.19069005E-16 -1.47508769E-15
  2.30032643E-13 -3.95944186E-13  1.66377372E-12 -7.91144471E-13 -1.79290962E-02
  5.32175230E-17 -5.25208502E-14  1.20058477E-01 -2.85376463E-16  1.25689035E-13
 -1.71336925E+00 -4.20150380E-14  4.13320317E-13  1.90767002E-14 -1.56259795E-02
 -3.86883143E-16  2.17998865E-17 -2.43037137E-16 -1.63351852E-13  9.62897477E-02
  4.14531642E-15 -8.41351534E-17  1.83595249E-18 -2.83355654E-13  3.25075134E-12
  1.05066941E-10  2.66170060E-12 -6.24663055E-16  1.99439253E-02 -6.58584603E-14
  6.85737912E-15 -2.51408921E-01  8.01442644E-13  8.52946903E-14 -3.48615056E+00
  2.15308108E-11  7.12580206E-15 -2.55947482E-16  1.12796862E-02  4.48907320E-17
 -1.26225237E-16  7.41346892E-14  1.96954129E-14 -4.43712702E-01 -4.18012702E-16
  2.03781513E-15 -1.30216264E-13 -1.45088441E-12 -1.01433282E-10 -3.58728037E-12
  1.02645706E-15 -4.02128733E-03  6.77994766E-14 -1.50451627E-14  2.75197951E-01
  1.17880215E-12 -1.21035133E-13  4.68792391E+00  3.21059324E-11 -6.79205888E-14
  6.57098151E-16  1.24516356E-03  1.19549328E-17  3.28906572E-16 -1.57850545E-12
  1.54404151E-15 -2.68703570E-01  3.24210842E-16 -2.94856914E-15 -5.10732025E-13
  1.00702791E-12 -5.76587411E-12  1.85310489E-12 -2.87874958E-16 -1.79290962E-02
  1.13834525E-13  3.46615613E-16  1.20058477E-01 -2.69946118E-13  4.44973330E-14
 -1.71336925E+00 -4.15691997E-13 -4.44834272E-14  7.04329515E-16 -1.56259795E-02
  5.07159010E-17 -1.47990168E-16  3.53266956E-13 -8.60397462E-15  9.62897482E-02
 -3.75609023E-16  4.88575108E-16 -3.22041430E-01  3.46163008E+00  4.98564833E+01
  1.34679212E+00  1.05439554E-14 -4.93018297E-15 -6.04034476E-02 -1.05874445E-13
  9.14985925E-14  4.99860952E-01 -1.34566079E-12  2.89015980E-12  1.12909479E+01
 -2.00018301E-02  5.31906056E-15 -1.15698078E-14 -1.26094078E-11  4.75733748E-17
  8.24432150E-02 -1.38995295E-13  3.03378486E-13 -2.71693805E-11  1.42033957E-14
 -2.02497647E-01 -8.84046370E-01 -5.48164438E+01 -9.97085962E-01  1.65252876E-15
  2.26988217E-15  7.80983137E-02  7.29238790E-14 -1.68162766E-13  1.19011134E+00
  1.76650776E-12 -3.85111288E-12  1.22180417E+01 -1.02501350E-01  4.55117838E-15
 -1.96886486E-15 -2.72516656E-11  2.77880684E-16 -1.43458287E+00 -1.51188679E-13
  1.14344922E-13  2.75094797E-10 -1.14189473E-14 -6.87799832E-01  8.41275670E-01
  2.29330568E+00  7.66444557E-01 -1.27149302E-14  1.15303155E-14  1.57929095E-01
  6.84819101E-14 -6.88001337E-14 -2.41175268E-01 -6.21652499E-13  1.39769300E-12
 -2.23474481E+00 -5.53445596E-02 -4.91409231E-15  1.26083578E-14  4.95316818E-11
  2.69637057E-16  2.76098164E-01 -8.40786648E-15 -1.00847383E-13 -5.70134459E-12
  1.34050213E-14  1.62812997E-01  1.66730873E+00 -2.94404174E+01 -4.68696441E+00
 -2.76329802E-15  2.98881195E-15  6.28147353E-02  2.54302484E-14 -5.80749066E-14
 -3.44761717E-01  5.04794192E-13 -1.32597956E-12 -8.95915227E+00 -4.81132585E-03
 -2.90039829E-15  2.45679898E-15 -4.28323033E-11  4.36192834E-16 -5.04938082E-01
  4.46901467E-14 -1.36779893E-13  3.56948157E-10 -1.08194068E-14  3.99048282E-03
  9.76898696E-01  2.88032025E+01  7.27479023E+00 -1.44777119E-15 -6.82459790E-16
 -3.61710062E-02 -1.53174408E-14  8.77155535E-14  2.50888701E-01 -6.68738119E-13
  1.74926574E-12 -4.53670680E+00 -4.81287700E-03 -2.57207702E-15 -5.27520158E-16
 -2.29814337E-11 -7.27340807E-16 -6.40159425E-01  4.58574768E-14 -7.40134716E-14
  1.08543044E-10  8.71692831E-15 -9.93229596E-02  3.02003700E-01 -1.12587881E+00
 -2.41958145E+00  5.08924989E-15 -4.59860781E-15  2.41119982E-02 -2.61651835E-14
  3.29512529E-14 -2.22832865E-01  2.45886808E-13 -6.23331685E-13  1.05715378E+00
  6.07300341E-03  2.62510899E-15 -5.65144498E-15  8.65372585E-12 -9.72530287E-16
 -6.78952608E-02 -6.05882888E-16  3.39850527E-14 -2.64109803E-11 -7.55518076E-15
  5.00798286E-02 -3.79647506E+00  1.70730380E+01 -1.98247208E-01  7.99136780E-15
  1.07621855E-14 -7.39924056E-02 -5.31604345E-14 -1.08009473E-13 -1.19013015E+00
  3.03861069E-14 -5.93390182E-14  2.07754665E+00 -9.25967982E-02 -4.95403503E-16
 -6.49931727E-15  9.74589737E-12 -5.31114968E-16 -2.70506087E-01  7.17486856E-15
 -4.64823016E-14 -1.55711336E-10  9.54826575E-15 -1.38165177E-01  3.32301205E+00
 -4.74457764E+00  9.27151312E-01  5.03353385E-15 -3.19551365E-15 -8.91942720E-02
 -4.21114235E-15  6.79258212E-14 -1.24232467E+00 -5.48354493E-14  4.37812946E-14
  1.14273426E+01  8.01616421E-02  4.25894452E-15 -3.65221178E-15 -4.61448706E-13
  5.47370520E-16  8.71297670E-01 -8.17937915E-14 -1.03745141E-13  1.16326054E-10
 -9.20251148E-15 -4.76555384E-01  1.45457481E+00 -1.34193458E+01  2.33979212E-01
 -1.02896083E-14 -5.27668245E-15  7.63436443E-02  2.95881267E-14  1.84145627E-14
  3.23004027E-01  3.98618240E-14  2.51114951E-14  5.38227984E+00 -2.88279681E-02
  2.21539607E-15  1.02013397E-15 -1.27053482E-11  1.87308616E-15 -2.71878752E-01
 -4.55964079E-14 -3.47446338E-14  5.36832811E-10 -1.02821563E-15  2.60789861E-02
  4.20824706E+00  2.02929199E+02  9.72243767E-01  3.59905541E-14  1.22146211E-13
  1.97134021E-02 -3.39736086E-13 -1.53778082E-12  1.21580031E+00 -2.83456214E-13
  5.25945227E-14  3.74251779E+01  5.64293267E-02 -5.29593394E-15 -3.56051741E-14
 -1.97338454E-11 -1.19574938E-14 -4.84573135E-02  2.04215730E-13 -8.96534770E-13
  2.12416746E-10  1.74926458E-13  4.59397411E-02 -2.12667262E+00 -1.71421529E+02
 -1.23382626E-01  4.06466013E-14 -4.68171529E-14 -3.17212703E-03 -1.99536864E-13
  8.98325928E-13  1.56034993E+00  1.44401893E-13 -5.56796906E-13  7.72374974E+01
 -1.27278708E-02  3.07939596E-14 -1.46380808E-14 -1.07750311E-11  3.49220690E-15
 -1.56806740E+00 -7.26282514E-13 -1.59585135E-12  6.57555342E-11 -6.82663621E-14
  4.31470459E-02  9.00848198E-01 -3.32261938E+01 -6.68708428E-01 -5.78812229E-14
 -2.93290859E-14 -3.00118715E-02  2.51671805E-13  1.99752923E-13 -3.14328881E-01
  1.79671245E-13  8.92062144E-13  1.03128628E+01  1.97824513E-02  1.09218191E-14
  3.62657547E-15  9.31739176E-12  7.68064126E-16 -1.57912592E-01 -5.24299139E-13
 -4.00227430E-13 -1.78277520E-10  1.67224395E-13 -5.13845830E-12  3.98399804E-10
 -3.48209415E-08  3.14175332E-10 -2.35313434E-16 -2.05044169E-16  3.31425692E-11
 -2.82113512E-15  2.89597077E-15  6.59611413E-10  3.08834705E-15  4.63938482E-15
 -5.60763889E-09  5.35150282E-11 -6.43621076E-16 -2.17568234E-16 -3.07965079E-02
 -1.77397974E-07  4.60829432E-10  2.32478713E-15  3.02763627E-15  3.07914658E-01
  1.77368930E-06  8.46958213E-11 -2.24664378E-09  2.89208513E-08 -1.18648153E-09
  1.57105723E-16  2.44561542E-16  4.43123822E-11 -1.11287853E-15 -1.21434132E-15
  2.03809384E-10 -3.22621283E-15 -4.84517043E-15 -1.46968189E-08 -2.72930103E-11
 -5.15739619E-16 -2.78386871E-16 -3.76827689E-02 -2.17065094E-07  4.59962102E-10
 -3.26695384E-15  4.39502098E-15  4.21671803E-01  2.42896773E-06  3.96673628E-10
 -1.18047083E-09  8.14573899E-09  1.64014715E-10 -1.74496494E-16  2.53477103E-16
 -8.46080825E-11 -5.31776445E-16  7.05275997E-17  1.06991159E-10  2.49431415E-15
 -6.64614169E-16 -2.79137268E-09  1.31980907E-11  2.60124356E-16  6.49681193E-17
 -4.34756737E-02 -2.50434123E-07  1.30307132E-10 -1.74031074E-15  6.39923395E-16
  5.97181913E-01  3.43996345E-06  5.72741622E-14 -1.71638956E-12 -3.17122821E-11
 -1.13896940E-13  6.81422895E-16  2.83656929E-16 -7.56781509E-15 -1.34404932E-14
 -5.71754618E-15 -5.72598907E-13 -1.46167736E-14 -2.51614053E-14 -5.77187207E-12
 -2.74092361E-14 -5.43221068E-16 -1.65393963E-16  1.77397974E-07 -3.07965079E-02
 -1.73374084E-13 -7.48863027E-15 -9.84879602E-15 -1.77368930E-06  3.07914658E-01
  2.24536435E-14  1.43168419E-12  2.48597897E-11 -1.65445171E-13 -4.61218056E-16
 -6.62662291E-16 -2.68655931E-14  8.73977773E-15  8.69573287E-15 -6.99431138E-13
  1.03482592E-14  2.57810749E-14 -1.32271287E-11  3.77616219E-14 -1.02246797E-16
  7.27915292E-17  2.17065094E-07 -3.76827689E-02  1.98795730E-13 -1.66764365E-14
 -1.30261980E-14 -2.42896773E-06  4.21671803E-01  3.09475273E-14 -1.18808135E-13
  7.02379635E-12  2.62784430E-13 -2.80582819E-16 -2.79916246E-16  5.48000120E-15
 -6.43675587E-16  1.76004733E-15 -5.25869806E-14  6.31952533E-15 -3.06821896E-15
 -2.42128790E-12  1.29927439E-15 -1.21196065E-16 -3.00626833E-17  2.50434123E-07
 -4.34756737E-02  1.40691049E-13 -7.69958189E-15 -2.88368759E-17 -3.43996345E-06
  5.97181913E-01  3.30676387E-01 -4.64294296E+00  4.60774472E+01  1.09908200E+00
 -4.68324264E-15  7.75478018E-14 -2.47315628E-02  1.08736435E-13 -1.07032214E-12
 -1.56467741E+00  1.63410271E-13 -1.24482438E-12  1.02144714E+01 -9.63058334E-02
  9.68822656E-16 -1.66298742E-14  5.25495290E-11  5.08445414E-15 -6.82906128E-01
  1.87850212E-13 -8.13196947E-13 -9.54423066E-10 -3.55836263E-14  1.59671580E-01
  5.13309145E+00 -5.17808853E+01 -1.65177519E+00  1.32633610E-14 -2.95485724E-14
 -1.61757938E-01 -1.46218225E-13  6.47180432E-13 -1.79841716E+00 -2.08008744E-13
  1.05861406E-12  8.81269755E+00  1.77879506E-01  5.77554659E-15 -2.43674231E-16
 -4.48664601E-11  1.07295951E-14 -4.30517566E-01  5.33221021E-14 -1.39051543E-12
  8.54637039E-10 -1.27331199E-13  2.05352511E-01  1.14889040E-01  4.85732070E+00
  7.42634937E-01 -1.05477209E-14 -4.61818362E-15  7.41538941E-03  6.65249110E-14
 -1.00085600E-13 -7.22246359E-01  2.12734763E-15  4.40771323E-13 -2.64666179E+00
  2.90016999E-02  8.30823828E-16  1.15102355E-15 -2.77911855E-11  9.39105878E-15
  4.05147041E-01 -9.94053607E-14 -3.30142881E-13  1.39680205E-10 -6.17038029E-14
 -2.79907676E-14  8.31087115E-13  6.54804070E-12 -1.04081626E-13 -7.78111538E-02
 -3.23985022E-15  3.91469321E-15  1.24029306E+00  5.76461063E-14  3.03962008E-13
  1.91119592E+00  7.85939863E-14  1.12527378E-12  1.37288381E-14  2.87255341E-02
  1.51272557E-15  6.21994740E-17 -9.68014661E-16  1.45016356E-13  1.00508548E+00
  4.14085621E-14 -1.24095973E-15  2.57009864E-15 -1.36728911E-14 -8.37268141E-13
 -4.09573046E-12  2.83804489E-13  4.06754071E-02  1.63598640E-15  1.44540692E-14
 -8.82363478E-01 -4.23907972E-14  3.38912884E-13 -1.54461652E+00 -4.24364586E-14
  3.33764843E-12 -2.09727984E-14  4.81258015E-03  4.02047063E-17  7.61035221E-17
 -8.83358263E-16 -2.90186391E-14  1.82892141E+00  9.77340835E-14  9.54359014E-16
  1.05632010E-14 -2.09999187E-14  5.45590423E-14 -2.45876821E-12 -1.74041758E-13
 -1.07653686E-02 -1.59224832E-15 -5.79969134E-16  3.44153657E-01  2.34487875E-14
  3.95860632E-14 -6.70134915E-01 -5.12351423E-14  9.54661886E-13 -2.98108287E-15
 -4.89373025E-03 -7.66139199E-16 -5.52225581E-17  3.71426535E-16 -6.15885097E-14
  5.41312097E-01  4.69990888E-14  1.30967975E-15 -5.00913632E-15 -2.27619868E-13
  1.34722591E-12 -1.45492783E-10 -1.77627312E-12 -1.69961214E-15  7.78111538E-02
  2.23241083E-14  4.23321707E-14 -1.24029307E+00  3.83415926E-13  1.04904129E-13
 -1.91119592E+00 -2.92230381E-11  6.04232309E-14  1.06121717E-16 -2.87255341E-02
  1.74285627E-16  3.87722115E-16  6.46455631E-14  6.91354756E-14 -1.00508548E+00
 -3.52181663E-15 -6.73838866E-15 -1.11999806E-13 -2.40570756E-12  1.32090311E-10
  1.41177877E-12  4.43924658E-15 -4.06754071E-02  1.28910102E-13 -6.13027624E-14
  8.82363478E-01  2.95619261E-13 -8.46291992E-14  1.54461652E+00 -4.79170830E-11
 -1.12969338E-13  6.03948719E-16 -4.81258015E-03  2.64155764E-16  6.89502852E-16
  7.28086298E-13  6.82340504E-14 -1.82892141E+00  2.00288722E-15 -6.70467939E-15
 -1.27567808E-13 -3.51934238E-13  1.47221782E-11  4.46747747E-14 -1.60545412E-15
  1.07653686E-02 -1.32559643E-15  2.24739209E-14 -3.44153657E-01  7.77227397E-13
 -2.48195486E-14  6.70134915E-01 -4.32729203E-12 -3.38297122E-14  4.59741700E-16
  4.89373026E-03 -2.71514478E-16 -3.06651583E-16  1.12168826E-13  7.82371070E-15
 -5.41312098E-01  4.63702230E-15  3.75479752E-15 -1.19283951E-10  6.06156823E-09
  4.59879294E-08 -1.16652028E-09 -2.68946978E-16  1.02096113E-16  7.75468699E-11
  3.01756790E-15  3.03421643E-15  1.44132779E-09 -4.04271805E-15  6.08872201E-15
  7.08479955E-09  1.07682839E-10 -5.67278262E-16  6.32517909E-16  5.41057783E-02
  3.33844815E-07  5.48093538E-11 -7.48999911E-15  1.01462192E-14 -8.50347303E-01
 -5.24683402E-06  1.31120335E-12 -4.17588822E-09 -3.72904697E-08  1.97283822E-09
 -7.61980147E-16  8.18671109E-16  1.02111309E-10  1.50009342E-14 -2.02669424E-14
  1.93480884E-09 -1.32660346E-14  2.10969721E-14  2.11171370E-08 -1.23977129E-10
 -2.81095058E-16  3.28793705E-16  1.18031445E-02  7.28280547E-08 -1.27163726E-09
 -6.62513363E-15  2.07092946E-14  3.45920757E-02  2.13440887E-07  3.87963365E-11
  8.14765512E-11 -9.56634790E-09 -1.01311184E-09 -3.94639486E-16  1.40549670E-16
 -2.11751173E-11  3.36986101E-15 -5.04542913E-15 -3.38771997E-11  8.03978538E-15
 -1.81727428E-14  2.80551105E-09 -6.03373441E-12  1.84272547E-16 -6.87582251E-16
 -4.42210669E-02 -2.72853924E-07  1.03128418E-10 -7.61726236E-15  1.86828256E-14
  7.01720727E-01  4.32977463E-06 -9.24128738E-15 -1.57043936E-14 -2.06262599E-12
 -4.86640157E-15 -9.29058498E-16 -1.53499848E-15 -8.04478572E-16  1.24599460E-14
  1.92084924E-14 -1.27703923E-14  2.39654604E-14  1.13579413E-14 -4.39418998E-13
 -3.11272027E-16 -2.49122522E-16  5.05184410E-16 -3.33844815E-07  5.41057783E-02
  1.62767110E-14  2.34068068E-15  9.98590524E-15  5.24683401E-06 -8.50347303E-01
 -5.01586331E-15 -3.78160794E-14  2.20906513E-12  1.15060449E-15 -1.45839316E-16
  1.79722763E-16  3.76962346E-15  4.25165075E-15 -7.89489770E-15 -2.02145368E-14
 -4.47314166E-14 -1.26123084E-14 -4.91845746E-13 -1.80811285E-15 -4.47979058E-16
  1.30926884E-16 -7.28280548E-08  1.18031445E-02  3.27666695E-14  9.58658480E-15
  1.75305367E-14 -2.13440884E-07  3.45920757E-02 -6.72818938E-15  5.44646125E-16
 -1.01160933E-13 -8.43726502E-16 -4.97214173E-16 -5.71658341E-16  5.27446071E-16
  3.50378295E-15  6.97874782E-15  1.80202081E-14  1.23506860E-14 -7.40150375E-15
  7.06106379E-14 -7.51249651E-16  9.51815010E-16  9.69922313E-17  2.72853923E-07
 -4.42210669E-02 -4.04022792E-16 -1.60206456E-14  6.41856441E-15 -4.32977463E-06
  7.01720727E-01  1.34436796E-14  1.21132080E-14  3.16509994E-12  1.00171994E-13
  2.92146136E-02 -7.34439895E-16  4.35649347E-16 -1.91124781E-01  2.28887384E-14
  3.78391448E-14  1.32098832E-01 -1.64877994E-14  7.35327104E-13 -2.71471478E-17
  2.43521980E-02  1.79028843E-15  8.08986827E-16 -5.95535125E-17  1.02864956E-14
  3.40870213E-01  5.48424957E-15 -1.25878565E-14 -4.83123635E-15  5.92300002E-15
  6.30430526E-15 -3.24412398E-12 -1.12886890E-13  6.11461300E-02  7.95792252E-16
 -6.27798838E-15 -9.52263363E-01 -2.41760938E-14  4.10233443E-14  1.07761588E+00
  6.27696842E-14  7.48560858E-13  2.46855494E-15  4.86387919E-03  1.18437162E-15
  2.51269889E-16  4.99594149E-16 -1.56111003E-14  5.75639794E-01  4.23898973E-14
 -7.97197895E-16 -9.04805588E-15  5.86974219E-15 -2.45055675E-15  3.88944134E-14
  2.74460963E-14  3.36570508E-02  2.65710743E-16 -1.90840089E-16 -4.15271378E-01
  3.37036181E-15 -2.49444338E-14 -5.15090340E-01 -4.82193196E-14 -3.51179348E-14
  8.70379682E-16 -2.35541952E-02 -2.40403130E-15 -5.44522789E-16 -1.30602437E-15
 -1.43139976E-14  6.02397737E-01  4.76365805E-14  9.32863035E-15  1.56266329E-14
 -2.54001025E-14  1.60400992E-13 -1.37267844E-11 -5.03132805E-13 -1.85677536E-16
  2.92146136E-02  6.20089498E-15 -1.19039176E-15 -1.91124781E-01 -5.08232672E-14
 -3.66073696E-14  1.32098831E-01 -3.24719555E-12  1.15522538E-14 -1.65489513E-16
  2.43521980E-02 -1.05771918E-15  3.41951067E-17 -1.71564818E-13 -2.05489018E-14
  3.40870213E-01  1.70870249E-14  3.26226904E-15 -6.69061011E-15 -1.13465568E-13
  1.27211657E-11  4.67594177E-13 -1.35686030E-15  6.11461300E-02  2.15699660E-14
  2.56870437E-14 -9.52263363E-01 -1.11489843E-13  1.85608551E-14  1.07761588E+00
 -3.83238566E-12 -9.23728675E-15  5.18514939E-16  4.86387920E-03 -1.93014378E-16
  3.13692754E-16 -8.31354742E-14 -2.36271457E-14  5.75639794E-01 -7.55409042E-16
 -6.36748627E-15 -9.75611576E-15  6.56000239E-14  1.02794584E-12 -1.63435949E-14
 -4.80956359E-16  3.36570509E-02 -1.25225230E-15  8.15306173E-15 -4.15271378E-01
  1.30204751E-13  4.74347185E-15 -5.15090340E-01 -5.08440128E-13 -6.60115746E-15
 -3.86644718E-16 -2.35541953E-02  7.68807972E-16 -4.46710912E-16  1.81409627E-13
 -3.49629660E-15  6.02397738E-01 -1.29063435E-14  8.71749323E-15 -8.32762781E-13
 -8.88433837E-11  3.18698119E-10 -3.13101350E-11  3.17192070E-04  2.96992481E-15
 -6.76558038E-13 -1.84410591E-02 -5.08605364E-14 -4.39616988E-11  2.49136855E+00
  1.50435270E-13  1.63177121E-11 -1.57687678E-12 -2.86139703E-02 -2.95375085E-15
  1.88800097E-17 -4.25964896E-16 -2.90055971E-11  1.01563297E+00  2.51631789E-14
 -8.70865959E-16  6.86007034E-15 -1.38321725E-12  1.14394024E-10 -1.73608970E-10
  4.40563687E-11  4.88058861E-02  1.13567630E-15 -5.58685981E-13 -5.35304105E-01
 -3.96735009E-15 -3.61384463E-11 -3.49564955E+00 -1.94444521E-13  2.06041237E-10
  1.37599574E-12 -6.84471540E-03 -3.37761872E-15 -1.67111924E-16  7.97030747E-17
  9.91851709E-12 -1.00456606E-01 -1.26748450E-14 -2.03916181E-16 -1.31314629E-15
 -1.39401236E-12 -1.72057782E-12 -1.48420173E-10 -1.56932025E-11  3.75960110E-02
  1.30615884E-15  7.37126153E-14 -6.29116962E-01 -1.52360822E-14  1.66834448E-12
  1.63325362E+00  8.59356990E-14  5.56462919E-11  4.11176610E-13  5.56383255E-02
  4.00209312E-15  2.19153359E-17  1.26494007E-15 -7.41490061E-12 -1.14369557E+00
 -7.52975479E-14 -1.23052822E-15 -7.39830433E-15  4.50057124E-12  5.24491293E-10
  1.81111027E-10  1.75951047E-10 -1.12133597E-15 -3.17192074E-04  4.62443518E-12
  2.84108047E-14  1.84410590E-02  2.43325367E-10  1.11731141E-13 -2.49136855E+00
  2.37927974E-10  9.82267003E-12 -8.21464197E-16  2.86139703E-02 -3.56160942E-17
 -6.66596588E-16  1.42460922E-10  8.75974884E-14 -1.01563297E+00 -1.10263318E-15
  1.77158887E-14  8.79443819E-12 -6.38697380E-10 -7.36809052E-10 -2.50419271E-10
  3.61520115E-15 -4.88058861E-02  4.10788440E-12 -3.49781286E-14  5.35304105E-01
  1.94645106E-10 -1.93518455E-13  3.49564954E+00 -3.85022420E-10 -7.75402670E-12
  3.97225713E-15  6.84471539E-03 -3.37946174E-17  1.40676905E-15 -8.40329682E-11
 -4.24494137E-14  1.00456606E-01  5.23053394E-15 -2.38157468E-14  8.99569476E-12
  2.37116170E-11  5.48532660E-10  9.26823255E-11  3.88942990E-16 -3.75960110E-02
 -6.13168521E-13 -2.94092646E-14  6.29116962E-01 -6.67624068E-12  9.88564227E-14
 -1.63325362E+00 -2.57526650E-10 -2.74012305E-12  1.75254628E-15 -5.56383255E-02
  1.54517666E-16 -2.24546543E-16  6.65198653E-11 -5.39090291E-14  1.14369557E+00
 -3.23192280E-15  3.35340644E-15  7.08830730E-02  8.10072099E+00 -3.79579819E+00
  2.75398897E+00  1.39555924E-15  1.47944188E-14  6.94450309E-02 -1.35939032E-13
 -1.11641417E-12  3.81010123E+00  2.71038022E-11  1.61514360E-10  2.61122195E+00
  1.50042935E-01 -3.08458418E-13 -1.85027883E-12 -3.06145042E-11  3.42578256E-16
  2.29408368E+00  1.10791776E-11  6.58180262E-11  8.19599753E-10 -3.71341630E-15
  1.33994025E-01 -9.98384347E+00 -5.75945760E+00 -3.91009630E+00  5.30087270E-13
  3.16213570E-12  6.07960579E-02 -5.84567632E-12 -3.47034487E-11  3.06604474E+00
 -3.80253759E-11 -2.26626650E-10 -8.61388871E+00 -1.20891335E-01 -7.28633742E-14
 -4.42528796E-13  4.35790601E-11 -3.80546789E-16 -1.21643115E+00 -1.04875501E-12
 -6.44445095E-12 -1.02912313E-09  9.16710824E-15  1.36702824E-01  3.22465328E-01
  9.53086980E+00  1.43512603E+00  4.18764083E-13  2.44142728E-12 -8.95818497E-03
 -6.91316196E-12 -4.08293729E-11 -1.13423188E-01  1.77770661E-11  1.05883619E-10
 -4.20911947E+00 -4.13209411E-02  6.01645226E-13  3.60563062E-12 -3.53606580E-11
  1.09475168E-15  9.55262734E-01 -1.23968890E-11 -7.40970072E-11  3.89899322E-10
 -8.62356570E-15  1.80368471E-02  7.14381867E-01 -1.30358299E+02  3.67537600E-01
 -3.36504993E-14 -1.24472668E-13 -2.88888580E-02  2.55987310E-13  2.21292451E-12
  1.17768522E+00  6.32773807E-12 -9.17593468E-12 -2.16048418E+01 -1.38768227E-02
 -7.10392984E-14  1.12573226E-13  2.95996068E-11  1.95782888E-14  1.69051588E+00
  2.19368175E-12 -1.38744775E-12 -6.83873389E-10 -5.34131657E-13 -3.25604417E-02
 -2.82100717E+00  1.11323874E+02 -5.02940717E-01  7.31662556E-14 -1.38897279E-13
 -3.57028819E-02 -9.24546187E-13  8.38683801E-13  1.29595487E+00 -8.76920588E-12
  1.37225198E-11 -5.19379496E+01 -3.24826316E-02 -6.16604146E-14  1.34971218E-13
 -2.47974881E-11 -3.32325079E-14  1.29540714E+00  5.95701526E-13  1.32845235E-12
  6.74274404E-10  7.04404761E-13 -4.19001202E-02 -6.73146237E-01  2.05419472E+01
  7.53526451E-02  1.74626773E-13 -6.36032099E-14  9.04110770E-03 -2.18927857E-12
  1.16160720E-12 -1.38430872E-01  4.03498051E-12 -6.82971589E-12 -4.72603084E+00
  1.44628262E-02  1.37096931E-13 -3.33559984E-13  1.59377564E-11 -2.45534956E-15
 -1.23381068E+00 -2.46423215E-12  6.77574928E-12 -1.81357413E-10 -2.33665692E-13
 -3.11684016E-15 -1.94732865E-13 -9.05179097E-12 -1.56666697E-13 -2.90996474E-02
  4.47862814E-15 -4.70068515E-15  6.77491844E-01 -8.76720506E-14 -3.86912279E-14
  9.96582310E-01 -1.52390169E-14 -1.68998482E-12 -4.44324571E-15 -1.35822431E-02
  7.97511616E-17 -1.84762475E-16  2.24066632E-15  2.28761366E-14  1.32972079E+00
 -1.27294934E-13  6.43195125E-15 -6.48483515E-14 -8.60855241E-15  1.25589264E-13
  8.24858420E-12  2.16926060E-13  1.94445029E-02 -6.23287150E-16 -2.97037303E-15
 -4.23637369E-01  3.87697059E-14 -8.84052984E-15 -9.98771673E-01 -2.94333839E-14
 -3.18117098E-12  1.02796686E-15  4.69068464E-02 -5.97804814E-15 -1.09838896E-16
 -3.33668035E-15  1.30424206E-13  1.88271706E-01 -2.68732345E-14 -9.49944611E-15
  7.41435598E-14 -9.98137892E-15 -5.27272710E-14  9.11583509E-13 -7.96592877E-14
  1.34688685E-02 -9.18847300E-17  6.11311929E-16 -2.75187125E-01  9.56563154E-15
  6.26518594E-15  4.48757639E-02  6.45681633E-14 -1.14985455E-13  1.72966553E-15
 -4.41297738E-02  7.21712601E-15 -2.45865163E-16  1.07256062E-15 -1.14833336E-13
  8.06740523E-01 -1.45227413E-13  3.92885519E-15 -2.33260078E-14 -3.84752413E-14
 -3.56744411E-12  3.51654124E-10 -2.83530419E-13 -4.41243800E-15 -2.90996474E-02
  5.69470284E-14  9.29692204E-14  6.77491844E-01 -3.55165004E-12  1.88658664E-13
  9.96582309E-01  5.94382198E-11 -1.69413369E-15 -2.42874584E-15 -1.35822432E-02
  2.32978313E-16  1.32740229E-15 -4.22038190E-12  1.82667051E-13  1.32972079E+00
 -8.60304611E-15 -3.55278135E-14  7.62714532E-14  8.60666109E-12 -3.00549399E-10
  6.94970985E-13  2.21504393E-15  1.94445029E-02  6.97843289E-14 -5.25732434E-14
 -4.23637369E-01 -3.84820494E-12 -2.17337806E-13 -9.98771672E-01  1.38591195E-10
  1.04967831E-13  4.93971510E-15  4.69068464E-02 -4.48670623E-16 -1.82941652E-15
 -2.76848921E-12  3.74659722E-14  1.88271706E-01  1.20367025E-14  4.50321609E-14
  1.08557962E-13  1.35436216E-12 -5.46721008E-11 -2.20848954E-13  4.10239533E-15
  1.34688685E-02 -1.92416028E-14 -6.14200262E-14 -2.75187124E-01  2.32722971E-13
  4.82974539E-14  4.48757637E-02  1.30326707E-11 -3.19037702E-14 -4.42353679E-15
 -4.41297738E-02  4.38421575E-16  7.08323278E-16  3.03112225E-12  7.96235575E-14
  8.06740523E-01 -6.65339207E-15 -2.09209047E-14 -2.45572416E-11 -1.68215023E-09
  5.30019705E-09  1.37972280E-09  8.86495322E-17  1.22261661E-16 -2.63881161E-11
  5.14083020E-15 -2.81212977E-15  4.11284486E-10  1.30387614E-14  4.10064038E-15
  8.17440202E-10  5.25347440E-11  3.16093575E-16 -7.55996564E-17  4.94949095E-02
  9.35588436E-07  5.86926115E-10  1.35924384E-14 -7.15638236E-15 -1.43819461E+00
 -2.71857906E-05  1.00070558E-12 -1.39274540E-09  1.17273331E-09 -2.49629673E-09
  6.42862538E-16  2.59145454E-16  1.02014311E-10 -1.19483888E-14  2.07115296E-15
 -1.06371278E-09 -1.78221508E-14 -5.61978272E-15  4.73906690E-09 -3.41765754E-11
  8.60316622E-16 -4.68493418E-16 -6.71689815E-02 -1.26967648E-06  1.71127487E-09
 -6.13214936E-15  3.78906566E-15  1.77881599E+00  3.36244613E-05 -2.28257389E-11
 -1.20751834E-09 -4.33973578E-09  9.33918575E-10 -4.02876628E-16  2.69130066E-16
 -3.97557411E-11  3.47998841E-15 -2.30839266E-15  1.09553036E-09  5.78271415E-15
  3.68936820E-15  6.12755137E-10 -4.89628681E-11  1.17589717E-15  5.43145397E-16
  3.67360425E-02  6.94411141E-07  1.00175881E-09 -2.01957740E-15 -6.73096565E-15
 -7.27479082E-01 -1.37513337E-05  7.07146554E-15  1.71148376E-12 -8.22673042E-11
 -1.91689287E-13 -1.29671919E-15  3.26013051E-16 -1.10083551E-14  3.77968640E-14
  8.60160855E-15  1.13993495E-12  7.49359339E-14  7.39993346E-14 -1.42432755E-11
  1.62950156E-14  1.59494054E-16 -4.64467618E-16  9.35588437E-07 -4.94949095E-02
  9.84571261E-13  7.74265666E-14  4.62525219E-14 -2.71857906E-05  1.43819461E+00
 -1.36170788E-14 -2.71041854E-12  7.06340577E-11  9.46957101E-14  2.10782088E-15
  2.36516745E-16 -8.26265691E-15 -3.72958418E-14 -3.30450167E-15  1.16165818E-12
 -9.17677670E-14 -9.75014945E-14 -3.18865942E-11 -2.93610121E-14  4.41303031E-15
  1.07862456E-15 -1.26967648E-06  6.71689815E-02  3.47623249E-13 -4.56189080E-15
 -1.98655752E-15  3.36244613E-05 -1.77881599E+00 -2.60529823E-14 -1.00137982E-13
  1.23005346E-11  3.32204570E-14 -1.23665125E-15  3.00697793E-16 -2.22779845E-16
  8.09385650E-15 -1.10103094E-14  3.35352711E-14  1.52593807E-14  3.04552188E-14
 -3.00580507E-12  6.95325784E-15 -1.56050750E-15 -8.22117018E-16  6.94411140E-07
 -3.67360425E-02 -6.87547491E-13  1.86340837E-14  4.22892470E-15 -1.37513337E-05
  7.27479082E-01 -6.07060674E-02  1.56778852E+01  2.77009837E+01 -9.04904001E-01
  2.34073518E-14  3.03718121E-14  1.94927815E-01 -2.24877926E-13 -4.05495275E-13
  3.88037847E+00 -8.07779374E-14  6.99258455E-13  5.73185290E+00  1.55391541E-01
  8.57061631E-16 -2.17546939E-14  1.54713885E-11  3.21842385E-15  7.35991874E-01
  1.42013382E-13  2.75424292E-13 -6.23283884E-10 -1.00370726E-13  4.40491753E-02
 -1.06684447E+01 -3.31389421E+01  2.38927730E+00  2.34483107E-14 -2.06703126E-15
 -1.57608214E-02 -2.30138919E-13  1.31465226E-13  6.12981126E+00  8.86698673E-15
 -9.96450441E-13  7.21233243E+00 -1.75537224E-01  2.24819486E-14 -2.52057572E-15
 -3.32780046E-11 -2.81439698E-15 -5.33217147E+00 -5.84253674E-13 -4.08868951E-13
  8.41397361E-10  1.18902865E-13  1.46574178E-01  3.32470855E+00  5.36565834E-01
 -8.96307583E-01 -3.70900316E-14 -1.18563826E-14  4.75112817E-02  4.15891057E-13
  1.43185695E-13 -1.64400944E+00  5.94181386E-14  3.91902037E-13 -1.94366941E-01
  2.91194029E-02  2.97254474E-15  4.71726563E-15 -5.39139145E-13  7.26272741E-15
 -3.90649159E-01 -2.70405119E-13 -2.57624049E-13 -3.13385294E-10 -5.76759250E-14
 -3.42130437E-02 -5.99821381E+00 -5.88768406E+01 -1.58086613E-01 -5.11669885E-14
 -6.62091957E-14  3.46672019E-02  6.41635573E-13  9.58422832E-13 -3.40522199E+00
 -1.77076742E-13 -9.72211928E-13 -1.14992948E+01 -7.46325780E-02  6.75397286E-15
  3.95091182E-14 -1.22178057E-12 -5.89217986E-15 -1.24819537E+00 -4.61858576E-13
 -4.11564835E-13  3.90688218E-11  2.12457284E-13 -1.75609343E-02  5.72861194E+00
  4.60563956E+01 -1.79404593E-01 -5.25742194E-14  9.59626519E-16  2.07036641E-02
  5.62638319E-13 -2.74173378E-13 -2.86326079E+00  5.32579040E-13  1.48867769E-12
 -2.27216440E+01  2.97703899E-02 -5.10274942E-14 -1.47161990E-15  6.79651591E-13
  4.73165553E-15  1.03284071E+00  1.54003537E-12  1.07747702E-12 -4.16911852E-11
 -2.47320859E-13  4.94093728E-02 -1.11884760E+00  1.33707111E+01  3.34066843E-01
  8.66202334E-14  3.35441867E-14  3.21779327E-02 -9.98484558E-13 -4.65588316E-13
 -9.09732907E-01 -4.00126036E-13 -6.55650419E-13 -5.09319186E+00 -2.52016510E-02
 -1.84845532E-14 -1.15795099E-14 -4.37079724E-12 -1.47555494E-14  1.44639547E+00
  8.51450840E-13  5.74558491E-13 -5.49182097E-12  1.11048486E-13  5.92894095E-14
 -4.83972141E-12 -2.38568164E-10  1.87572076E-13  5.62855666E-02  3.70174043E-15
 -5.64666320E-14 -9.77743080E-01 -1.30949818E-13 -8.45138610E-13  7.90766723E-01
 -1.51370521E-15 -4.34571571E-11  5.35460049E-15 -2.26088351E-02 -7.00947961E-15
  2.66345889E-16  8.09734147E-16  4.19161326E-13  9.04266512E-01 -7.04824608E-14
  4.80887832E-15 -2.38348997E-14 -2.20764659E-14  5.19749162E-13  2.02154495E-10
 -1.92934774E-12  5.67296697E-02 -1.02182870E-14  6.91577660E-14 -9.65203785E-01
  1.89412236E-13 -1.45420059E-12 -1.55671280E+00  1.27293034E-14 -9.13007791E-11
 -3.92666931E-15  4.96822053E-02 -6.96636832E-15  4.66335632E-16  1.00048573E-15
  3.18807419E-12 -2.41803083E+00  8.20658353E-15 -9.88217405E-15  2.56826517E-14
 -1.17923713E-13 -2.43728461E-12  4.02533494E-11  1.36611678E-12 -6.77614945E-02
  2.30202250E-15 -2.40284964E-15  1.40073190E+00 -3.11569508E-14 -1.79129523E-13
  9.62824303E-01 -1.53343245E-14 -1.25347216E-11 -3.83935813E-14  4.14773504E-02
 -4.49291588E-15 -5.07602341E-16  2.31433445E-15  6.42387864E-13 -1.52190863E+00
  5.36925266E-14  4.66800818E-15 -1.08145013E-14 -3.54509895E-14  5.15934837E-12
  1.38105564E-10  2.38455861E-15 -2.02475319E-15 -5.62855666E-02  6.69545306E-14
  4.01403015E-14  9.77743081E-01  1.62149109E-12 -2.39661726E-14 -7.90766722E-01
  2.51808115E-11  6.78889589E-14  1.90002280E-15  2.26088351E-02 -5.80611786E-16
 -1.17127664E-15 -2.21590883E-13 -3.88364856E-14 -9.04266512E-01  4.69204483E-15
 -1.51917908E-15  2.35637486E-14 -2.76322171E-12 -1.17774217E-10  9.44796873E-13
 -1.44063258E-15 -5.67296697E-02 -2.63966678E-15  4.12369716E-14  9.65203785E-01
  1.93377565E-12  4.70127670E-14  1.55671280E+00  5.25998530E-11 -6.61605181E-14
 -1.01780675E-15 -4.96822053E-02  2.81861793E-16  1.14250888E-15 -1.84592820E-12
  9.85893018E-14  2.41803083E+00 -4.78890240E-15  1.72837808E-15  6.65296817E-14
  1.18950848E-12 -2.24217638E-11 -7.11983358E-13  9.65638494E-16  6.77614945E-02
  3.16630645E-15 -5.85269293E-14 -1.40073190E+00  8.90356083E-14 -3.11591324E-14
 -9.62824303E-01  6.77143589E-12  4.38608377E-15 -2.44459876E-15 -4.14773504E-02
 -1.08435604E-16 -5.44709435E-16 -1.74646673E-13  5.69191793E-14  1.52190863E+00
  5.95111746E-16  8.39632799E-16 -1.22365340E-02  6.82529106E+00  2.06084973E+01
  3.58676812E+00 -9.66546026E-15  3.16805794E-14 -1.07004387E-01  5.32699639E-13
 -7.35914922E-13  4.36494731E+00 -5.35167615E-14 -2.47504940E-14  6.21068061E+00
  1.06153349E-01  1.90114830E-14 -1.07288810E-14  4.71148378E-12  2.23117742E-15
  1.54990875E+00 -6.23565342E-15 -2.40313445E-13 -5.93379959E-11 -2.12383347E-14
 -1.63263478E-01 -9.60139750E+00 -2.69273527E+01 -4.94372563E+00  6.27666012E-15
 -1.85693560E-14  1.44915861E-01 -1.89947651E-13  6.67359957E-13  1.49553261E+00
  2.18351865E-13 -8.32996177E-14  5.13097496E-01 -9.05088323E-02  6.85787726E-15
 -8.43393916E-15  1.30122072E-11  5.59646897E-16 -1.44191966E+00  6.14598226E-13
 -4.15591390E-13 -1.67243542E-11  2.35951671E-14 -1.61196077E-01  1.75014971E-01
  7.93584462E+00  1.65702644E+00  3.73949291E-15  1.97130532E-15  1.68421424E-01
 -2.63762203E-13  5.55092401E-14 -1.72823398E+00 -2.03227425E-13  1.35451893E-13
 -3.33581141E+00 -6.84814431E-02 -1.03354612E-14 -4.61219378E-15  4.94518126E-11
  7.58894904E-15  1.12629640E+00  2.86024816E-13 -7.10917752E-14 -8.30984875E-11
 -1.90502474E-14  7.85329258E-15 -7.34927003E-13 -4.54373753E-12 -7.85594486E-13
 -1.19589796E-01  6.28465037E-16  3.66100926E-15  4.25831282E+00  8.68907027E-14
 -4.24183518E-13  1.95000103E+00  6.90729002E-14 -1.29221681E-12 -9.78535058E-15
  6.60325661E-02  2.28650645E-15 -3.77007484E-16 -2.10086214E-15 -1.75951765E-13
  1.69161279E+00  4.40173640E-14  4.05751171E-15 -5.30847498E-16  9.47256256E-15
  9.94647525E-13  5.88082347E-12  1.09827412E-12  1.07069964E-01  1.04602768E-15
 -1.86744757E-14 -3.55506990E+00 -7.75425724E-14 -1.22338063E-13 -1.78172597E+00
 -8.35297605E-14 -3.15045581E-13  9.60501164E-15  4.07981294E-02  2.00996526E-15
  2.74854262E-16  7.56598671E-16  2.31303524E-13  2.91450671E+00  5.39261130E-14
 -3.97611554E-15  3.83749356E-15  1.25273743E-15 -1.86983553E-14 -1.43713364E-12
 -3.83539943E-13  1.28543435E-02 -3.47534745E-15 -1.94775456E-14 -7.85844599E-01
 -2.11064694E-14  2.27121820E-13 -8.71174466E-02  2.58231255E-14  6.87658369E-13
  5.48115722E-15  2.06546198E-02  1.04848387E-15 -2.82221823E-16 -1.91102340E-15
 -1.81517792E-13  4.73613947E-01 -6.18688539E-15  1.17107788E-15 -1.74418704E-16
 -7.38403586E-14 -9.00751388E-12  1.73593597E-10  6.71774860E-13  2.91347348E-15
 -1.19589796E-01 -7.93227068E-14 -1.27379036E-13  4.25831282E+00 -4.45658352E-12
  1.03362817E-13  1.95000103E+00  3.20244908E-11 -2.34958783E-13  6.45109220E-16
  6.60325661E-02 -5.83583177E-16  2.82541749E-16 -1.03764457E-12  4.63373742E-14
  1.69161279E+00  8.01349650E-16  9.26494154E-15 -1.25514983E-13  1.06004873E-11
 -1.50822990E-10  1.32589775E-13 -4.00233368E-15  1.07069964E-01 -8.95576515E-14
  3.91986832E-15 -3.55506990E+00 -5.31975412E-12 -1.84871865E-13 -1.78172597E+00
  6.37808827E-11  1.67552580E-13  2.14005712E-15  4.07981294E-02  7.46947176E-16
 -8.27305957E-16 -1.14759272E-12 -1.87365085E-13  2.91450671E+00 -2.83009547E-16
 -9.90607606E-15  1.04608043E-13  1.01627822E-12 -2.42764406E-11 -5.06294756E-13
  2.19357932E-15  1.28543435E-02  1.27916680E-13  7.88286502E-14 -7.85844599E-01
 -8.32747112E-13  1.07425904E-13 -8.71174465E-02  7.01590475E-12  7.73603849E-15
 -1.06700407E-15  2.06546198E-02  8.69839211E-16  4.65371672E-16  4.69397034E-13
 -1.14019809E-13  4.73613947E-01 -2.87265021E-17  1.90588277E-15 -3.24967766E-01
  3.00442274E+01  2.25132738E+00  1.53980899E+00  2.07150890E-14 -3.51378053E-14
  4.04516702E-01  1.52269169E-13  1.80909585E-12  1.30125381E+01 -4.28097658E-14
  1.14323282E-12  8.94472266E-01  5.99088939E-01  2.34885094E-14 -5.73264969E-15
 -1.64204178E-11  2.94600566E-16  2.01894790E+00 -1.24750004E-13  8.98819070E-13
 -5.25487990E-12 -3.01950604E-15  2.52231211E-01 -2.90153421E+01 -4.73298508E-02
 -1.51008344E+00  1.87905202E-14  2.30958389E-14  3.17665088E-01  9.90920537E-14
 -1.63629340E-12  1.38034468E+01  1.28670137E-13 -1.16485846E-12  2.74609983E+00
 -6.04650283E-01  2.07028845E-14 -1.85379060E-14  1.08856338E-11  3.10558102E-15
 -2.08073500E+00  3.43842088E-13  1.15992123E-12  1.74589253E-11 -4.89423519E-16
  1.67492741E-01  1.98484079E-01 -3.11390498E+00  2.80071971E-01 -8.96579267E-15
 -1.37375887E-15 -7.56702253E-02 -1.79150681E-13 -2.67237442E-13  7.07226345E-01
 -1.02690953E-13  1.03380820E-13  1.23484102E+00 -3.54994241E-02  2.45425047E-15
  8.41457701E-15  7.19118233E-12  3.25970497E-15 -4.61636057E-01  2.03882427E-13
  9.45812747E-14  5.80245111E-12  1.08963028E-14  3.27451720E-01  7.64421640E+00
  2.91067024E+01 -2.66810232E+00  1.80948982E-14  3.09658950E-14 -2.86811705E-01
  9.02222726E-14  1.08129858E-12  4.05984662E+00 -2.31316705E-13  8.19592179E-13
  6.00600890E+00 -1.91780581E-01  2.04985245E-14 -6.78029482E-15 -3.86865377E-12
 -1.22320752E-15  1.00332451E+00 -1.61153393E-13  4.84781500E-13  5.95896283E-11
 -3.02342758E-14 -4.51238189E-01 -7.03506175E+00 -2.46562527E+01  3.44524771E+00
  3.22211888E-14  1.64447793E-14 -2.50637660E-01  1.25884738E-13 -8.30210073E-13
  4.28912345E+00  3.76426430E-13 -8.08538469E-13  9.83402692E+00  1.78666850E-01
  2.83748097E-14 -1.55557133E-14 -7.87871606E-12  7.90111982E-15 -1.08345466E+00
  2.79555622E-13  9.07871386E-13 -3.12752046E-11  3.14753222E-14 -7.50111600E-01
  1.47035302E+00 -5.31772734E+00 -1.25930559E+00 -5.25662075E-14 -1.60029718E-14
 -1.74796338E-01 -1.14185104E-13 -2.71550398E-13  4.88108714E-01 -1.91432922E-13
  3.34668517E-14  1.81266065E+00  2.54897654E-02 -1.54238791E-14  2.99658396E-15
 -4.18865978E-11  1.96596390E-14 -4.86332113E-01  2.22338049E-13  1.86381019E-13
  4.01919955E-11 -2.35375856E-14  7.18033094E-01  2.96400675E+00  2.69042313E+01
  1.26461554E+00  2.41968266E-14  6.30357320E-14 -3.51880418E-01  4.76377738E-14
  4.32936506E-13  1.18808157E+00 -1.59260616E-13  4.65059555E-13  5.02985192E+00
 -3.57068237E-02  1.70291700E-14 -1.46498691E-14  3.06199812E-11  2.93814316E-16
 -1.63164272E-02 -8.29178529E-14  2.27822228E-13 -3.80016141E-11 -1.94462645E-14
  6.41070433E-02 -1.75364000E+00 -2.33960158E+01 -1.44183860E+00  3.63569763E-14
  1.03952144E-14 -1.21515880E-01  3.17067591E-14 -3.43778836E-13  2.95349703E+00
  2.56061866E-13 -4.71597167E-13  9.54601044E+00  3.52603396E-01  3.09414872E-14
 -2.44068189E-14  2.67570548E-11  9.66259779E-15 -1.00937289E+00  1.30547414E-13
  4.23382984E-13 -2.03601130E-11  1.88799320E-14  6.71584580E-01 -1.03748681E+00
 -3.50279169E+00  3.45198942E-01 -7.20813150E-14 -2.58060868E-14  5.33030474E-02
 -1.72301684E-14 -1.22245662E-13  7.83871255E-01 -1.31692448E-13  4.12262223E-14
  1.45548828E+00  2.62241093E-01 -1.31196351E-14  4.82241225E-15  6.40890394E-11
  2.63869123E-14 -7.55648773E-01  1.15086830E-13  8.22745899E-14 -4.43596919E-11
 -2.02211578E-14  4.68996025E-01  8.68191190E+00  5.46709807E+01 -6.71262153E-01
  1.22832183E-13  3.47143928E-13  1.55722076E-01  1.03400349E-13  3.13183833E-13
  1.79814025E+00 -3.50901037E-13  7.86746881E-13  9.55818027E+00  5.23396424E-01
  1.03884013E-13  7.71268653E-15  1.20884172E-10  2.12720008E-14 -2.93015250E-01
 -1.51344060E-13  2.67540669E-13 -3.34530875E-11 -4.77580581E-14  1.09069443E+00
 -7.32526115E+00 -5.07707247E+01  1.20575010E+00  2.02947510E-13  1.26240140E-13
  2.23852532E-01 -1.21526383E-13 -4.53497121E-13  2.91814555E+00  5.97583385E-13
 -7.53782844E-13  1.99965868E+01  9.56283011E-02  1.27745286E-13 -1.56264102E-13
  1.40637884E-10  6.40802516E-14 -3.57131707E+00  2.15195869E-13  5.78014645E-13
 -5.09022465E-11  2.80290181E-14 -8.65055176E-01  3.14243538E+00 -6.30444466E+00
 -3.68221047E-01 -2.95099046E-13 -9.43199776E-14 -1.43599818E-01  1.03079661E-13
 -1.17405636E-13 -1.17293013E+00 -3.06698532E-13  8.05600160E-14  1.41379335E+00
 -1.49960567E-01 -7.84163033E-14  4.98568516E-14 -2.61859484E-11  1.59685417E-13
  3.58176108E-01  2.24489738E-13  5.83120069E-14 -3.13420404E-12 -8.24786951E-14
 -1.13240438E-10 -1.44485291E-09 -9.72108801E-09 -4.16234645E-11  1.95034429E-13
 -1.36801021E-13 -2.39662849E-14 -2.27396895E-13  1.55138297E-13 -3.45751123E-10
 -5.48784126E-15  1.33654997E-14 -1.74215183E-09 -9.48534524E-11  1.08110954E-13
 -7.87025309E-14  6.83068663E-01  1.44560349E-04  4.05182706E-11 -1.05933894E-13
  7.61410517E-14 -2.07657447E-01 -4.39473139E-05 -2.01271063E-10  1.31812503E-09
  8.97908034E-09  4.60059834E-12  1.98188244E-13 -1.40134902E-13 -4.59335224E-11
 -7.79122397E-14  5.94669611E-14 -5.34493574E-10  8.21753116E-14 -7.17250165E-14
 -3.46672538E-09 -3.61508792E-11 -1.57486315E-13  1.09247121E-13  6.77522692E-01
  1.43386634E-04  6.17547601E-10 -2.16158729E-15  7.38489405E-17 -2.70980723E-01
 -5.73486531E-05  1.17773786E-10 -4.82391019E-10  1.06244658E-09 -9.75668795E-12
  3.94409176E-14 -2.83543379E-14  2.70629445E-11 -1.71480007E-15  1.29807826E-15
  1.75472935E-10  6.02100640E-15  3.95870492E-16 -2.39337110E-10  2.14565221E-11
  1.19856190E-13 -7.70310776E-14  1.78280984E-01  3.77302643E-05 -4.79907085E-11
 -1.02004603E-13  6.72354932E-14 -1.40068626E-03 -2.96432418E-07  2.84366493E-14
  8.42323415E-13  1.16447646E-11 -1.24624889E-15 -5.52931275E-14 -1.53200095E-13
  2.01076867E-14  6.12363780E-14  1.80073641E-13  1.97879235E-13 -3.40839690E-15
 -5.49141493E-15  2.14984511E-12  1.83114182E-14 -2.54664413E-14 -8.54109528E-14
  1.44560349E-04 -6.83068663E-01 -1.90938307E-14  2.92536478E-14  8.38164338E-14
 -4.39473139E-05  2.07657447E-01  5.99332230E-14 -5.94277895E-13 -1.03360707E-11
  7.75859180E-14 -5.84185705E-14 -1.58729570E-13 -3.55827682E-15  2.18587586E-14
  6.20256037E-14  3.29893467E-13 -2.26028040E-14 -5.28809205E-14  4.26837119E-12
  1.03281423E-14  5.11230457E-14  1.30783783E-13  1.43386634E-04 -6.77522692E-01
 -3.27949743E-13 -1.20135512E-14 -1.51249269E-15 -5.73486531E-05  2.70980723E-01
 -5.24252748E-14  2.39505133E-13 -1.58032987E-12 -5.24905723E-14 -6.91229353E-15
 -3.32081192E-14 -1.13711307E-14  1.90204609E-15  2.50697314E-15 -5.98998139E-14
  3.03313834E-15 -8.25146580E-15  4.40592192E-13 -1.79389940E-15 -4.29198974E-14
 -9.78095649E-14  3.77302643E-05 -1.78280984E-01  1.01568847E-14  2.60828305E-14
  8.39784956E-14 -2.96432416E-07  1.40068626E-03 -7.26265858E-15 -1.42487821E-12
 -9.76837920E-12  3.76698547E-14  5.35207085E-01 -6.39360291E-14 -1.40793114E-14
 -6.32084120E-01  1.02481970E-13 -4.15566213E-13 -1.81371961E-02  2.14098868E-16
 -1.76725857E-12 -2.96074775E-14  2.94966395E-01 -2.82068991E-14 -2.47709923E-13
 -7.66186819E-14 -2.78063747E-14 -2.99234918E-01  4.67632556E-14  7.88441816E-14
  2.55404074E-14 -1.08506489E-13  1.18717002E-12  8.57812896E-12 -1.44203032E-13
  5.52656843E-01 -6.58814103E-14 -2.10336005E-14 -2.11870560E-01 -3.81849574E-16
 -5.31857875E-13  2.30233794E-01 -1.61658480E-14 -3.70988062E-12 -2.89929801E-14
 -4.43667055E-01  6.36924702E-14 -2.41852390E-13 -6.87038194E-14  4.29786048E-13
 -2.95637938E-03  1.20922068E-14  9.40376209E-14  2.61873053E-14  7.36751658E-14
 -3.42034894E-13  1.50699229E-12  7.44039976E-14  1.16768618E-01 -2.57373926E-14
  2.55479000E-14 -7.64390399E-03  8.39147371E-15  7.88274308E-14  1.56631764E-02
 -1.45022144E-14 -4.45262834E-13 -7.73643945E-15  3.44947849E-01 -6.74205667E-14
 -6.59337593E-14 -1.58559978E-14  7.95886673E-15 -2.89425333E-01  5.07549954E-14
  2.54185814E-15  6.72905625E-16  2.12162483E-13  3.95192428E-12  4.87830764E-11
 -1.12033647E-13 -6.16873410E-14 -5.35207085E-01  5.84256981E-14  8.61339183E-14
  6.32084120E-01  9.17221676E-13  5.46254661E-16  1.81371960E-02  8.92621811E-12
  1.50538808E-13 -4.15290538E-14 -2.94966395E-01 -1.76831271E-13  1.96631802E-13
 -1.24289444E-13  3.95652940E-14  2.99234918E-01  5.57989504E-14 -5.70093703E-14
  3.56503918E-13 -2.98903992E-12 -4.35307211E-11  4.68884412E-13 -6.59383190E-14
 -5.52656843E-01  2.83880870E-14  2.56462945E-14  2.11870560E-01  1.51110180E-12
 -2.16489506E-14 -2.30233794E-01  1.78547987E-11  4.80208009E-14  6.38563560E-14
  4.43667055E-01 -1.65659974E-13  1.98578087E-13 -1.62313382E-12  1.25210792E-14
  2.95637941E-03  6.45688730E-14 -8.33342726E-14 -2.74652688E-13  1.22198267E-12
 -6.45657418E-12 -2.51316257E-13 -6.59751109E-15 -1.16768618E-01 -3.30391293E-14
 -1.14750502E-14  7.64390398E-03 -3.84187077E-13 -7.34652047E-15 -1.56631764E-02
  1.76804328E-12 -4.84311147E-14 -5.68625689E-14 -3.44947849E-01 -4.78857641E-14
  4.81165284E-14  9.91771071E-14  5.06630911E-14  2.89425333E-01  1.97854668E-15
  2.22514400E-15 -4.25466348E-12 -1.88663734E-10  1.98554211E-09 -4.86093918E-10
  4.66323462E-15 -8.38629352E-15  1.80870325E-11  5.76544206E-15 -2.48227860E-14
 -1.94953603E-10 -2.00140870E-15  1.36492114E-14  2.53061611E-10  2.49999067E-11
  6.32756013E-15 -1.59048758E-14 -1.82008615E-01  1.21226206E-04 -6.05255701E-11
  2.77521163E-15 -5.66291883E-15  1.04399564E-02 -6.95349674E-06  5.66767831E-11
  2.38574057E-10 -1.46759023E-09  6.19628254E-10  5.01460325E-15 -1.69405215E-14
  2.06011180E-12 -1.38963833E-14  3.79795742E-14 -1.90754029E-10  5.99245793E-15
 -3.38253910E-14  9.61107730E-10  2.10710424E-11  5.94085217E-15 -1.04757717E-14
 -5.99828363E-02  3.99513599E-05 -1.18007826E-10  3.44334828E-17 -1.52709206E-14
  1.42709963E-01 -9.50514756E-05 -5.89840880E-11  2.74791454E-10 -6.66438649E-10
 -2.23502930E-10 -1.97035963E-15 -2.61926505E-15 -4.76849545E-11  2.64597475E-15
  3.59031396E-15 -6.01762152E-11 -2.79676346E-15  1.73167443E-14  2.17309867E-10
  2.84736852E-11 -8.60711381E-15  3.98800415E-14  1.09128744E+00 -7.26848211E-04
  3.67423110E-12  2.87493452E-15 -2.39055454E-14 -4.53916534E-01  3.02329532E-04
 -1.11812275E-13 -2.39961574E-12 -3.11065109E-11 -3.87238045E-13 -4.89492002E-14
  2.70412953E-15 -4.70644487E-14 -5.55284998E-14  2.11382950E-14 -6.42282547E-13
  3.98890876E-14 -6.46776831E-15 -5.80685997E-12 -3.47498630E-14 -5.34050829E-14
  6.20802402E-15 -1.21226206E-04 -1.82008615E-01  3.15619910E-14 -2.25342495E-14
  1.00092002E-14  6.95349674E-06  1.04399564E-02 -1.41310420E-13  1.78607003E-12
  2.76728747E-11  2.83173578E-13 -5.87422714E-14  1.40155538E-14  2.16076844E-14
  1.24985988E-13 -3.11011284E-14 -1.06491011E-12 -1.05531957E-13  1.62379230E-14
 -1.12990702E-11 -1.32604347E-14 -5.48455590E-14  1.52823201E-14 -3.99513599E-05
 -5.99828363E-02  8.31898250E-13 -2.34753155E-14  5.11317505E-15  9.50514756E-05
  1.42709963E-01  8.85054317E-14 -4.50069361E-13  4.04371819E-12 -2.71321892E-14
 -2.13273919E-14  1.89032975E-15 -2.45743388E-14  1.29830219E-14 -2.62404343E-15
  1.31673989E-13  4.62980816E-14 -6.97732827E-15 -1.13228007E-12  3.78109613E-14
  1.45924535E-13 -1.79495174E-14  7.26848211E-04  1.09128744E+00 -3.04743589E-14
 -7.61586013E-14  1.05020868E-14 -3.02329532E-04 -4.53916534E-01  8.44060900E-14
  2.31823123E-12  3.30617935E-11 -5.57408481E-16 -3.49844870E-01 -2.17342286E-14
  6.93436312E-14 -2.84128836E-01  9.75449866E-15  4.92608292E-13  3.82976836E-01
  8.69029929E-15  6.11552827E-12  4.03940165E-14 -3.08670422E-01 -1.85666599E-14
  2.57030230E-15  2.42560848E-14 -6.02985776E-14 -9.08621245E-02  2.49563385E-16
  1.05002257E-15  1.37282198E-15  1.80457528E-13 -1.59645424E-12 -2.93451342E-11
  2.38790480E-13 -3.65659183E-01 -2.32654691E-14 -2.86160526E-14  7.14876426E-01
  2.68362147E-14  9.42497427E-13 -8.73669589E-01 -2.27653536E-14  1.21003953E-11
  4.65763019E-14 -3.43847364E-01 -1.12401991E-14  5.40191761E-16  2.04971963E-15
 -9.58987210E-13 -1.59078434E-01  9.59410355E-15 -2.72554526E-15 -2.09228766E-14
 -1.35680322E-13  6.69936581E-13 -4.49179076E-12 -1.55366487E-13 -1.08350368E-01
 -1.09034621E-14 -3.25807643E-14  6.87066274E-02  1.04364853E-15 -1.62508116E-13
  3.86030435E-01  4.26105140E-15  1.26978772E-12  1.73086110E-15  1.00415681E+00
  3.41787408E-14  1.15135137E-14 -1.64692491E-13  1.51495116E-14 -5.64644366E-01
 -7.81996285E-15 -4.00474382E-15  6.94071296E-14 -6.83311517E-14 -9.01439832E-13
 -1.31425971E-11 -5.19841699E-14 -3.49347104E-14  3.49844870E-01 -3.51696296E-14
  3.53319842E-14  2.84128836E-01 -1.85204686E-13  3.13379138E-14 -3.82976836E-01
 -2.45832551E-12 -1.99335694E-14 -1.02883691E-14  3.08670422E-01  2.45469998E-15
 -1.04861471E-15  3.78977981E-14  1.19187534E-14  9.08621246E-02 -3.46200041E-15
 -7.09352179E-16 -5.26402975E-14  6.02478298E-13  1.18316918E-11 -1.40051138E-14
 -2.12168017E-14  3.65659183E-01  3.27842806E-14  5.53068990E-15 -7.14876426E-01
 -4.28711459E-13 -6.00009652E-14  8.73669589E-01 -4.70106289E-12  8.49273969E-15
  1.64672296E-15  3.43847364E-01  5.66555187E-16  4.36471048E-15  3.68860052E-13
  8.46976437E-15  1.59078434E-01  5.45420238E-15 -1.18314725E-15  4.08790214E-14
 -2.11914654E-13  1.59988673E-12  3.28959730E-14 -1.32032167E-14  1.08350368E-01
  8.24176016E-15  4.61750225E-15 -6.87066274E-02  5.49811029E-14  1.79543505E-14
 -3.86030435E-01 -4.27022647E-13  2.12246994E-14  3.30383297E-14 -1.00415681E+00
  4.56341984E-14 -2.20379948E-14 -2.18322743E-14 -1.85649765E-14  5.64644366E-01
 -1.80309798E-14  8.90787084E-15 -4.51905665E-13 -8.34745371E-12 -8.46486135E-11
  5.33503085E-13 -1.92990353E-01  1.51542112E-14 -4.83234256E-13  3.60823600E-01
 -2.32594441E-14 -1.64923026E-12 -1.03984453E-01  5.55025274E-14 -1.54701796E-11
  7.30227549E-14  4.34937616E-01 -3.91889067E-14 -8.23024721E-15 -4.03156452E-14
  2.61166580E-13  9.03612144E-02  1.33312373E-14  5.99860648E-15  1.90493427E-14
 -5.45977434E-13  5.78120481E-12  7.50174197E-11 -1.47978223E-12  1.31372682E-01
 -2.37707951E-14  3.68114166E-13 -6.70748897E-01  4.76759369E-14 -4.21704034E-12
  7.48037161E-02 -6.97657342E-14 -3.15201478E-11  5.52963022E-14  1.57195150E-01
 -1.32415595E-14  6.06275152E-15  3.82325094E-14  2.76930671E-12 -3.02016422E-01
  2.09600230E-14 -5.66442089E-15 -1.93197467E-14  2.23460076E-13 -1.45246394E-12
  1.18833880E-11  7.79638451E-13 -1.26051791E+00  8.72307434E-14 -3.17626703E-13
  1.09077685E+00 -7.64322849E-14  4.86986235E-13 -1.97335940E-01  3.46170916E-14
 -3.54082615E-12  2.40941443E-13 -1.15711334E-02  5.60731264E-15 -4.41556435E-15
 -5.16559729E-15 -5.58968039E-14 -2.55254185E-01  9.11984541E-15  2.45555718E-15
  3.46221282E-15 -2.01551353E-13 -2.78432506E-12 -1.65923502E-11  7.43383485E-14
 -2.88314110E-14 -1.92990353E-01 -1.23986884E-13  6.24266526E-14  3.60823600E-01
 -7.93772753E-13 -4.43621579E-16 -1.03984453E-01 -3.15414358E-12 -1.04703963E-15
  4.17181074E-14  4.34937616E-01 -5.71526627E-15  4.13320662E-15  2.41560966E-15
  2.16420839E-14  9.03612144E-02  3.34934498E-15 -3.37180636E-15 -9.72754109E-14
  2.23750547E-12  1.53650793E-11 -2.42429902E-13  1.54130790E-14  1.31372682E-01
  1.10351768E-13 -8.29624809E-14 -6.70748897E-01 -1.52654397E-12 -8.84166864E-15
  7.48037161E-02 -5.79010051E-12  9.86974587E-14  3.25841825E-14  1.57195150E-01
  7.83549388E-15 -4.97157426E-15  6.49308583E-13 -2.21220505E-14 -3.02016422E-01
 -3.72173088E-15  4.86856865E-15  3.69539906E-15 -1.79530943E-13  1.67781623E-12
  1.38988896E-13 -8.61932167E-14 -1.26051791E+00 -1.33906906E-13  7.42442473E-14
  1.09077685E+00  1.12186690E-13 -4.76876961E-15 -1.97335940E-01 -4.24043802E-13
  1.64535912E-13 -2.91623683E-15 -1.15711334E-02  3.45606904E-15 -1.05085482E-15
 -7.87182629E-14 -2.11503048E-14 -2.55254185E-01 -6.36075918E-16 -1.29617522E-15
 -2.79270499E-01 -6.57077600E+00 -5.34316666E+00 -8.19212029E-01  1.33783613E-15
  6.67829818E-15  5.53876895E-01 -4.51410598E-14  7.20482839E-14 -4.26155964E+00
 -3.06493037E-14 -9.05061665E-14 -2.07994754E+00 -1.70670395E-01  3.98024983E-14
 -3.81832131E-16 -3.02656525E-12  3.47370424E-14 -9.78596153E-01 -8.20725670E-15
  8.59120795E-16 -8.63054037E-12 -1.49209158E-14  1.35201640E-02  8.18200339E+00
  7.81727386E+00  1.35685339E+00  7.97099464E-15  7.69520794E-14 -5.77184046E-01
 -2.11753153E-14 -9.54150480E-14 -2.54698785E+00  4.99514973E-14  1.39745587E-13
  8.68371828E-01  2.08841477E-01 -4.04255180E-14  6.19230003E-14  1.20971825E-12
 -2.49424713E-14  2.69788208E-01 -5.99515551E-14  3.76528938E-14 -1.17452680E-11
  1.51082526E-14 -2.21856097E-01  2.95033866E-01 -3.21310714E+00 -4.38207266E-01
 -1.09133724E-13  9.28317353E-14 -3.53121510E-01  1.18141576E-13 -7.54198308E-14
  4.13756722E-01 -3.45105298E-14 -3.58660522E-14  1.52921175E+00  7.63886303E-01
 -7.62959064E-14  1.41584285E-14 -3.24523021E-11  3.86924158E-14 -6.33497345E-01
 -4.99297221E-15  2.65532892E-14 -3.00721743E-12 -1.64071301E-14  6.42829019E-01
  8.32469546E+00 -2.29558715E+01 -7.34436069E-01 -2.47763515E-13 -2.18546288E-13
  8.19960947E-01  2.56708388E-13  2.48152747E-13  1.71180007E+00 -1.19139190E-13
 -2.37913083E-13 -4.10812397E+00 -2.94463826E-01  3.79201667E-13  2.44347538E-13
 -3.60146472E-11  9.74615585E-14  1.89976516E-03 -5.07758165E-14 -7.89347163E-14
  2.23515465E-11 -4.42888566E-14  3.57569927E-01 -6.58241623E+00  1.62252075E+01
  1.13547243E+00 -1.59865732E-13 -2.35471018E-14 -7.25096212E-01 -1.72578416E-13
 -1.53740342E-13  5.47469172E+00  9.14273689E-14  2.92781343E-13 -9.41080178E+00
 -3.95929681E-01 -9.63804055E-14 -7.89628045E-14  2.25213358E-11 -1.01771000E-13
 -1.43145691E+00 -6.82595406E-14  4.99158461E-14 -2.34443880E-11  5.21422379E-14
  1.32874767E-01 -2.82177559E-01  5.81036357E+00 -3.82713150E-01 -6.48224884E-13
 -1.62945674E-13  6.39281511E-01  5.50583945E-13  1.49784788E-13 -1.80039053E-01
 -1.43795562E-13 -1.34212108E-13 -1.82016269E+00 -5.90928518E-01 -1.38598157E-13
 -7.36993175E-14  2.45850946E-11  6.37249491E-14  1.17580860E-01 -5.88635801E-14
  1.77808653E-14 -2.05476527E-11 -2.54030304E-14 -4.90307341E-11 -1.56198710E-09
 -7.57869929E-12 -4.03888433E-11  6.48698112E-15  2.26325763E-14 -4.46009100E-11
 -2.59425132E-14 -1.47573300E-14 -5.81999470E-10  2.57107046E-16  1.78190883E-14
  6.54164370E-12 -3.76828036E-11 -1.29481143E-14 -1.42149351E-14 -9.16074886E-01
 -1.42940167E-04 -7.56877484E-11 -1.77528344E-15  1.75393985E-14  5.45447421E-01
  8.51091398E-05 -2.69067973E-12  1.42850833E-09 -6.80507909E-11  1.94597057E-11
 -1.52713020E-15  3.53777858E-14  2.50815853E-11  2.08187104E-14 -3.34123161E-14
 -7.90301473E-10 -3.64990254E-15 -1.84657574E-14 -1.64422222E-10  5.81301978E-11
 -1.84322267E-15  2.37837373E-14  9.47086693E-01  1.47779109E-04  1.68904105E-10
 -1.44932007E-14 -2.21535830E-14 -5.89643325E-01 -9.20052679E-05 -2.08309198E-12
 -3.34024038E-11  1.87572165E-10 -2.09506504E-12  6.55120662E-15  5.48358944E-15
  1.16849121E-11 -2.59194672E-15  4.38549369E-15 -4.74710599E-11  6.23417493E-15
  1.20643450E-14 -6.45046337E-11  3.09259661E-11  1.87712989E-15  1.00107201E-14
 -8.44686142E-02 -1.31800991E-05  1.57268101E-11 -2.83709865E-15 -1.53854592E-14
  1.28386775E-01  2.00328896E-05  6.58765401E-14  6.12760525E-13 -1.20696013E-11
 -7.48460748E-14  3.03991039E-14  2.68853570E-14  1.19579012E-13 -6.45769887E-14
 -8.76370336E-15  4.48446044E-14  1.16945784E-14  4.24226850E-14 -2.25182366E-12
 -4.70091204E-14 -3.98254803E-14 -1.78276877E-14  1.42940167E-04 -9.16074886E-01
 -9.09212269E-15 -1.41666054E-15  3.45272376E-14 -8.51091398E-05  5.45447421E-01
  1.57591369E-14 -4.48088250E-13  1.01827668E-11  7.27659523E-14  1.08752827E-14
  3.94413350E-14 -1.22055945E-13  4.27147839E-14 -5.66895201E-14  5.76248900E-13
 -1.92783031E-14 -5.41783001E-14 -4.45677145E-12 -6.09052102E-14  1.32735435E-14
  3.56615844E-14 -1.47779109E-04  9.47086693E-01 -3.30896134E-15 -3.04086964E-14
 -3.62578148E-14  9.20052679E-05 -5.89643325E-01  3.72573564E-14 -1.71832881E-13
  1.88336070E-12  3.91221928E-15  4.58735416E-14 -1.55103636E-14  3.71478048E-14
 -3.13674500E-14  2.46499381E-14  7.07358938E-14  2.36826786E-14  2.56130276E-14
 -5.50290690E-13 -5.46958791E-14  1.01438261E-14  2.17597173E-14  1.31800991E-05
 -8.44686142E-02 -2.26354944E-14 -5.78454995E-15 -3.23228538E-14 -2.00328896E-05
  1.28386775E-01  2.59304323E-13  1.18559331E-12 -7.17773843E-11 -1.35465645E-13
  2.87713508E-01  1.12552911E-13  2.90221294E-13  7.20182962E-01  5.49995736E-14
  4.30630670E-13  6.74280700E-01  1.90866244E-13 -1.32283244E-11 -6.03103025E-14
 -1.46252344E-01 -7.40897800E-14  3.50515769E-15  2.55177270E-14  1.16683328E-13
  7.54965662E-01  1.70593444E-13 -2.74377185E-16 -1.98659526E-14 -2.07076399E-13
 -1.31258335E-12  6.16042024E-11 -1.98320007E-13  8.91669152E-01  1.93608576E-13
 -3.77788677E-13 -1.65760297E+00 -3.10409806E-13  1.83805354E-12 -7.49574686E-01
 -2.22959672E-13 -2.67279762E-11 -3.45782969E-13  8.91880653E-01  1.82511374E-13
 -2.13853433E-15 -2.91377015E-14  8.48408689E-13 -1.36634038E-01 -8.11581205E-14
 -1.69670345E-16  2.42044643E-14  2.50205054E-13 -1.28096031E-12  1.09243740E-11
  2.70324707E-13 -3.22838193E-02 -1.67094639E-14  3.51353134E-15  1.04477090E-01
  4.29059492E-14  5.92118709E-13  3.14777654E-01  9.81337341E-14 -3.22800240E-12
 -2.16010991E-13  3.54674623E-01  8.31039405E-14 -1.52575857E-15  4.37274647E-15
 -1.29560802E-13 -3.58568857E-01 -1.02610639E-13  8.13514241E-16 -7.36350439E-15
  1.74563245E-14 -6.56088232E-13  6.80419288E-12  1.90657151E-13  1.03861898E-13
 -2.87713508E-01 -9.56646663E-14  1.09587971E-14 -7.20182962E-01  3.09446662E-14
  1.00081278E-13 -6.74280700E-01  1.20765657E-12  1.44226200E-13 -7.80646659E-14
  1.46252344E-01 -3.19583879E-14 -4.80783959E-14 -4.52197530E-14  1.27292567E-13
 -7.54965662E-01  1.93283378E-14  2.59380523E-14 -1.93211293E-13  6.27100899E-13
 -4.98000970E-12 -2.56021746E-13  1.87784428E-13 -8.91669152E-01  5.15608891E-15
 -2.48142664E-13  1.65760297E+00 -2.23209666E-13 -1.10287283E-13  7.49574686E-01
  2.84382115E-12 -7.06195351E-14  1.78081652E-13 -8.91880653E-01  3.56545569E-14
  4.32551120E-14  2.78434069E-13 -1.02557267E-13  1.36634038E-01 -2.13857251E-14
 -2.42308291E-14  4.00773166E-15 -1.18757649E-13 -1.71754527E-12  8.48487579E-14
 -2.45069304E-14  3.22838193E-02 -2.24558692E-13  5.16492537E-14 -1.04477090E-01
  2.86684609E-13  5.92516849E-14 -3.14777654E-01  5.55719370E-13  1.10528348E-13
  7.13083874E-14 -3.54674623E-01  5.43278515E-16  5.12751276E-15 -1.09588689E-13
 -8.14837831E-14  3.58568857E-01  3.06655020E-15  7.50633861E-16  5.60466358E-01
  5.48629213E+00  5.99383173E+00  6.33331494E-01  5.12222931E-14  7.59818595E-13
  1.05656633E-01 -5.02532669E-13 -2.55563606E-12  2.21416789E+00 -2.20604625E-13
 -3.69954161E-13  6.28013860E-01 -1.44219157E-01 -8.68161082E-14 -7.70043652E-13
 -2.02305938E-11  2.24242398E-14  7.12256357E-02 -2.55482221E-13 -4.18264532E-13
 -7.00108467E-12 -1.86096764E-14 -2.16987143E-01 -3.78995149E+00 -6.10071544E-01
 -6.76568438E-01 -2.21606350E-13 -4.07690691E-14 -5.11204013E-01  6.54810608E-13
  1.63321894E-12  5.07776410E+00  2.37994290E-13  2.73572237E-13  5.01506388E+00
 -3.87487921E-01 -2.25674670E-13 -2.83546441E-13  2.74163369E-11 -2.01008020E-14
  3.41769429E-01 -1.14921731E-13 -1.52210240E-12 -1.68025700E-11  1.83514419E-14
  4.73038919E-01 -1.54990597E+00 -5.61613030E+00  2.47066872E-01  4.25956887E-14
 -4.19447195E-13 -1.25784098E+00 -2.70526928E-14  7.15035020E-13  2.65228627E+00
 -5.74658496E-14  1.42245102E-13  2.05779045E+00 -5.26304173E-01 -8.42422767E-14
 -4.81304982E-14  8.47311797E-12 -2.18837048E-17 -7.73547750E-01  7.75871329E-14
 -3.72689001E-13 -1.38951687E-11 -1.02536599E-15 -3.19401443E-14 -9.18374045E-13
 -3.77427283E-11  1.67515705E-13  1.00732475E+00  9.82204628E-14  5.27415743E-14
 -3.87459554E+00 -2.80051983E-13 -2.50835993E-13 -7.74804452E-01 -2.28587485E-14
 -6.75257054E-12 -2.33091860E-14 -1.05297163E+00 -9.88539102E-14  5.20508035E-15
  1.33864127E-14  1.08681332E-13 -8.14769768E-01 -2.44182602E-14 -3.71743588E-15
 -7.19996045E-15 -3.72419974E-14  2.87266349E-13  3.13375493E-11 -5.26115013E-13
 -2.16531084E-01  3.28935183E-14 -1.19614640E-14  2.73077546E+00  1.32547828E-13
 -4.13358588E-13  6.36964831E-01  2.22677861E-14 -1.48512788E-11 -4.31375274E-14
 -5.37299003E-01 -1.38365394E-14 -7.34977627E-15 -1.74576284E-14  4.39926969E-13
 -2.24333007E+00 -1.79288909E-13  5.02216043E-15  7.80883945E-15  2.78482421E-14
 -3.35175496E-13  6.93830459E-12  2.95860609E-13 -5.60445367E-01 -7.08762949E-14
  1.97868881E-13  9.96441104E-01  1.10755972E-13 -2.09836635E-13  1.52760290E-01
  5.58729451E-15 -2.20521959E-12 -9.37203543E-15 -9.55434952E-02 -1.82185541E-15
  8.27461271E-16 -8.04235652E-15  1.15834253E-13 -4.98275494E-01 -4.62360743E-14
 -1.61287837E-15  7.36583916E-16 -2.87984782E-13 -2.87424099E-12 -1.25162521E-10
 -3.51215676E-13 -1.09867373E-13  1.00732475E+00  6.49007533E-14  3.03046277E-13
 -3.87459554E+00 -3.94005181E-13 -3.93035093E-14 -7.74804452E-01 -2.24126150E-11
  3.23115423E-13  8.80075113E-14 -1.05297163E+00  6.12426514E-15  1.27893784E-14
  4.52314102E-13  5.53299727E-15 -8.14769768E-01 -5.51517544E-15 -1.17343346E-14
 -2.67170053E-13  7.72827771E-14  1.03627308E-10 -4.65052308E-13 -1.29588139E-14
 -2.16531084E-01  1.63358676E-13 -1.33725660E-13  2.73077546E+00 -2.38775988E-12
  8.19855130E-14  6.36964831E-01 -4.94835845E-11 -1.97872782E-13 -5.93481652E-16
 -5.37299003E-01 -6.66975584E-15 -1.38511983E-14  1.28724687E-12  2.22198539E-13
 -2.24333007E+00  5.45644899E-15  1.23802961E-14 -1.55603172E-13 -3.24572945E-13
  2.34227224E-11  4.75914892E-13  6.20099429E-14 -5.60445367E-01  1.18084886E-12
 -1.11818436E-13  9.96441104E-01 -1.80293294E-12 -6.47560303E-14  1.52760290E-01
 -7.30248105E-12  3.57430795E-13 -1.31231646E-14 -9.55434952E-02 -4.63024078E-15
  5.60419386E-15  5.58098200E-13  8.91083112E-14 -4.98275494E-01  3.97558047E-16
 -3.97573136E-15  6.65607058E-01  2.34184948E+01  8.14012595E+00  2.07834409E-01
  4.24926533E-14 -3.06837591E-13 -6.85777995E-02  5.21104244E-16  1.76229907E-12
  1.08557069E+01 -1.54934556E-13  6.96848848E-13  2.36160198E+00  1.29903692E+00
  1.55011662E-13  3.87980788E-13 -1.92708948E-11 -3.42721582E-18  1.53267993E+00
 -1.96433235E-13  5.80647463E-13  2.26991308E-11 -7.43709828E-15 -6.14225111E-01
 -2.29620048E+01 -8.67543270E+00 -4.50948993E-02 -2.92927927E-13  1.81910662E-13
 -2.20154726E-01  3.42106746E-13 -1.47615391E-12  1.12733714E+01  1.82709244E-13
 -7.00678062E-13  1.95306401E+00 -1.24878689E+00  2.78368136E-14  3.40035785E-13
  1.77495039E-11 -7.74404352E-15 -1.94580859E+00  1.79680955E-13  9.50898698E-13
 -1.97950221E-11  8.96395650E-15 -1.27861848E-01  5.68605985E-01 -1.37236334E-02
 -1.56172009E-01  1.04058486E-13  1.56854267E-13  3.38142228E-01 -1.85840983E-13
 -3.50524635E-13 -2.26195076E-01 -6.96691300E-14  5.86886080E-14  9.99828334E-02
  9.15759705E-02 -5.55805314E-15  7.30960103E-14 -4.53302641E-12 -1.66065850E-14
 -1.72498330E-01  1.52443442E-13  1.27330885E-13  7.08543512E-12  8.04421807E-15
 -9.74350599E-14 -4.28543791E-12 -2.81750176E-12 -1.83537681E-13  9.82467604E-01
 -1.53663314E-15  4.73897548E-14  1.38393882E-01 -6.01333462E-14 -1.93367765E-12
 -4.07612974E-01 -1.37407359E-14 -7.28473701E-13 -1.41716889E-13  1.26911077E+00
 -2.70650385E-14 -1.69529436E-15  3.05837345E-15 -3.12367690E-13 -2.95055980E-01
 -1.21818898E-14  2.56004135E-15 -4.00950728E-15  6.82641914E-15  4.21069110E-12
  2.80801031E-12  1.94724921E-13 -1.04302161E+00  1.11555424E-14  7.94317959E-14
  1.97267836E-02  4.26054177E-14 -2.08044792E-12  4.46776161E-01  1.06469167E-14
 -7.76036704E-13  1.87928447E-13  1.24265069E+00 -2.21450030E-14 -2.69347274E-16
 -5.37649734E-16  4.18705717E-13 -4.03030187E-02 -3.67814524E-14 -1.12288538E-15
  3.45601629E-15  1.40642238E-14 -1.21907120E-13  1.36497753E-13 -2.80370686E-14
  7.56001580E-02 -6.94666615E-15 -4.44896251E-14 -1.49076440E-01  1.61975325E-14
  2.34944125E-14 -5.57054764E-02  2.67778497E-15 -5.51424593E-14  4.97044688E-15
  1.95484862E-01 -5.23238372E-15 -2.01408982E-15  1.24562362E-15  3.52693249E-14
  3.10936499E-02 -8.11694598E-15  2.53231623E-15 -1.11970142E-15 -3.12387243E-14
 -2.16957458E-12 -5.04909853E-11 -2.79444498E-13  1.94717298E-14  9.82467604E-01
  4.18872645E-14 -4.99218987E-14  1.38393882E-01 -8.00980080E-13 -3.10926918E-14
 -4.07612974E-01 -9.44523139E-12 -1.10751704E-13  6.85525010E-15  1.26911077E+00
 -1.08306500E-15  2.24607456E-15  1.40597568E-14 -2.56102488E-14 -2.95055980E-01
  1.44807143E-15 -5.18250175E-15 -4.49563803E-15  1.53204262E-12  4.39006140E-11
  6.12727488E-14 -2.18944844E-14 -1.04302161E+00 -4.68960735E-14  5.17549080E-14
  1.97267836E-02 -7.53527537E-13  3.01270421E-14  4.46776161E-01 -1.85774488E-11
 -2.48739951E-14  6.01313166E-15  1.24265069E+00  2.43337260E-15 -1.40482514E-15
  7.71655342E-13 -2.65652899E-14 -4.03030187E-02 -8.54324152E-16  5.62871950E-15
  6.70391196E-14 -5.28061732E-13  7.26004404E-12  1.32723957E-13  2.20285572E-15
  7.56001580E-02  2.74464812E-14  3.17860707E-15 -1.49076440E-01  1.05455802E-13
 -1.86045100E-15 -5.57054763E-02 -2.10626997E-12 -8.77751237E-15  1.58874303E-15
  1.95484862E-01 -2.93883019E-15  2.70282202E-15 -3.67570583E-14 -1.28578485E-15
  3.10936499E-02  1.84600184E-15 -2.81500628E-15 -6.25759380E-01  3.50736849E+00
  4.56327502E-01  2.94435755E-01 -3.92456999E-14  6.18860137E-15  4.69838220E-01
 -4.34979294E-15  1.39779674E-13  2.80354000E+00  2.22271452E-15  5.17795025E-14
 -1.72282705E-01  1.39668068E+00 -4.31805409E-14  5.30560471E-14 -2.78025449E-12
 -1.09991958E-15  2.53508556E-01 -1.05618822E-14  4.92202453E-14  2.79705098E-12
 -5.80752602E-16 -1.94211137E+00 -2.79001313E+00  2.67515119E+00 -4.58255334E-01
  1.63019572E-14 -3.75586874E-15  8.26718755E-01  3.98169461E-14 -1.32208683E-13
  1.29649058E+00  6.14719787E-16 -4.80429271E-14  1.86298651E+00  5.74900021E-01
 -5.45043958E-14  5.43334924E-14  2.99661156E-12  4.93253182E-16  1.09049963E+00
  2.76977484E-14  6.77350731E-14 -7.90635173E-12  1.20648163E-15  2.91456073E-01
 -1.37199430E+00 -2.32762824E+00  8.97278055E-02  9.27245260E-15  8.71798993E-15
 -1.45089642E-01 -1.65096414E-14 -2.08364440E-14  1.03780107E+00 -7.50879795E-15
  3.34145528E-15  7.87959455E-01 -4.44582190E-01 -1.76881757E-14  9.39548151E-15
  8.17031596E-13  3.67562793E-16 -5.96715392E-02  2.23129428E-14  5.79088766E-15
 -7.15389478E-14  9.51302294E-16  1.74435762E+00  6.12235178E+00 -8.02756656E-02
 -2.23363019E-01 -3.17832785E-14 -2.02335071E-14  2.00660741E+00  2.54039688E-14
  1.30768734E-13  1.56020241E+00  2.84745636E-14  8.97162799E-14 -2.35380410E-01
  7.62994207E-01 -2.70887946E-14  1.03088776E-14 -1.78603266E-12 -1.34148617E-15
 -9.49702412E-03 -1.93675583E-15  6.41670863E-14  2.58422575E-12  1.92191838E-15
 -4.79164754E-01 -6.59345465E+00 -1.17607316E+00  4.57144800E-01  2.81591608E-15
  2.14895581E-14  1.99972713E+00  2.51493174E-14 -1.23391421E-13  1.64785038E+00
 -3.21328114E-14 -9.69913477E-14  3.05116096E-01 -1.59584242E+00 -3.58037830E-14
  1.43757603E-14  1.47909194E-12  1.13432237E-15 -1.32378778E+00  5.08295402E-14
  7.25680662E-14 -4.50957296E-12 -2.89941319E-15 -3.99426096E-01  1.63058057E+00
  4.80792026E-01 -1.77835275E-01  1.34077376E-14  5.87646996E-15  1.44419132E-01
 -3.28431609E-14 -2.11475995E-14 -1.27369906E+00  3.77652593E-15  1.68056204E-14
 -2.64586941E-01  4.25283794E-01 -5.99486719E-15  3.97434640E-15 -9.47090895E-14
 -2.28365886E-15  2.65509437E-01  2.48196078E-14  4.04656843E-15  1.06623986E-12
  3.00504784E-15
Alpha Orbital Energies                     R   N=          69
  1.97434744E+00  1.00056289E+00  2.50896748E-02  0.00000000E+00  0.00000000E+00
  0.00000000E+00  0.00000000E+00  0.00000000E+00  0.00000000E+00  0.00000000E+00
  0.00000000E+00  0.00000000E+00  0.00000000E+00  0.00000000E+00  0.00000000E+00
  0.00000000E+00  0.00000000E+00  0.00000000E+00  0.00000000E+00  0.00000000E+00
  0.00000000E+00  0.00000000E+00  0.00000000E+00  0.00000000E+00  0.00000000E+00
  0.00000000E+00  0.00000000E+00  0.00000000E+00  0.00000000E+00  0.00000000E+00
  0.00000000E+00  0.00000000E+00  0.00000000E+00  0.00000000E+00  0.00000000E+00
  0.00000000E+00  0.00000000E+00  0.00000000E+00  0.00000000E+00  0.00000000E+00
  0.00000000E+00  0.00000000E+00  0.00000000E+00  0.00000000E+00  0.00000000E+00
  0.00000000E+00  0.00000000E+00  0.00000000E+00  0.00000000E+00  0.00000000E+00
  0.00000000E+00  0.00000000E+00  0.00000000E+00  0.00000000E+00  0.00000000E+00
  0.00000000E+00  0.00000000E+00  0.00000000E+00  0.00000000E+00  0.00000000E+00
  0.00000000E+00  0.00000000E+00  0.00000000E+00  0.00000000E+00  0.00000000E+00
  0.00000000E+00  0.00000000E+00  0.00000000E+00  0.00000000E+00
Beta Orbital Energies                      R   N=          69
  1.97434744E+00  1.00056289E+00  2.50896748E-02  0.00000000E+00  0.00000000E+00
  0.00000000E+00  0.00000000E+00  0.00000000E+00  0.00000000E+00  0.00000000E+00
  0.00000000E+00  0.00000000E+00  0.00000000E+00  0.00000000E+00  0.00000000E+00
  0.00000000E+00  0.00000000E+00  0.00000000E+00  0.00000000E+00  0.00000000E+00
  0.00000000E+00  0.00000000E+00  0.00000000E+00  0.00000000E+00  0.00000000E+00
  0.00000000E+00  0.00000000E+00  0.00000000E+00  0.00000000E+00  0.00000000E+00
  0.00000000E+00  0.00000000E+00  0.00000000E+00  0.00000000E+00  0.00000000E+00
  0.00000000E+00  0.00000000E+00  0.00000000E+00  0.00000000E+00  0.00000000E+00
  0.00000000E+00  0.00000000E+00  0.00000000E+00  0.00000000E+00  0.00000000E+00
  0.00000000E+00  0.00000000E+00  0.00000000E+00  0.00000000E+00  0.00000000E+00
  0.00000000E+00  0.00000000E+00  0.00000000E+00  0.00000000E+00  0.00000000E+00
  0.00000000E+00  0.00000000E+00  0.00000000E+00  0.00000000E+00  0.00000000E+00
  0.00000000E+00  0.00000000E+00  0.00000000E+00  0.00000000E+00  0.00000000E+00
  0.00000000E+00  0.00000000E+00  0.00000000E+00  0.00000000E+00
Total SCF Density                          R   N=        2415
  7.45216475E-02  1.27466222E-01  2.19416696E-01  1.22678583E-01  2.14125164E-01
  2.24954384E-01  6.55949409E-03  1.11983719E-02  1.20393932E-02  7.52410005E-04
  1.50987905E-17  2.73012765E-17  3.25015669E-17  1.72030879E-18  5.60505261E-33
 -4.26987234E-17 -7.45794970E-17 -7.23238132E-17 -3.36957805E-18 -9.42502190E-33
  2.69443033E-32  3.77591886E-03  6.68021657E-03  7.64414594E-03  4.28510338E-04
  1.23605438E-18 -2.20167866E-18  2.83376017E-04 -1.84052053E-16 -3.17298247E-16
 -3.68010110E-16 -2.38298763E-17 -5.80945309E-32  9.21938983E-32 -1.40909595E-17
  7.95522295E-31  4.17669730E-16  7.39843336E-16  7.34649010E-16  3.21825132E-17
  1.01675566E-31 -2.76324223E-31  2.28284483E-17 -8.93078860E-31  2.90657233E-30
  6.55862896E-03  1.20808248E-02  1.56103812E-02  8.51990458E-04  2.92606239E-18
 -4.11433133E-18  6.33858966E-04 -3.03766542E-17  4.56260647E-17  1.58669847E-03
  5.55040194E-16  9.77511842E-16  7.77754481E-16  1.86518905E-17  7.17610574E-32
 -4.11489868E-31  1.56424817E-17 -1.14490762E-31  4.33947191E-30  1.72303043E-17
  9.77638209E-30  7.37935748E-16  1.23038778E-15  1.21331358E-15  7.83588590E-17
  1.46363269E-31 -3.60478679E-31  3.96792472E-17 -2.33254667E-30  3.24418149E-30
  6.65000099E-17  2.65150851E-30  8.99008790E-30  1.63674687E-02  2.86138524E-02
  3.18702182E-02  1.83496314E-03  4.92843441E-18 -9.22077546E-18  1.15788589E-03
 -5.92488506E-17  9.33503894E-17  2.48919853E-03  6.56012459E-17  1.77788593E-16
  4.80257884E-03  1.14915754E-04  3.69760341E-04  1.12677440E-03  6.14036397E-05
  3.34836530E-19 -1.45499863E-19  6.41671776E-05 -2.96099463E-18  2.51738112E-18
  2.06438827E-04 -4.83375410E-18  1.16401669E-18  2.26875939E-04  3.84043805E-05
 -2.21633716E-17 -3.80358855E-17 -3.49242018E-17 -1.68811089E-18 -4.00657196E-33
  1.33842900E-32 -9.94511812E-19  4.35184241E-32 -1.32784466E-31 -1.59910489E-18
 -2.12071155E-31 -1.97297515E-31 -4.32121600E-18  3.06255641E-20  6.99236289E-33
  1.54340009E-17  2.80142744E-17  2.92070515E-17  1.17596579E-18  4.46643736E-33
 -1.09668641E-32  9.49510352E-19 -3.40808138E-32  1.19820559E-31  2.09989054E-18
  1.74504452E-31  1.04222915E-31  3.74280133E-18  1.76196272E-19 -4.97237359E-33
  5.21417002E-33  9.59898716E-13  1.70253061E-12  1.87244449E-12  9.76236186E-14
  2.92156607E-28 -5.87989644E-28  6.63185833E-14 -3.09636033E-27  6.15193251E-27
  1.45279278E-13  5.97991759E-27  9.15715014E-27  2.70282079E-13  1.33771170E-14
 -2.69997667E-28  2.56540886E-28  1.61421618E-23  5.30671797E-18  1.05877180E-17
  1.39111174E-17  5.13018012E-19  2.84152882E-33 -4.57434394E-33  5.49038182E-19
 -1.88392211E-32  5.57123266E-32  1.51785654E-18  5.83073692E-32  2.30965503E-32
  1.99651491E-18  2.17655360E-19 -1.61230225E-33  2.79084895E-33  1.39809823E-28
  2.04621255E-33  3.09652147E-05  1.81346151E-04  8.35984776E-04  5.27776949E-05
  2.65723617E-19 -5.16349601E-20  5.16738628E-05 -2.58909463E-18  1.27341295E-18
  1.68083231E-04 -6.03764458E-18  1.21574606E-18  1.84075423E-04  3.20993701E-05
  5.67904880E-20  1.08506392E-19  1.01860451E-14  1.62233447E-19  2.73543794E-05
 -1.32488520E-17 -2.54281960E-17 -8.75010015E-17 -8.76457100E-18 -2.37239730E-32
 -5.30259671E-33 -5.46629891E-18  3.73009794E-31  5.84249107E-32 -1.54751518E-17
  1.14741567E-30 -6.32784492E-31 -2.17983165E-17 -2.72447099E-18 -7.21451747E-33
  9.42541883E-34 -9.06423391E-28 -6.97181088E-33 -2.53619779E-18  3.42038446E-31
  3.59612838E-16  6.13505532E-16  5.94784790E-16  3.27088143E-17  7.36086340E-32
 -2.02119378E-31  1.85538775E-17 -9.30545053E-31  1.96157897E-30  3.23575065E-17
  2.47046150E-30  3.67373636E-30  8.06554217E-17  6.73895241E-19 -1.05268253E-31
  7.16931358E-32  4.64540278E-27  2.42808819E-32  3.08899717E-19 -1.05833537E-31
  1.74326844E-30 -1.96680578E-11 -3.40783041E-11 -3.33650901E-11 -1.67640514E-12
 -4.33441417E-27  1.18550240E-26 -1.03877645E-12  4.72456530E-26 -1.19376153E-25
 -1.92264992E-12 -1.63521571E-25 -1.81208792E-25 -4.40273030E-12 -6.98813689E-14
  5.96092058E-27 -4.62411111E-27 -2.68523391E-22 -1.85608323E-27 -3.41766897E-14
  2.26243013E-27 -9.41250172E-26  5.34134119E-21 -2.32620254E-17 -3.96634314E-17
 -4.68805383E-17 -3.24888199E-18 -7.42216130E-33  1.06829131E-32 -1.84215925E-18
  1.09867908E-31 -9.93159850E-32 -3.94639628E-18  3.36645649E-32 -3.21884548E-31
 -7.82545545E-18 -3.90648384E-19  5.11650499E-33 -3.58933301E-33 -3.90722996E-28
 -1.99498078E-33 -3.55263746E-19  5.63431222E-32 -1.19473313E-31  5.76990023E-27
  1.55067574E-32  6.65117325E-02  1.15764091E-01  1.26494565E-01  7.27281555E-03
  1.90293332E-17 -3.73011469E-17  4.51429271E-03 -2.31436753E-16  3.74566253E-16
  9.48131411E-03  2.88878969E-16  7.20027242E-16  1.88451428E-02  7.98898891E-04
 -1.77995479E-17  1.47872342E-17  1.06053840E-12  7.48039996E-18  6.43606036E-04
 -7.91760988E-17  3.27213549E-16 -1.77829036E-11 -3.05299382E-17  7.42533069E-02
  9.31862506E-02  1.61839778E-01  1.76357814E-01  1.02238895E-02  2.63567261E-17
 -5.18099213E-17  6.28521209E-03 -3.24895429E-16  5.17664968E-16  1.31134841E-02
  3.92696779E-16  1.01897233E-15  2.63136483E-02  1.08445873E-03 -2.48629679E-17
  2.02834401E-17  1.47286555E-12  1.01100890E-17  8.77892770E-04 -1.11495044E-16
  4.59016715E-16 -2.47963755E-11 -4.30041149E-17  1.03767383E-01  1.45105317E-01
 -1.80947717E-02 -3.03145959E-02 -3.71183761E-02 -2.84441335E-03 -5.93451071E-18
  7.06635944E-18 -1.52322132E-03  9.80600101E-17 -6.00006048E-17 -3.24515375E-03
  8.97218804E-17 -2.85537906E-16 -6.56202695E-03 -3.32246677E-04  3.46988535E-18
 -1.88806743E-18 -3.05324654E-13 -1.08940006E-18 -3.18662993E-04  5.62686304E-17
 -9.53752070E-17  4.23409887E-12  1.42316625E-17 -2.55373034E-02 -3.61452093E-02
  1.35125380E-02 -8.86604499E-03 -1.48315579E-02 -1.60919221E-02 -1.12299486E-03
 -2.24227976E-18  4.00438611E-18 -5.88397812E-04  3.61124850E-17 -3.54990353E-17
 -1.12972719E-03 -1.78200141E-18 -1.20371338E-16 -2.57908349E-03 -7.63629400E-05
  2.10278186E-18 -1.14436066E-18 -1.26826228E-13 -4.02708671E-19 -7.34008931E-05
  1.56725191E-17 -4.51579704E-17  2.14233413E-12  5.11440340E-18 -1.02330823E-02
 -1.44771646E-02  4.70413789E-03  1.78662579E-03 -3.51658744E-17 -6.28523537E-17
 -7.08378597E-17 -3.67071401E-18 -1.14533477E-32  2.18619504E-32 -2.56402663E-18
  1.18754240E-31 -2.31718657E-31 -5.78761012E-18 -2.11465560E-31 -3.32002120E-31
 -1.03500443E-17 -5.81252454E-19  9.78323215E-33 -9.86412444E-33 -6.20492735E-28
 -5.68369660E-33 -4.47754944E-19  3.86077158E-32 -1.70232484E-31  9.96019116E-27
  1.49687444E-32 -4.03858555E-17 -5.60017700E-17  1.16886988E-17  4.72752344E-18
  2.40236387E-32  4.59718807E-17  7.97869898E-17  7.49050289E-17  3.44964876E-18
  9.16615391E-33 -2.88325659E-32  2.18322521E-18 -9.01850663E-32  2.92651064E-31
  3.80708023E-18  4.64431506E-31  3.86013738E-31  9.27121541E-18  3.57475808E-20
 -1.46417520E-32  1.13838968E-32  5.95861962E-28  4.29792461E-33 -4.68432661E-20
  1.48600778E-32  2.17100803E-31 -1.26549605E-26 -1.02703825E-32  3.78851717E-17
  5.26915766E-17 -6.51831328E-18 -4.07410005E-18 -2.18907946E-32  3.12368114E-32
 -4.41617745E-03 -7.57795824E-03 -6.95245382E-03 -3.35899293E-04 -7.96231381E-19
  2.66689123E-18 -1.97743779E-04  8.64859109E-18 -2.64529817E-17 -3.17276261E-04
 -4.23198695E-17 -3.92979017E-17 -8.59513480E-04  6.36365312E-06  1.39390251E-18
 -9.90153503E-19 -5.37203173E-14 -3.20084539E-19  1.15426251E-05 -1.46034574E-18
 -2.09735049E-17  1.18759436E-12  1.01627688E-18 -3.54137290E-03 -4.94682851E-03
  6.88394758E-04  4.18280971E-04  1.94590506E-18 -2.91829133E-18  2.77871332E-04
  1.95770539E-16  3.43733842E-16  3.80888490E-16  2.12717255E-17  5.89756694E-32
 -1.13304002E-31  1.37137329E-17 -6.82650163E-31  1.15938519E-30  2.96171310E-17
  9.26029931E-31  2.04424884E-30  5.65930891E-17  2.69678686E-18 -5.27960735E-32
  4.70814870E-32  3.24499345E-27  2.52345034E-32  2.14420516E-18 -2.35106570E-31
  9.59155932E-31 -5.33070997E-26 -8.89806120E-32  2.22120076E-16  3.09649416E-16
 -7.31648723E-17 -2.92302627E-17 -1.24374390E-31  1.14290287E-31 -1.05026438E-17
  6.70765113E-31 -4.44672607E-16 -7.72057229E-16 -7.49657267E-16 -3.65970536E-17
 -9.66442156E-32  2.72464812E-31 -2.30086598E-17  1.01481619E-30 -2.75865593E-30
 -4.23419500E-17 -3.94726386E-30 -3.96601658E-30 -9.72862600E-17 -1.38199216E-18
  1.36824760E-31 -1.07542413E-31 -6.03708590E-27 -4.31791677E-32 -5.37777773E-19
 -1.68728313E-33 -2.11868735E-30  1.21612008E-25  1.21519114E-31 -3.93710428E-16
 -5.48319548E-16  8.59030792E-17  4.55828202E-17  2.23748178E-31 -2.91673244E-31
  2.72621385E-17 -1.18472736E-30  2.77992263E-30 -1.47611292E-04  3.43958903E-04
  4.15286977E-03  3.19640476E-04  1.41264202E-18  1.36288275E-19  2.82341372E-04
 -1.57018453E-17  1.88155452E-18  9.20217951E-04 -4.72783745E-17  1.01620969E-17
  1.02251431E-03  1.79590536E-04  4.99951018E-19  3.53362959E-19  5.16266871E-14
  7.72565577E-19  1.56771263E-04 -1.61088750E-17  6.19100643E-19 -5.43005562E-14
 -2.24672313E-18  3.56021158E-03  4.89388174E-03 -2.12125118E-03 -4.99687467E-04
 -2.29611666E-18 -7.29245048E-19  1.00946948E-04  1.15887030E-17  5.97228803E-19
  9.24748989E-04 -8.28103899E-16 -1.45616531E-15 -1.23509733E-15 -3.87784726E-17
 -1.30539285E-31  5.88616845E-31 -2.91991889E-17  6.45863879E-31 -6.17132347E-30
 -4.23003521E-17 -1.26803632E-29 -4.81452808E-30 -1.22101714E-16  4.12166169E-18
  2.99904517E-31 -2.47882808E-31 -9.70230061E-27 -8.88638697E-32  5.96548920E-18
 -1.23898583E-30 -3.75284260E-30  2.40256767E-25  2.49159208E-32 -5.18299553E-16
 -7.10580566E-16 -5.52363386E-17  2.42843903E-17  3.49664982E-31 -6.54864250E-31
  5.98238600E-17 -1.62815350E-30  5.72270620E-30  5.01487178E-17  1.67611380E-29
 -8.90569896E-16 -1.47909789E-15 -1.45462809E-15 -9.57490860E-17 -1.73094782E-31
  4.26331184E-31 -4.75882011E-17  2.85267896E-30 -3.78322842E-30 -7.84715434E-17
 -2.89659768E-30 -1.10627332E-29 -2.14520890E-16 -1.02247538E-18  2.35948539E-31
 -1.18078742E-31 -1.08870619E-26 -2.20258688E-32 -1.25918005E-18  8.00000660E-31
 -4.44670276E-30  2.16572572E-25  3.96492240E-31 -8.69720330E-16 -1.23244725E-15
  3.55015932E-16  1.48767679E-16  3.93299866E-31 -4.57433871E-31  4.69970534E-17
 -2.45632191E-30  4.72387015E-30 -1.19241649E-17  5.43548099E-30  1.36390546E-29
  2.01268077E-02  3.54743766E-02  3.81000245E-02  1.98739754E-03  5.73936351E-18
 -1.22119006E-17  1.31901391E-03 -6.17598995E-17  1.26411802E-16  2.80366712E-03
  1.31591573E-16  1.92464945E-16  5.42225902E-03  2.33188150E-04 -5.73490514E-18
  5.17621316E-18  3.23638536E-13  2.66362456E-18  1.74180064E-04 -1.58063865E-17
  9.72884734E-17 -5.57738192E-12 -7.78034184E-18  2.13932773E-02  2.97465316E-02
 -6.05649756E-03 -2.59121827E-03 -1.23533179E-17  1.25170124E-17 -1.14139075E-03
  6.51071459E-17 -1.25593559E-16  8.63373377E-04 -2.09122406E-16 -2.29368088E-16
  6.53376846E-03  5.76815279E-04  7.83199145E-04  1.08233127E-04  2.52704603E-05
 -1.66736468E-19 -1.64359234E-19 -1.95036458E-05  1.95183793E-19  1.99563103E-19
 -1.22562596E-04  5.05934213E-18  8.24909058E-18 -2.98491104E-05 -3.32807108E-05
 -1.95806350E-19 -9.08833335E-20 -3.74642977E-15 -1.91198731E-19 -2.70602940E-05
  1.55408922E-18  2.84822752E-18 -9.62212514E-14 -1.84520327E-21 -1.48999952E-05
  2.57891942E-05 -2.95350815E-05 -6.20926621E-05  2.24130009E-19  2.81965761E-19
 -3.92269585E-05 -4.67118433E-19 -2.15340232E-18 -1.44376516E-04 -6.08937833E-18
 -1.06217784E-17 -3.55242927E-05  3.89047447E-05 -2.80111224E-17 -4.95247213E-17
 -4.87711934E-17 -2.13150897E-18 -6.65325754E-33  1.84874186E-32 -1.50006904E-18
  5.84885247E-32 -1.93905896E-31 -2.95565990E-18 -2.93959144E-31 -2.17612199E-31
 -6.15393758E-18 -1.48518386E-19  8.93893962E-33 -7.95325575E-33 -4.06248457E-28
 -3.62411279E-33 -6.84010723E-20 -5.33885231E-33 -1.31493989E-31  7.98453884E-27
  6.47509722E-33 -2.47523730E-17 -3.42205740E-17  3.86567617E-18  2.34849176E-18
  1.52597215E-32 -1.96431570E-32  1.78093235E-18 -7.64853748E-32  1.84625883E-31
 -3.10188045E-20  4.16640657E-31  2.53981865E-31 -8.37020883E-18 -3.16211579E-20
  1.29464585E-32  3.63879972E-17  6.45294495E-17  7.00493477E-17  3.58063221E-18
  1.07791797E-32 -2.25294021E-32  2.44383614E-18 -1.12080868E-31  2.35903536E-31
  5.30263947E-18  2.46971076E-31  3.38477129E-31  9.96335793E-18  4.68675509E-19
 -1.04136943E-32  9.82154502E-33  6.01786809E-28  5.24109727E-33  3.49366857E-19
 -2.90806270E-32  1.75401123E-31 -1.02090775E-26 -1.39869158E-32  3.91907090E-17
  5.43979857E-17 -1.07241571E-17 -4.57793516E-18 -2.30769728E-32  2.29780791E-32
 -2.07235875E-18  1.20070990E-31 -2.30399121E-31  1.71735394E-18 -3.90561542E-31
 -4.01555229E-31  1.21010949E-17 -1.20799669E-19 -1.56010169E-32  2.25113707E-32
  7.21388782E-13  1.17600170E-12  1.09868559E-12  7.63714239E-14  1.13135864E-28
 -3.23971346E-28  3.41532589E-14 -2.20419206E-27  2.69680524E-27  4.73332773E-14
  2.15939072E-27  9.35406212E-27  1.60412723E-13 -2.39711604E-15 -1.91397933E-28
  7.13516818E-29  7.73144373E-24 -6.78095520E-30 -1.47600673E-15 -5.37212843E-28
  3.61834634E-27 -1.68905393E-22 -3.12672490E-28  6.60054568E-13  9.41384412E-13
 -2.86818623E-13 -1.22855736E-13 -2.70225047E-28  3.57255279E-28 -3.81419571E-14
  1.81205701E-27 -3.66495251E-27 -2.81253738E-15 -4.06435426E-27 -1.16045923E-26
  1.67101333E-13  1.20882288E-14 -1.82797867E-28  2.85266838E-28  1.02157928E-23
 -9.87376787E-18 -1.79319666E-17 -1.94893222E-17 -8.55527924E-19 -3.11298642E-33
  6.81114426E-33 -6.67951090E-19  2.63575894E-32 -7.43590772E-32 -1.52000600E-18
 -9.42268357E-32 -7.40870712E-32 -2.63780347E-18 -1.45895764E-19  3.02764178E-33
 -3.25409254E-33 -1.72880763E-28 -1.83726965E-33 -1.01127898E-19  3.93797559E-33
 -4.64633040E-32  2.93294698E-27  3.00499021E-33 -1.03318625E-17 -1.42122305E-17
  1.93807733E-18  9.29350533E-19  6.69506979E-33 -6.94845780E-33  6.02587301E-19
 -3.26551945E-32  6.74816092E-32 -4.32615309E-19  1.39046580E-31  8.50893797E-32
 -3.45625226E-18  7.65537622E-20  4.91671747E-33 -6.54413094E-33 -5.23177068E-29
  2.09079058E-33 -4.38299746E-03 -7.59869045E-03 -7.78166456E-03 -4.17998957E-04
 -1.07597523E-18  2.55379939E-18 -2.57537313E-04  1.24887069E-17 -2.56161604E-17
 -5.04496615E-04 -2.89493329E-17 -4.35701555E-17 -1.08589752E-03 -2.98559848E-05
  1.26237951E-18 -9.95412975E-19 -6.36124442E-14 -4.35995701E-19 -2.12675762E-05
  2.45836663E-18 -2.12329963E-17  1.17944499E-12  1.59079850E-18 -4.33815215E-03
 -6.05784295E-03  1.25776103E-03  5.62286731E-04  2.38521350E-18 -2.67633082E-18
  2.51377052E-04 -1.29707184E-17  2.65344582E-17 -1.01009167E-04  4.51363510E-17
  5.23705417E-17 -1.30526928E-03 -1.35117634E-05  1.70568725E-18 -2.38743080E-18
 -4.05087872E-14  6.57522050E-19  2.71755777E-04 -1.75770411E-16 -2.97957911E-16
 -3.34759831E-16 -2.26909280E-17 -4.97675380E-32  8.27233032E-32 -1.25677191E-17
  7.44340509E-31 -7.63769904E-31 -2.56319114E-17 -3.15372730E-32 -2.33273871E-30
 -5.39994915E-17 -2.15267792E-18  4.13160512E-32 -2.67989155E-32 -2.72458668E-27
 -1.24349892E-32 -1.96225209E-18  3.39835663E-31 -8.93636532E-31  4.35692243E-26
  1.04388401E-31 -2.12549847E-16 -2.99660583E-16  9.49347468E-17  3.54222144E-17
  1.03063056E-31 -8.24055482E-32  8.21447815E-18 -6.16169121E-31  9.29385669E-31
 -1.25415504E-17  4.99901019E-31  2.87135970E-30 -5.49732728E-17 -5.77733319E-19
  5.02417344E-32 -9.83631029E-32 -2.30587416E-27  2.13719353E-32  1.15284503E-17
  7.14703546E-31  2.07112654E-16  3.77095280E-16  3.73392032E-16  1.28036819E-17
  5.41604892E-32 -1.54644278E-31  1.12411816E-17 -3.29554607E-31  1.70017688E-30
  2.40243681E-17  2.86951450E-30  1.15319004E-30  4.39044006E-17  1.59571735E-18
 -7.12484211E-32  7.39943468E-32  3.25518189E-27  3.75454588E-32  6.82443289E-19
  1.39745023E-31  9.43273620E-31 -6.32324576E-26 -2.77469713E-32  1.75564244E-16
  2.39363436E-16 -3.76969686E-18 -9.36149594E-18 -1.24184021E-31  1.63538313E-31
 -1.41957053E-17  5.68500370E-31 -1.49283552E-30 -5.47678203E-19 -3.92708982E-30
 -1.26499975E-30  6.64107854E-17 -9.05077285E-19 -1.13315688E-31  1.26721759E-31
  7.06020726E-28 -4.44995465E-32 -1.28710225E-17 -2.35794069E-31  1.09804080E-30
 -1.31870665E-11 -2.26697408E-11 -2.47407848E-11 -1.51739722E-12 -3.64177222E-27
  6.93327528E-27 -8.90541450E-13  4.85021285E-26 -6.73938138E-26 -1.82187165E-12
 -3.94457718E-26 -1.54475033E-25 -3.77520954E-12 -1.45182476E-13  3.39726847E-27
 -2.53968812E-27 -2.03675562E-22 -1.20448181E-27 -1.22710287E-13  1.82458305E-26
 -6.56193899E-26  3.41747603E-21  6.56663314E-27 -1.49058942E-11 -2.09144542E-11
  5.69771082E-12  2.23392585E-12  7.70947417E-27 -7.04137246E-27  6.75865392E-13
 -4.39362394E-26  7.47686614E-26 -7.23865044E-13  8.10607710E-26  1.88197072E-25
 -4.12310254E-12 -2.66997115E-14  4.45421748E-27 -7.47341224E-27 -1.47501428E-22
  1.83762520E-27  8.53191867E-13  4.56090362E-26 -2.81057468E-26  3.07809369E-21
  1.02519337E-17  1.78961983E-17  2.09725298E-17  1.29567668E-18  3.40475240E-33
 -5.44128909E-33  8.04202345E-19 -4.34683081E-32  5.44884037E-32  1.78327952E-18
  1.56900086E-32  1.22751244E-31  3.33367332E-18  1.83882345E-19 -2.48641161E-33
  2.18195621E-33  1.79890390E-28  1.27961951E-33  1.56315947E-19 -1.99831718E-32
  5.14105266E-32 -2.70924133E-27 -5.90573066E-33  1.29762779E-17  1.81552712E-17
 -5.15956341E-18 -1.90363204E-18 -6.94685374E-33  5.30151937E-33 -4.94099766E-19
  3.87674067E-32 -5.87413886E-32  9.14635166E-19 -4.77437140E-32 -1.49138292E-31
  3.57011194E-18 -3.87486210E-20 -3.56566005E-33  6.54209325E-33  1.11584214E-28
 -1.63447790E-33 -7.06435420E-19 -3.98696209E-32  2.28272867E-32 -2.66183830E-27
  2.41436132E-33 -4.51890512E-03 -1.41830597E-02 -1.08318250E-02  1.90765727E-03
 -2.53343928E-18  1.43683172E-17 -2.09473126E-07 -7.41390617E-17 -1.96264083E-16
 -7.63491678E-04 -5.40171264E-16  2.65999308E-16  1.23925470E-03 -1.29281163E-04
  5.22361036E-18 -1.04212902E-17 -1.62061454E-13 -6.45851753E-18  5.94517396E-05
 -8.28522316E-17 -1.37895264E-18  3.82703861E-12 -1.43172724E-17  4.99366397E-03
  8.99225877E-03 -1.75359209E-02 -5.27117463E-03  6.88128922E-18 -1.54552067E-17
  1.04268870E-03 -3.17703619E-19  1.10046982E-16  1.55795542E-03  6.57613849E-16
 -3.61659039E-16 -3.15556863E-03  5.47322970E-04  1.30874952E-17 -7.61406084E-18
  3.76255595E-13  5.40831318E-18  3.11489045E-04 -9.24699611E-17 -1.82617583E-16
 -3.19835980E-12  2.74140411E-18  5.80786186E-02 -1.18949322E-02 -3.44661177E-02
 -2.84439824E-02  3.80476105E-03 -6.40570094E-18  3.21856263E-17 -2.11818138E-04
 -1.48810903E-16 -4.36055691E-16 -2.16427193E-03 -1.16404165E-15  5.47890762E-16
  1.82583301E-03 -3.45366875E-04  1.17389726E-17 -2.30434558E-17 -3.95932431E-13
 -1.43500547E-17  7.19543874E-05 -1.72506071E-16 -1.38407438E-17  8.85033599E-12
 -2.93780785E-17  7.53825610E-03  1.48965490E-02 -3.65127402E-02 -1.09226147E-02
  1.66827212E-17 -3.44161728E-17  2.34258597E-03 -1.05682938E-17  2.50151374E-16
  3.03633125E-03  1.42424956E-15 -7.48931675E-16 -7.70188960E-03  1.21350258E-03
  2.90489695E-17 -1.80942717E-17  7.90598590E-13  1.21018804E-17  8.36793290E-04
 -1.89680281E-16 -3.99550078E-16 -6.24791740E-12  5.28267834E-18  1.24765757E-01
  2.68198771E-01 -2.90319053E-02 -6.13682583E-02 -5.74004885E-02  1.16645137E-03
 -9.91104060E-18  3.70439023E-17 -1.31883451E-03 -6.28277604E-17 -4.61818904E-16
 -3.97924579E-03 -1.05669584E-15  2.42268732E-16 -3.39310028E-03 -4.09184604E-04
  1.49853550E-17 -2.28077158E-17 -5.99543268E-13 -1.33852240E-17 -3.81702327E-05
 -1.26455769E-16 -1.05752232E-16  1.23154085E-11 -1.63088916E-17 -1.33587244E-02
 -1.51709883E-02 -2.34814392E-02 -6.19503923E-03  2.39459388E-17 -3.93658246E-17
  2.98801392E-03 -6.63319584E-17  3.17737965E-16  1.96557789E-03  1.33628057E-15
 -3.63234896E-16 -1.19647111E-02  9.07490770E-04  3.07612991E-17 -2.50784629E-17
  4.49418671E-13  1.25802210E-17  1.87962500E-03 -9.96976051E-17 -3.75858721E-16
 -1.17064426E-12  1.05522300E-18  1.00822379E-01  2.17476843E-01  1.81707465E-01
  1.33302431E-03  1.85392218E-03  2.29947039E-03  3.13557771E-04  2.67476199E-19
  1.05957513E-19  1.07714242E-04 -1.08554853E-17 -4.87156595E-18  1.65663172E-04
 -3.10144779E-17  3.69717975E-17  5.41810219E-04  7.56220017E-06 -7.46008784E-20
 -3.89994320E-19  1.38535623E-14 -2.92902473E-19  1.77024277E-05 -7.68492196E-18
  8.04107653E-18 -1.65749749E-13 -1.75666210E-18  2.15066971E-03  3.15227124E-03
 -1.86678573E-03 -6.27139729E-04 -4.70771530E-19 -1.59965588E-19 -1.46212397E-05
  5.31628351E-18 -1.87183447E-18  1.85703887E-04  3.37311086E-17 -4.75780477E-17
  2.90632260E-04  4.15618433E-05  3.28872448E-19  3.97774280E-19  4.36556280E-14
  1.40357917E-19 -8.38849270E-05 -1.17614006E-17 -8.80282914E-18 -5.90129488E-13
  5.05877715E-19  4.29172362E-03  9.14532360E-03  6.91392541E-03  3.60338343E-04
  1.94981479E-17  3.31920185E-17  3.21749828E-17  1.79439826E-18  3.96148867E-33
 -1.08373114E-32  1.00578657E-18 -5.11951165E-32  1.04561620E-31  1.74234948E-18
  1.29110469E-31  2.02305435E-31  4.38688371E-18  3.36759749E-20 -5.67148189E-33
  3.78551914E-33  2.50322159E-28  1.24598399E-33  1.59923635E-20 -6.46175416E-33
  9.47195301E-32 -5.07532418E-27 -6.62041385E-33  1.78022216E-17  2.49944459E-17
 -5.34512032E-18 -2.50404489E-18 -9.15979069E-33  1.16456016E-32 -1.12997037E-18
  5.20187045E-32 -1.14011660E-31  4.14124130E-20 -1.97616511E-31 -2.45284101E-31
  5.24690411E-18  1.61733603E-19 -7.01083047E-33  9.43832351E-33  2.00549413E-28
 -2.46539570E-33 -1.14980276E-18 -4.94068247E-32  4.93836291E-32 -3.59263573E-27
  2.81401487E-33  5.10319148E-19  5.07870401E-19 -4.72456148E-18  4.79612442E-19
  5.15250219E-33 -1.89938981E-17 -2.87405380E-17 -3.14965428E-17 -3.30457598E-18
 -3.60524821E-33  3.42843718E-33 -1.26272531E-18  1.09345101E-31 -1.38904347E-34
 -1.94365088E-18  2.02758808E-31 -3.90267815E-31 -6.14700030E-18 -4.90223358E-20
  2.95722292E-33  1.83991025E-33 -2.08007462E-28  2.09483601E-33 -1.31030440E-19
  6.48115797E-32 -1.05253797E-31  3.40220980E-27  1.70801877E-32 -2.46322205E-17
 -3.57186516E-17  1.75218594E-17  6.20075991E-18  7.24306844E-33 -3.38667991E-33
  5.87358310E-19 -6.36325420E-32  6.11067873E-32 -1.43692847E-18 -1.98022570E-31
  4.96431156E-31 -4.39628885E-18 -4.37007963E-19  5.34719089E-36 -6.82885828E-33
 -4.47927816E-28 -2.72266213E-34  1.14738817E-18  1.16764210E-31  5.45064679E-32
  6.28575007E-27 -5.23694341E-33 -3.61279626E-17 -7.68001817E-17 -5.60860226E-17
 -3.19806995E-18 -6.07996137E-33  2.91399493E-32 -7.32158135E-04 -1.27159799E-03
 -1.38786362E-03 -8.06123871E-05 -2.07792855E-19  4.06510012E-19 -4.95499722E-05
  2.56522753E-18 -4.06105128E-18 -1.03521540E-04 -3.03759493E-18 -8.02625874E-18
 -2.07417035E-04 -8.61256524E-06  1.94925057E-19 -1.59147882E-19 -1.15965770E-14
 -7.95834458E-20 -6.98536994E-06  8.88518407E-19 -3.60810325E-18  1.94755734E-13
  3.39830505E-19 -8.17701429E-04 -1.14349512E-03  2.85997414E-04  1.14287569E-04
  4.41072145E-19 -4.13079098E-19  3.87820867E-05 -2.43991004E-18  4.30453242E-18
 -3.90219234E-05  5.52939209E-18  9.70934863E-18 -2.34119544E-04 -1.51081727E-07
  2.68404183E-19 -4.28129112E-19 -7.41450679E-15  1.11693809E-19  4.76535135E-05
  2.36603661E-18 -1.87295030E-18  1.64909840E-13 -1.43302934E-19 -7.40879163E-05
 -1.24246478E-04  1.13713386E-04 -2.50657277E-05 -1.96499123E-19  2.83113200E-19
  9.01163937E-06 -2.69448845E-17 -4.62247942E-17 -4.04621922E-17 -1.79265651E-18
 -4.23714169E-33  1.67961202E-32 -1.05826314E-18  4.14699682E-32 -1.67355755E-31
 -1.50522514E-18 -3.01770567E-31 -2.21035141E-31 -4.64526660E-18  1.19601313E-19
  8.88733515E-33 -6.26011519E-33 -3.06585344E-28 -1.83890783E-33  1.48001356E-19
 -2.01718511E-32 -1.26464906E-31  7.31315027E-27  4.43753770E-33 -1.94595294E-17
 -2.71337528E-17  2.37864067E-18  2.05844694E-18  1.09432223E-32 -1.86480598E-32
  1.77234899E-18 -5.78654690E-32  1.69725763E-31  1.12355643E-18  4.13962156E-31
  2.62573851E-31 -6.61437108E-18 -2.83113935E-19  1.13079037E-32 -1.20182252E-32
 -2.15566425E-28  3.66446845E-33  1.48325409E-18  3.95836758E-32 -9.38925639E-32
  3.59561973E-27 -2.42510709E-33  9.55418059E-18  2.09947328E-17  2.33450006E-17
  1.86292282E-19 -6.78435066E-33  1.29756123E-33  2.12251865E-19  1.16613623E-32
  8.70027128E-18  7.17185847E-19 -5.61159862E-19  4.83147734E-18 -4.14379357E-33
  1.87898941E-32  3.76372877E-19 -1.65067775E-31 -3.02558464E-31 -1.67568778E-18
 -8.77464922E-31  6.94670710E-31  4.51134998E-18 -5.62040534E-19  4.44329688E-33
 -1.81186989E-32 -1.95903528E-28 -1.32425128E-32 -1.57834065E-19 -1.41669968E-31
  8.09527300E-32  3.21200067E-27 -3.04094400E-32  1.93308574E-17  3.12994745E-17
 -3.59407123E-17 -1.18636478E-17  9.82762198E-33 -1.91395526E-32  8.86689464E-19
  2.44485246E-32  1.16959695E-31  1.43742825E-18  1.04577243E-30 -9.21328903E-31
 -3.21708184E-18  1.50826275E-18  1.99657881E-32 -9.96963869E-33  9.37825706E-28
  9.41714240E-33 -2.19241168E-19 -2.06016353E-31 -3.20174759E-31 -8.27473014E-27
  6.30846007E-33  1.13785122E-16  2.44485130E-16  1.93872598E-16  8.67300462E-18
  5.56056413E-33 -7.50744210E-32 -2.51840928E-19  1.09540876E-32  2.30007865E-31
 -4.59460748E-03 -7.69002045E-03 -7.27579729E-03 -4.38128140E-04 -8.25503787E-19
  2.37998690E-18 -2.23620003E-04  1.24113650E-17 -2.19170080E-17 -3.50926058E-04
 -2.55033796E-17 -5.16603079E-17 -1.00600644E-03  4.33547240E-06  1.30469629E-18
 -7.27416040E-19 -5.43218722E-14 -1.56076756E-19  4.41287054E-06  1.84159027E-18
 -2.25492822E-17  1.15102299E-12  1.66300242E-18 -4.11616828E-03 -5.81477631E-03
  1.41395993E-03  6.47208242E-04  1.94988732E-18 -2.59115938E-18  2.59992785E-04
 -1.17361821E-17  2.56029139E-17  2.06476664E-05  4.02677179E-17  6.32424615E-17
 -1.15494132E-03 -5.51617201E-05  1.47613621E-18 -2.03908555E-18 -5.36408022E-14
  4.82541390E-19  2.63891569E-04  1.24418553E-17 -9.09305164E-18  8.63048484E-13
 -6.59310237E-19 -8.97755594E-04 -1.80620461E-03 -2.62447297E-04 -1.67700242E-04
 -1.23490737E-18  1.90653549E-18  4.57328779E-05  1.54194478E-18 -2.94122968E-18
  3.09319922E-04  6.15597201E-16  1.07003788E-15  1.01535987E-15  4.71435756E-17
  1.26783176E-31 -3.85863470E-31  3.00507724E-17 -1.25336385E-30  3.92525512E-30
  5.35988589E-17  6.08588346E-30  5.20378553E-30  1.27127355E-16  9.83032567E-19
 -1.94756070E-31  1.53452564E-31  8.12870118E-27  5.97104251E-32 -1.86240788E-19
  1.53085880E-31  2.91101900E-30 -1.69703210E-25 -1.44076783E-31  5.17744090E-16
  7.19946329E-16 -9.34724132E-17 -5.60480263E-17 -2.99747767E-31  4.16404372E-31
 -3.88137430E-17  1.56415646E-30 -3.90594784E-30 -7.15737434E-18 -8.62868408E-30
 -6.16666987E-30  1.70136325E-16  3.37730379E-18 -2.63201509E-31  3.12683629E-31
  4.78289188E-27 -9.42824311E-32 -3.61458865E-17 -1.14038755E-30  2.18835027E-30
 -9.64234625E-26  7.36408333E-32 -2.02209941E-16 -4.51546426E-16 -5.21100080E-16
 -1.58305471E-18  1.56179557E-31 -4.97473759E-32 -5.64594406E-18 -2.46650519E-31
 -2.51425104E-31 -3.46731204E-17  5.55815147E-30  1.60684899E-16  2.58016142E-16
  2.43723579E-16  1.85578342E-17  2.45520881E-32 -6.46904517E-32  7.82786675E-18
 -5.49173234E-31  4.93163781E-31  1.05549628E-17  1.48216235E-31  2.28335984E-30
  3.74192538E-17 -5.64495130E-19 -4.00571267E-32  9.98701484E-33  1.67032998E-27
 -5.19203310E-33 -2.49033993E-19 -1.76840734E-31  8.19246526E-31 -3.59788280E-26
 -8.02029109E-32  1.53701881E-16  2.20284162E-16 -7.62484074E-17 -3.11784618E-17
 -5.78009254E-32  7.13887354E-32 -7.98116530E-18  4.14063926E-31 -7.63810626E-31
  5.95476708E-19 -5.08046393E-31 -2.85162358E-30  3.62310305E-17  3.02394176E-18
 -3.35280464E-32  6.05840045E-32  2.54109287E-27 -8.72589166E-33 -9.02274673E-18
 -5.82283148E-31  4.95428035E-32 -3.55822205E-26  2.72280696E-32  1.20815173E-16
  2.55433161E-16  1.63330078E-16  1.25418989E-17  4.57638325E-32 -1.23763705E-31
 -1.73711722E-18 -4.27217666E-32  2.81658456E-31 -1.26900361E-17  9.59406427E-31
  6.48922555E-31  5.87177629E-04  1.47982117E-03  1.90271281E-03 -2.64515615E-05
  4.55489250E-19 -1.01261132E-18  6.51622664E-05  8.08997262E-19  1.36849358E-17
  2.29792932E-04  2.60618446E-17 -1.02995291E-17  1.76510914E-04  3.82397431E-05
 -3.23553977E-19  7.37642372E-19  2.25983278E-14  5.30232249E-19  2.30375875E-05
  2.04766343E-18  1.86956156E-18 -3.23814670E-13  3.45808573E-19  6.19742535E-04
  7.36419873E-04  5.78253732E-04  1.80943926E-04 -9.50817653E-19  9.91484972E-19
 -6.43544534E-05  2.88371100E-18 -8.38199085E-18  6.41508945E-05 -3.36875354E-17
  1.48499430E-17  4.22907613E-04 -5.33853672E-05 -8.97427408E-19  9.01875465E-19
 -1.89683463E-14 -4.33437589E-19 -5.56287248E-05  2.44477594E-18  1.14964251E-17
  2.49642711E-15  4.23800193E-20 -3.13616122E-03 -6.79960829E-03 -5.66775923E-03
 -2.12072249E-04  6.86674999E-20  1.77004403E-18 -5.68217813E-06 -4.92940971E-19
 -6.33338092E-18  3.41353652E-05  1.34390259E-17 -6.17135709E-18  1.95878084E-04
  4.33253119E-04  7.21346529E-04  7.37442292E-04  4.98006419E-05  9.37914070E-20
 -2.02598367E-19  2.52852360E-05 -1.53348742E-18  1.79518020E-18  4.46314758E-05
  8.91865738E-19  5.58122209E-18  1.12657724E-04  1.72184729E-06 -1.10101163E-19
  5.65798587E-20  5.63549490E-15  1.39341699E-20  1.74384465E-06 -5.34745919E-19
  2.18038612E-18 -1.05025826E-13 -2.15020845E-19  4.52600536E-04  6.40978039E-04
 -1.94979792E-04 -7.82192458E-05 -2.06261450E-19  2.13250609E-19 -2.19199068E-05
  1.28395510E-18 -2.26878689E-18  1.29170979E-05 -2.07250273E-18 -6.88872702E-18
  1.17237541E-04  4.37492226E-06 -1.19875917E-19  2.05956929E-19  5.79412417E-15
 -4.27763167E-20 -2.62355418E-05 -1.52685303E-18  5.50307867E-19 -9.83628325E-14
  8.04285492E-20  2.08686869E-04  4.32413223E-04  2.27549062E-04  2.61259517E-05
  1.20532017E-19 -2.65985958E-19 -5.05414613E-06 -1.17191037E-19  5.01603586E-19
 -3.11288403E-05  2.89588727E-18  1.44297685E-18 -7.93209841E-06  3.53723251E-06
  4.10583416E-18  9.06700046E-18  1.11830149E-17  7.88953229E-20  2.40518294E-33
 -5.14787906E-33  3.90707701E-19 -2.77199139E-33  6.64158953E-32  1.21512289E-18
  1.14720749E-31 -2.46701427E-32  1.22962768E-18  1.83329338E-19 -1.78161744E-33
  3.45053254E-33  1.21823432E-28  2.41328691E-33  1.15603209E-19  6.18608946E-33
  1.59841996E-32 -1.79481007E-27  6.26341906E-34  4.51884825E-18  5.77304314E-18
  1.72231376E-18  4.86578964E-19 -5.02256004E-33  5.06108003E-33 -3.54353940E-19
  1.78287333E-32 -4.47482251E-32  3.77151847E-19 -1.52158922E-31  3.98427189E-32
  2.31616009E-18 -2.26021081E-19 -4.35804853E-33  4.77572028E-33 -6.25744840E-29
 -2.07369321E-33 -3.42492423E-19  4.58582639E-33  5.22681800E-32 -3.78688626E-28
  5.21688431E-34 -1.29041769E-17 -2.80678974E-17 -2.38997121E-17 -8.25450481E-19
  7.32140164E-34  6.72502622E-33 -4.49990346E-20 -2.51464883E-33 -2.58669862E-32
  3.97357702E-20  6.87675521E-32 -2.18510241E-32  8.32912209E-19 -2.14331343E-20
  3.59116530E-33  2.07365123E-17  3.31040475E-17  3.15429490E-17  2.48953095E-18
  3.18078764E-33 -7.94227463E-33  1.03164562E-18 -7.45490207E-32  5.79127043E-32
  1.39342838E-18 -3.99168471E-34  3.05864152E-31  4.95501745E-18 -6.85931391E-20
 -5.01503213E-33  9.81819376E-34  2.14512934E-28 -8.43546235E-34 -2.26692648E-20
 -2.64461053E-32  1.06486966E-31 -4.55720078E-27 -1.09969176E-32  2.03181103E-17
  2.91681905E-17 -1.05797711E-17 -4.24695992E-18 -7.40764992E-33  8.74869995E-33
 -9.99090265E-19  5.43937839E-32 -9.57365867E-32  1.73354198E-19 -4.24706407E-32
 -3.82891272E-31  4.65175947E-18  4.03468148E-19 -3.94060519E-33  7.71716390E-33
  3.42257694E-28 -9.82507809E-34 -1.16797883E-18 -7.92836165E-32  5.59472860E-34
 -4.76414835E-27  3.67296859E-33  1.76449192E-17  3.73561604E-17  2.45621845E-17
  1.77722914E-18  5.96762269E-33 -1.73185807E-32 -2.30137774E-19 -5.19159225E-33
  4.03338735E-32 -1.67742877E-18  1.17883038E-31  8.82609147E-32 -8.99601023E-19
  1.94916009E-19 -3.23546508E-33  1.20479638E-32  9.25166770E-14  1.96015185E-14
  1.27886309E-13  6.41501520E-14 -6.59494875E-31  2.13581854E-28  1.32942769E-14
 -2.34536031E-27 -3.30913912E-27  1.09630889E-14 -1.12965260E-26  8.07093050E-27
  8.32393597E-14 -4.84172091E-16  6.55036305E-29 -1.90464474E-28 -5.17828793E-25
 -1.22683854E-28  3.28540698E-15 -2.09700312E-27  9.23520516E-28  3.39609381E-23
 -4.11243616E-28  3.30238388E-13  5.06630468E-13 -4.68820439E-13 -1.48313498E-13
  3.54843963E-29 -2.36542326E-28  1.31096281E-14  6.46129186E-28  1.32062138E-27
  4.57702448E-14  1.32631918E-26 -1.06539627E-26 -7.98404914E-15  1.21640184E-14
  2.21364574E-28 -5.56831347E-29  1.03629215E-23  9.09754357E-29 -5.71163768E-15
 -2.69994044E-27 -3.58449685E-27 -1.15552844E-22  9.97678230E-29  1.31803287E-12
  2.82197838E-12  2.22347091E-12  1.02625281E-13  6.33777446E-29 -8.82879598E-28
 -4.06493557E-15  1.58098254E-28  2.60929968E-27 -3.21298337E-14 -3.02933219E-27
  3.15840852E-27 -6.85073371E-14  6.00689581E-15 -2.76087733E-28  4.55112674E-28
  3.05488702E-23  5.71087316E-18  8.30907662E-18  6.22198527E-18  7.01466277E-19
  2.72315781E-35 -1.28279111E-33  1.57335085E-19 -1.92384342E-32  1.09396588E-33
 -1.11550214E-19 -1.70369133E-32  1.02970320E-31  1.01364660E-18 -1.18423406E-19
 -1.30264652E-33 -6.70694235E-34  2.41213960E-29 -1.10839841E-33 -7.97829237E-20
 -5.82660369E-33  3.02747362E-32 -1.00037458E-27 -3.12490609E-33  4.46341389E-18
  6.65136236E-18 -3.30732408E-18 -1.36990965E-18 -4.82594779E-34  1.72782670E-33
 -2.60026885E-19  9.90694093E-33 -1.96620469E-32 -2.91947266E-19  1.20345644E-32
 -1.31438663E-31  6.76826113E-19  2.28696072E-19 -1.42464134E-34  8.03862872E-34
  1.28123497E-28  3.35292071E-34 -2.63230382E-19 -2.35382393E-32 -1.32092633E-32
 -1.25299907E-27  8.09895833E-34  8.65094330E-18  1.85798148E-17  1.36352108E-17
  7.40684276E-19  1.73718833E-33 -6.97712855E-33 -5.25111671E-20 -1.33906380E-33
  1.94099531E-32 -5.60652995E-19  2.24099048E-32  3.41626906E-32 -5.25291860E-19
  6.53536001E-20 -2.08318383E-33  4.70385923E-33  2.06919236E-28  2.14635612E-33
  6.42336382E-04  9.64980807E-04  5.65530337E-04  4.79468258E-05 -3.69134463E-20
 -2.41763206E-19  5.17126427E-06 -8.80292293E-19  1.41031660E-18 -4.39324601E-05
  3.89359792E-18  8.63237826E-18  5.70676128E-05 -1.89468919E-05 -1.94784510E-19
 -1.26056802E-20  1.58525932E-15 -1.03701573E-19 -1.52446906E-05  6.17405873E-19
  3.19041955E-18 -1.30460659E-13 -1.39456871E-19  2.92872738E-04  4.42354436E-04
 -1.41396394E-04 -8.79079008E-05 -5.72301674E-21  3.20617165E-19 -3.89284329E-05
  5.79663301E-19 -2.87520604E-18 -7.94372890E-05 -5.36057584E-18 -1.09071012E-17
  5.85777420E-05  2.62708091E-05 -1.05249780E-19  6.84189710E-20  1.10538593E-14
  1.53327665E-20 -2.59400040E-05 -1.33619641E-18 -1.00803333E-19 -8.08835194E-14
  2.93882517E-20  4.46971856E-04  9.72373706E-04  6.59600466E-04  4.08966784E-05
  1.78711452E-19 -4.27988378E-19 -3.45497385E-06 -2.54274200E-19  1.20206619E-18
 -5.39399907E-05  4.07702120E-18  2.74948499E-18 -3.63290574E-05  4.93714477E-06
 -1.45806598E-19  3.67803158E-19  1.08416912E-14  1.78740432E-19  1.90386621E-05
 -1.53812825E-16 -2.70202146E-16 -2.57282189E-16 -1.10430949E-17 -3.30527623E-32
  1.01016760E-31 -7.56692074E-18  2.87851342E-31 -1.04936224E-30 -1.40138443E-17
 -1.69613343E-30 -1.18398078E-30 -3.14266072E-17 -3.85786117E-19  4.99536343E-32
 -4.22678472E-32 -2.09927716E-27 -1.77331513E-32 -9.65419124E-21 -6.28818652E-32
 -7.19995398E-31  4.34855632E-26  3.09887142E-32 -1.27704308E-16 -1.76728132E-16
  1.71328689E-17  1.19849474E-17  7.79734498E-32 -1.08696728E-31  9.95546562E-18
 -3.92408819E-31  1.00875172E-30  1.92405999E-18  2.36995157E-30  1.38437072E-30
 -4.37335547E-17 -5.41549574E-19  7.02858499E-32 -8.11694812E-32 -1.02919782E-27
  2.56800272E-32  9.10553215E-18  2.50986282E-31 -6.13577170E-31  2.29043109E-26
 -1.75562165E-32  7.24598357E-17  1.60055098E-16  1.68176189E-16  2.01840202E-18
 -3.83983709E-32 -1.47359982E-33  1.38482729E-18  6.41942837E-32  1.07024127E-31
  8.19494700E-18 -1.45054816E-30 -1.88848658E-31 -4.61045655E-18 -6.38232062E-19
 -2.23555592E-32 -2.21315463E-32  1.25383720E-27 -1.91789847E-33 -7.87593996E-19
  3.86428055E-31 -8.88333986E-17 -1.38107120E-16 -1.40054098E-16 -1.29085726E-17
 -1.48746400E-32  2.53360333E-32 -5.07467312E-18  4.08707097E-31 -1.27840806E-31
 -7.27408768E-18  4.49338081E-31 -1.55677483E-30 -2.46333247E-17  8.02805958E-20
  1.78829673E-32  2.07333348E-33 -9.33282206E-28  6.77561485E-33 -2.11829390E-19
  2.01553639E-31 -4.73339171E-31  1.77561494E-26  6.24558712E-32 -9.98507794E-17
 -1.44199877E-16  6.25616742E-17  2.33063021E-17  3.22509809E-32 -2.71541637E-32
  3.55890472E-18 -2.61626986E-31  3.49939556E-31 -3.43079469E-18 -3.43274917E-31
  1.96683645E-30 -2.00361291E-17 -1.91235000E-18  8.71093748E-33 -3.21252071E-32
 -1.77054680E-27  1.45873684E-33  5.15490080E-18  4.36657182E-31  1.22008061E-31
  2.45916971E-26 -1.97650905E-32 -1.20406106E-16 -2.55679844E-16 -1.80769125E-16
 -1.11234844E-17 -2.69355263E-32  1.03895850E-31  1.14057479E-18  1.46545351E-32
 -2.58705766E-31  8.02546855E-18 -3.74606222E-31 -4.74972597E-31  6.00776349E-18
 -1.02976768E-18  2.24520697E-32 -6.57757134E-32 -2.99356202E-27 -2.62478387E-32
 -1.79879004E-18  4.59836764E-32  3.79703837E-31  2.38622641E-12  6.99538520E-12
  5.49300855E-12 -8.26459901E-13  1.22437568E-27 -6.67633805E-27  2.01314096E-14
  3.24263637E-26  9.04469411E-26  3.82420472E-13  2.45714882E-25 -1.16348354E-25
 -4.73372836E-13  6.02638792E-14 -2.45478289E-27  4.77290807E-27  7.79814554E-23
  2.94241295E-27 -2.53877210E-14  3.71539217E-26  2.31789802E-27 -1.81800470E-21
  6.32607458E-27 -1.90938444E-12 -3.57556200E-12  7.80221736E-12  2.33028744E-12
 -3.28570660E-27  7.17687087E-27 -4.89954712E-13  1.15745907E-27 -5.16909935E-26
 -6.95491884E-13 -2.99914043E-25  1.58735545E-25  1.52402068E-12 -2.45161604E-13
 -6.03126999E-27  3.61708650E-27 -1.66229639E-22 -2.48776299E-27 -1.61834921E-13
  4.07535911E-26  8.32857961E-26  1.37382058E-21 -1.18010995E-27 -2.61880169E-11
 -5.62704626E-11 -4.55670593E-11 -1.92675590E-12 -1.37992050E-28  1.61839999E-26
  2.96372981E-14 -4.42427380E-27 -5.12369040E-26  3.83226715E-13  9.39850380E-26
 -5.36977268E-26  1.41692531E-12 -9.19251339E-14  5.83899952E-27 -7.85464120E-27
 -5.93307896E-22 -3.87496802E-27 -1.99095528E-13 -3.33696537E-26  5.38283919E-26
  1.18100388E-20  1.22234093E-17  1.98873107E-17  2.24793681E-17  1.82718307E-18
  3.13724896E-33 -4.33313742E-33  8.75911925E-19 -6.06499286E-32  3.22058629E-32
  1.65541676E-18 -5.49487693E-32  1.98762936E-31  3.93140945E-18  1.18948730E-19
 -2.44460369E-33  6.82702828E-34  1.72163988E-28  5.32532715E-35  1.29950598E-19
 -3.23150022E-32  6.44968399E-32 -2.70308856E-27 -8.95744032E-33  1.55447741E-17
  2.21585608E-17 -8.66333864E-18 -3.11973822E-18 -6.38299479E-33  4.25569062E-33
 -4.85744557E-19  4.31832417E-32 -5.45607286E-32  9.77378431E-19  3.43687783E-32
 -2.48721489E-31  3.50878836E-18  1.23297558E-19 -2.10921306E-33  6.02768018E-33
  2.11259053E-28 -8.64585146E-34 -7.86445583E-19 -6.10265744E-32 -4.15166651E-33
 -3.58854781E-27  3.09622862E-33  1.32820577E-17  2.79212276E-17  1.87411447E-17
  1.32986639E-18  3.63339604E-33 -1.24965150E-32 -1.75271434E-19 -1.89010905E-33
  2.80189474E-32 -1.00848764E-18  5.98964758E-32  5.61975759E-32 -5.50694841E-19
  1.33365723E-19 -1.88322762E-33  7.77994340E-33  3.43718353E-28  2.74964724E-33
  1.58612924E-19 -9.96456940E-33 -4.52551340E-32 -5.92160305E-27  5.85051026E-33
Spin SCF Density                           R   N=        2415
  0.00000000E+00  0.00000000E+00  0.00000000E+00  0.00000000E+00  0.00000000E+00
  0.00000000E+00  0.00000000E+00  0.00000000E+00  0.00000000E+00  0.00000000E+00
  0.00000000E+00  0.00000000E+00  0.00000000E+00  0.00000000E+00  0.00000000E+00
  0.00000000E+00  0.00000000E+00  0.00000000E+00  0.00000000E+00  0.00000000E+00
  0.00000000E+00  0.00000000E+00  0.00000000E+00  0.00000000E+00  0.00000000E+00
  0.00000000E+00  0.00000000E+00  0.00000000E+00  0.00000000E+00  0.00000000E+00
  0.00000000E+00  0.00000000E+00  0.00000000E+00  0.00000000E+00  0.00000000E+00
  0.00000000E+00  0.00000000E+00  0.00000000E+00  0.00000000E+00  0.00000000E+00
  0.00000000E+00  0.00000000E+00  0.00000000E+00  0.00000000E+00  0.00000000E+00
  0.00000000E+00  0.00000000E+00  0.00000000E+00  0.00000000E+00  0.00000000E+00
  0.00000000E+00  0.00000000E+00  0.00000000E+00  0.00000000E+00  0.00000000E+00
  0.00000000E+00  0.00000000E+00  0.00000000E+00  0.00000000E+00  0.00000000E+00
  0.00000000E+00  0.00000000E+00  0.00000000E+00  0.00000000E+00  0.00000000E+00
  0.00000000E+00  0.00000000E+00  0.00000000E+00  0.00000000E+00  0.00000000E+00
  0.00000000E+00  0.00000000E+00  0.00000000E+00  0.00000000E+00  0.00000000E+00
  0.00000000E+00  0.00000000E+00  0.00000000E+00  0.00000000E+00  0.00000000E+00
  0.00000000E+00  0.00000000E+00  0.00000000E+00  0.00000000E+00  0.00000000E+00
  0.00000000E+00  0.00000000E+00  0.00000000E+00  0.00000000E+00  0.00000000E+00
  0.00000000E+00  0.00000000E+00  0.00000000E+00  0.00000000E+00  0.00000000E+00
  0.00000000E+00  0.00000000E+00  0.00000000E+00  0.00000000E+00  0.00000000E+00
  0.00000000E+00  0.00000000E+00  0.00000000E+00  0.00000000E+00  0.00000000E+00
  0.00000000E+00  0.00000000E+00  0.00000000E+00  0.00000000E+00  0.00000000E+00
  0.00000000E+00  0.00000000E+00  0.00000000E+00  0.00000000E+00  0.00000000E+00
  0.00000000E+00  0.00000000E+00  0.00000000E+00  0.00000000E+00  0.00000000E+00
  0.00000000E+00  0.00000000E+00  0.00000000E+00  0.00000000E+00  0.00000000E+00
  0.00000000E+00  0.00000000E+00  0.00000000E+00  0.00000000E+00  0.00000000E+00
  0.00000000E+00  0.00000000E+00  0.00000000E+00  0.00000000E+00  0.00000000E+00
  0.00000000E+00  0.00000000E+00  0.00000000E+00  0.00000000E+00  0.00000000E+00
  0.00000000E+00  0.00000000E+00  0.00000000E+00  0.00000000E+00  0.00000000E+00
  0.00000000E+00  0.00000000E+00  0.00000000E+00  0.00000000E+00  0.00000000E+00
  0.00000000E+00  0.00000000E+00  0.00000000E+00  0.00000000E+00  0.00000000E+00
  0.00000000E+00  0.00000000E+00  0.00000000E+00  0.00000000E+00  0.00000000E+00
  0.00000000E+00  0.00000000E+00  0.00000000E+00  0.00000000E+00  0.00000000E+00
  0.00000000E+00  0.00000000E+00  0.00000000E+00  0.00000000E+00  0.00000000E+00
  0.00000000E+00  0.00000000E+00  0.00000000E+00  0.00000000E+00  0.00000000E+00
  0.00000000E+00  0.00000000E+00  0.00000000E+00  0.00000000E+00  0.00000000E+00
  0.00000000E+00  0.00000000E+00  0.00000000E+00  0.00000000E+00  0.00000000E+00
  0.00000000E+00  0.00000000E+00  0.00000000E+00  0.00000000E+00  0.00000000E+00
  0.00000000E+00  0.00000000E+00  0.00000000E+00  0.00000000E+00  0.00000000E+00
  0.00000000E+00  0.00000000E+00  0.00000000E+00  0.00000000E+00  0.00000000E+00
  0.00000000E+00  0.00000000E+00  0.00000000E+00  0.00000000E+00  0.00000000E+00
  0.00000000E+00  0.00000000E+00  0.00000000E+00  0.00000000E+00  0.00000000E+00
  0.00000000E+00  0.00000000E+00  0.00000000E+00  0.00000000E+00  0.00000000E+00
  0.00000000E+00  0.00000000E+00  0.00000000E+00  0.00000000E+00  0.00000000E+00
  0.00000000E+00  0.00000000E+00  0.00000000E+00  0.00000000E+00  0.00000000E+00
  0.00000000E+00  0.00000000E+00  0.00000000E+00  0.00000000E+00  0.00000000E+00
  0.00000000E+00  0.00000000E+00  0.00000000E+00  0.00000000E+00  0.00000000E+00
  0.00000000E+00  0.00000000E+00  0.00000000E+00  0.00000000E+00  0.00000000E+00
  0.00000000E+00  0.00000000E+00  0.00000000E+00  0.00000000E+00  0.00000000E+00
  0.00000000E+00  0.00000000E+00  0.00000000E+00  0.00000000E+00  0.00000000E+00
  0.00000000E+00  0.00000000E+00  0.00000000E+00  0.00000000E+00  0.00000000E+00
  0.00000000E+00  0.00000000E+00  0.00000000E+00  0.00000000E+00  0.00000000E+00
  0.00000000E+00  0.00000000E+00  0.00000000E+00  0.00000000E+00  0.00000000E+00
  0.00000000E+00  0.00000000E+00  0.00000000E+00  0.00000000E+00  0.00000000E+00
  0.00000000E+00  0.00000000E+00  0.00000000E+00  0.00000000E+00  0.00000000E+00
  0.00000000E+00  0.00000000E+00  0.00000000E+00  0.00000000E+00  0.00000000E+00
  0.00000000E+00  0.00000000E+00  0.00000000E+00  0.00000000E+00  0.00000000E+00
  0.00000000E+00  0.00000000E+00  0.00000000E+00  0.00000000E+00  0.00000000E+00
  0.00000000E+00  0.00000000E+00  0.00000000E+00  0.00000000E+00  0.00000000E+00
  0.00000000E+00  0.00000000E+00  0.00000000E+00  0.00000000E+00  0.00000000E+00
  0.00000000E+00  0.00000000E+00  0.00000000E+00  0.00000000E+00  0.00000000E+00
  0.00000000E+00  0.00000000E+00  0.00000000E+00  0.00000000E+00  0.00000000E+00
  0.00000000E+00  0.00000000E+00  0.00000000E+00  0.00000000E+00  0.00000000E+00
  0.00000000E+00  0.00000000E+00  0.00000000E+00  0.00000000E+00  0.00000000E+00
  0.00000000E+00  0.00000000E+00  0.00000000E+00  0.00000000E+00  0.00000000E+00
  0.00000000E+00  0.00000000E+00  0.00000000E+00  0.00000000E+00  0.00000000E+00
  0.00000000E+00  0.00000000E+00  0.00000000E+00  0.00000000E+00  0.00000000E+00
  0.00000000E+00  0.00000000E+00  0.00000000E+00  0.00000000E+00  0.00000000E+00
  0.00000000E+00  0.00000000E+00  0.00000000E+00  0.00000000E+00  0.00000000E+00
  0.00000000E+00  0.00000000E+00  0.00000000E+00  0.00000000E+00  0.00000000E+00
  0.00000000E+00  0.00000000E+00  0.00000000E+00  0.00000000E+00  0.00000000E+00
  0.00000000E+00  0.00000000E+00  0.00000000E+00  0.00000000E+00  0.00000000E+00
  0.00000000E+00  0.00000000E+00  0.00000000E+00  0.00000000E+00  0.00000000E+00
  0.00000000E+00  0.00000000E+00  0.00000000E+00  0.00000000E+00  0.00000000E+00
  0.00000000E+00  0.00000000E+00  0.00000000E+00  0.00000000E+00  0.00000000E+00
  0.00000000E+00  0.00000000E+00  0.00000000E+00  0.00000000E+00  0.00000000E+00
  0.00000000E+00  0.00000000E+00  0.00000000E+00  0.00000000E+00  0.00000000E+00
  0.00000000E+00  0.00000000E+00  0.00000000E+00  0.00000000E+00  0.00000000E+00
  0.00000000E+00  0.00000000E+00  0.00000000E+00  0.00000000E+00  0.00000000E+00
  0.00000000E+00  0.00000000E+00  0.00000000E+00  0.00000000E+00  0.00000000E+00
  0.00000000E+00  0.00000000E+00  0.00000000E+00  0.00000000E+00  0.00000000E+00
  0.00000000E+00  0.00000000E+00  0.00000000E+00  0.00000000E+00  0.00000000E+00
  0.00000000E+00  0.00000000E+00  0.00000000E+00  0.00000000E+00  0.00000000E+00
  0.00000000E+00  0.00000000E+00  0.00000000E+00  0.00000000E+00  0.00000000E+00
  0.00000000E+00  0.00000000E+00  0.00000000E+00  0.00000000E+00  0.00000000E+00
  0.00000000E+00  0.00000000E+00  0.00000000E+00  0.00000000E+00  0.00000000E+00
  0.00000000E+00  0.00000000E+00  0.00000000E+00  0.00000000E+00  0.00000000E+00
  0.00000000E+00  0.00000000E+00  0.00000000E+00  0.00000000E+00  0.00000000E+00
  0.00000000E+00  0.00000000E+00  0.00000000E+00  0.00000000E+00  0.00000000E+00
  0.00000000E+00  0.00000000E+00  0.00000000E+00  0.00000000E+00  0.00000000E+00
  0.00000000E+00  0.00000000E+00  0.00000000E+00  0.00000000E+00  0.00000000E+00
  0.00000000E+00  0.00000000E+00  0.00000000E+00  0.00000000E+00  0.00000000E+00
  0.00000000E+00  0.00000000E+00  0.00000000E+00  0.00000000E+00  0.00000000E+00
  0.00000000E+00  0.00000000E+00  0.00000000E+00  0.00000000E+00  0.00000000E+00
  0.00000000E+00  0.00000000E+00  0.00000000E+00  0.00000000E+00  0.00000000E+00
  0.00000000E+00  0.00000000E+00  0.00000000E+00  0.00000000E+00  0.00000000E+00
  0.00000000E+00  0.00000000E+00  0.00000000E+00  0.00000000E+00  0.00000000E+00
  0.00000000E+00  0.00000000E+00  0.00000000E+00  0.00000000E+00  0.00000000E+00
  0.00000000E+00  0.00000000E+00  0.00000000E+00  0.00000000E+00  0.00000000E+00
  0.00000000E+00  0.00000000E+00  0.00000000E+00  0.00000000E+00  0.00000000E+00
  0.00000000E+00  0.00000000E+00  0.00000000E+00  0.00000000E+00  0.00000000E+00
  0.00000000E+00  0.00000000E+00  0.00000000E+00  0.00000000E+00  0.00000000E+00
  0.00000000E+00  0.00000000E+00  0.00000000E+00  0.00000000E+00  0.00000000E+00
  0.00000000E+00  0.00000000E+00  0.00000000E+00  0.00000000E+00  0.00000000E+00
  0.00000000E+00  0.00000000E+00  0.00000000E+00  0.00000000E+00  0.00000000E+00
  0.00000000E+00  0.00000000E+00  0.00000000E+00  0.00000000E+00  0.00000000E+00
  0.00000000E+00  0.00000000E+00  0.00000000E+00  0.00000000E+00  0.00000000E+00
  0.00000000E+00  0.00000000E+00  0.00000000E+00  0.00000000E+00  0.00000000E+00
  0.00000000E+00  0.00000000E+00  0.00000000E+00  0.00000000E+00  0.00000000E+00
  0.00000000E+00  0.00000000E+00  0.00000000E+00  0.00000000E+00  0.00000000E+00
  0.00000000E+00  0.00000000E+00  0.00000000E+00  0.00000000E+00  0.00000000E+00
  0.00000000E+00  0.00000000E+00  0.00000000E+00  0.00000000E+00  0.00000000E+00
  0.00000000E+00  0.00000000E+00  0.00000000E+00  0.00000000E+00  0.00000000E+00
  0.00000000E+00  0.00000000E+00  0.00000000E+00  0.00000000E+00  0.00000000E+00
  0.00000000E+00  0.00000000E+00  0.00000000E+00  0.00000000E+00  0.00000000E+00
  0.00000000E+00  0.00000000E+00  0.00000000E+00  0.00000000E+00  0.00000000E+00
  0.00000000E+00  0.00000000E+00  0.00000000E+00  0.00000000E+00  0.00000000E+00
  0.00000000E+00  0.00000000E+00  0.00000000E+00  0.00000000E+00  0.00000000E+00
  0.00000000E+00  0.00000000E+00  0.00000000E+00  0.00000000E+00  0.00000000E+00
  0.00000000E+00  0.00000000E+00  0.00000000E+00  0.00000000E+00  0.00000000E+00
  0.00000000E+00  0.00000000E+00  0.00000000E+00  0.00000000E+00  0.00000000E+00
  0.00000000E+00  0.00000000E+00  0.00000000E+00  0.00000000E+00  0.00000000E+00
  0.00000000E+00  0.00000000E+00  0.00000000E+00  0.00000000E+00  0.00000000E+00
  0.00000000E+00  0.00000000E+00  0.00000000E+00  0.00000000E+00  0.00000000E+00
  0.00000000E+00  0.00000000E+00  0.00000000E+00  0.00000000E+00  0.00000000E+00
  0.00000000E+00  0.00000000E+00  0.00000000E+00  0.00000000E+00  0.00000000E+00
  0.00000000E+00  0.00000000E+00  0.00000000E+00  0.00000000E+00  0.00000000E+00
  0.00000000E+00  0.00000000E+00  0.00000000E+00  0.00000000E+00  0.00000000E+00
  0.00000000E+00  0.00000000E+00  0.00000000E+00  0.00000000E+00  0.00000000E+00
  0.00000000E+00  0.00000000E+00  0.00000000E+00  0.00000000E+00  0.00000000E+00
  0.00000000E+00  0.00000000E+00  0.00000000E+00  0.00000000E+00  0.00000000E+00
  0.00000000E+00  0.00000000E+00  0.00000000E+00  0.00000000E+00  0.00000000E+00
  0.00000000E+00  0.00000000E+00  0.00000000E+00  0.00000000E+00  0.00000000E+00
  0.00000000E+00  0.00000000E+00  0.00000000E+00  0.00000000E+00  0.00000000E+00
  0.00000000E+00  0.00000000E+00  0.00000000E+00  0.00000000E+00  0.00000000E+00
  0.00000000E+00  0.00000000E+00  0.00000000E+00  0.00000000E+00  0.00000000E+00
  0.00000000E+00  0.00000000E+00  0.00000000E+00  0.00000000E+00  0.00000000E+00
  0.00000000E+00  0.00000000E+00  0.00000000E+00  0.00000000E+00  0.00000000E+00
  0.00000000E+00  0.00000000E+00  0.00000000E+00  0.00000000E+00  0.00000000E+00
  0.00000000E+00  0.00000000E+00  0.00000000E+00  0.00000000E+00  0.00000000E+00
  0.00000000E+00  0.00000000E+00  0.00000000E+00  0.00000000E+00  0.00000000E+00
  0.00000000E+00  0.00000000E+00  0.00000000E+00  0.00000000E+00  0.00000000E+00
  0.00000000E+00  0.00000000E+00  0.00000000E+00  0.00000000E+00  0.00000000E+00
  0.00000000E+00  0.00000000E+00  0.00000000E+00  0.00000000E+00  0.00000000E+00
  0.00000000E+00  0.00000000E+00  0.00000000E+00  0.00000000E+00  0.00000000E+00
  0.00000000E+00  0.00000000E+00  0.00000000E+00  0.00000000E+00  0.00000000E+00
  0.00000000E+00  0.00000000E+00  0.00000000E+00  0.00000000E+00  0.00000000E+00
  0.00000000E+00  0.00000000E+00  0.00000000E+00  0.00000000E+00  0.00000000E+00
  0.00000000E+00  0.00000000E+00  0.00000000E+00  0.00000000E+00  0.00000000E+00
  0.00000000E+00  0.00000000E+00  0.00000000E+00  0.00000000E+00  0.00000000E+00
  0.00000000E+00  0.00000000E+00  0.00000000E+00  0.00000000E+00  0.00000000E+00
  0.00000000E+00  0.00000000E+00  0.00000000E+00  0.00000000E+00  0.00000000E+00
  0.00000000E+00  0.00000000E+00  0.00000000E+00  0.00000000E+00  0.00000000E+00
  0.00000000E+00  0.00000000E+00  0.00000000E+00  0.00000000E+00  0.00000000E+00
  0.00000000E+00  0.00000000E+00  0.00000000E+00  0.00000000E+00  0.00000000E+00
  0.00000000E+00  0.00000000E+00  0.00000000E+00  0.00000000E+00  0.00000000E+00
  0.00000000E+00  0.00000000E+00  0.00000000E+00  0.00000000E+00  0.00000000E+00
  0.00000000E+00  0.00000000E+00  0.00000000E+00  0.00000000E+00  0.00000000E+00
  0.00000000E+00  0.00000000E+00  0.00000000E+00  0.00000000E+00  0.00000000E+00
  0.00000000E+00  0.00000000E+00  0.00000000E+00  0.00000000E+00  0.00000000E+00
  0.00000000E+00  0.00000000E+00  0.00000000E+00  0.00000000E+00  0.00000000E+00
  0.00000000E+00  0.00000000E+00  0.00000000E+00  0.00000000E+00  0.00000000E+00
  0.00000000E+00  0.00000000E+00  0.00000000E+00  0.00000000E+00  0.00000000E+00
  0.00000000E+00  0.00000000E+00  0.00000000E+00  0.00000000E+00  0.00000000E+00
  0.00000000E+00  0.00000000E+00  0.00000000E+00  0.00000000E+00  0.00000000E+00
  0.00000000E+00  0.00000000E+00  0.00000000E+00  0.00000000E+00  0.00000000E+00
  0.00000000E+00  0.00000000E+00  0.00000000E+00  0.00000000E+00  0.00000000E+00
  0.00000000E+00  0.00000000E+00  0.00000000E+00  0.00000000E+00  0.00000000E+00
  0.00000000E+00  0.00000000E+00  0.00000000E+00  0.00000000E+00  0.00000000E+00
  0.00000000E+00  0.00000000E+00  0.00000000E+00  0.00000000E+00  0.00000000E+00
  0.00000000E+00  0.00000000E+00  0.00000000E+00  0.00000000E+00  0.00000000E+00
  0.00000000E+00  0.00000000E+00  0.00000000E+00  0.00000000E+00  0.00000000E+00
  0.00000000E+00  0.00000000E+00  0.00000000E+00  0.00000000E+00  0.00000000E+00
  0.00000000E+00  0.00000000E+00  0.00000000E+00  0.00000000E+00  0.00000000E+00
  0.00000000E+00  0.00000000E+00  0.00000000E+00  0.00000000E+00  0.00000000E+00
  0.00000000E+00  0.00000000E+00  0.00000000E+00  0.00000000E+00  0.00000000E+00
  0.00000000E+00  0.00000000E+00  0.00000000E+00  0.00000000E+00  0.00000000E+00
  0.00000000E+00  0.00000000E+00  0.00000000E+00  0.00000000E+00  0.00000000E+00
  0.00000000E+00  0.00000000E+00  0.00000000E+00  0.00000000E+00  0.00000000E+00
  0.00000000E+00  0.00000000E+00  0.00000000E+00  0.00000000E+00  0.00000000E+00
  0.00000000E+00  0.00000000E+00  0.00000000E+00  0.00000000E+00  0.00000000E+00
  0.00000000E+00  0.00000000E+00  0.00000000E+00  0.00000000E+00  0.00000000E+00
  0.00000000E+00  0.00000000E+00  0.00000000E+00  0.00000000E+00  0.00000000E+00
  0.00000000E+00  0.00000000E+00  0.00000000E+00  0.00000000E+00  0.00000000E+00
  0.00000000E+00  0.00000000E+00  0.00000000E+00  0.00000000E+00  0.00000000E+00
  0.00000000E+00  0.00000000E+00  0.00000000E+00  0.00000000E+00  0.00000000E+00
  0.00000000E+00  0.00000000E+00  0.00000000E+00  0.00000000E+00  0.00000000E+00
  0.00000000E+00  0.00000000E+00  0.00000000E+00  0.00000000E+00  0.00000000E+00
  0.00000000E+00  0.00000000E+00  0.00000000E+00  0.00000000E+00  0.00000000E+00
  0.00000000E+00  0.00000000E+00  0.00000000E+00  0.00000000E+00  0.00000000E+00
  0.00000000E+00  0.00000000E+00  0.00000000E+00  0.00000000E+00  0.00000000E+00
  0.00000000E+00  0.00000000E+00  0.00000000E+00  0.00000000E+00  0.00000000E+00
  0.00000000E+00  0.00000000E+00  0.00000000E+00  0.00000000E+00  0.00000000E+00
  0.00000000E+00  0.00000000E+00  0.00000000E+00  0.00000000E+00  0.00000000E+00
  0.00000000E+00  0.00000000E+00  0.00000000E+00  0.00000000E+00  0.00000000E+00
  0.00000000E+00  0.00000000E+00  0.00000000E+00  0.00000000E+00  0.00000000E+00
  0.00000000E+00  0.00000000E+00  0.00000000E+00  0.00000000E+00  0.00000000E+00
  0.00000000E+00  0.00000000E+00  0.00000000E+00  0.00000000E+00  0.00000000E+00
  0.00000000E+00  0.00000000E+00  0.00000000E+00  0.00000000E+00  0.00000000E+00
  0.00000000E+00  0.00000000E+00  0.00000000E+00  0.00000000E+00  0.00000000E+00
  0.00000000E+00  0.00000000E+00  0.00000000E+00  0.00000000E+00  0.00000000E+00
  0.00000000E+00  0.00000000E+00  0.00000000E+00  0.00000000E+00  0.00000000E+00
  0.00000000E+00  0.00000000E+00  0.00000000E+00  0.00000000E+00  0.00000000E+00
  0.00000000E+00  0.00000000E+00  0.00000000E+00  0.00000000E+00  0.00000000E+00
  0.00000000E+00  0.00000000E+00  0.00000000E+00  0.00000000E+00  0.00000000E+00
  0.00000000E+00  0.00000000E+00  0.00000000E+00  0.00000000E+00  0.00000000E+00
  0.00000000E+00  0.00000000E+00  0.00000000E+00  0.00000000E+00  0.00000000E+00
  0.00000000E+00  0.00000000E+00  0.00000000E+00  0.00000000E+00  0.00000000E+00
  0.00000000E+00  0.00000000E+00  0.00000000E+00  0.00000000E+00  0.00000000E+00
  0.00000000E+00  0.00000000E+00  0.00000000E+00  0.00000000E+00  0.00000000E+00
  0.00000000E+00  0.00000000E+00  0.00000000E+00  0.00000000E+00  0.00000000E+00
  0.00000000E+00  0.00000000E+00  0.00000000E+00  0.00000000E+00  0.00000000E+00
  0.00000000E+00  0.00000000E+00  0.00000000E+00  0.00000000E+00  0.00000000E+00
  0.00000000E+00  0.00000000E+00  0.00000000E+00  0.00000000E+00  0.00000000E+00
  0.00000000E+00  0.00000000E+00  0.00000000E+00  0.00000000E+00  0.00000000E+00
  0.00000000E+00  0.00000000E+00  0.00000000E+00  0.00000000E+00  0.00000000E+00
  0.00000000E+00  0.00000000E+00  0.00000000E+00  0.00000000E+00  0.00000000E+00
  0.00000000E+00  0.00000000E+00  0.00000000E+00  0.00000000E+00  0.00000000E+00
  0.00000000E+00  0.00000000E+00  0.00000000E+00  0.00000000E+00  0.00000000E+00
  0.00000000E+00  0.00000000E+00  0.00000000E+00  0.00000000E+00  0.00000000E+00
  0.00000000E+00  0.00000000E+00  0.00000000E+00  0.00000000E+00  0.00000000E+00
  0.00000000E+00  0.00000000E+00  0.00000000E+00  0.00000000E+00  0.00000000E+00
  0.00000000E+00  0.00000000E+00  0.00000000E+00  0.00000000E+00  0.00000000E+00
  0.00000000E+00  0.00000000E+00  0.00000000E+00  0.00000000E+00  0.00000000E+00
  0.00000000E+00  0.00000000E+00  0.00000000E+00  0.00000000E+00  0.00000000E+00
  0.00000000E+00  0.00000000E+00  0.00000000E+00  0.00000000E+00  0.00000000E+00
  0.00000000E+00  0.00000000E+00  0.00000000E+00  0.00000000E+00  0.00000000E+00
  0.00000000E+00  0.00000000E+00  0.00000000E+00  0.00000000E+00  0.00000000E+00
  0.00000000E+00  0.00000000E+00  0.00000000E+00  0.00000000E+00  0.00000000E+00
  0.00000000E+00  0.00000000E+00  0.00000000E+00  0.00000000E+00  0.00000000E+00
  0.00000000E+00  0.00000000E+00  0.00000000E+00  0.00000000E+00  0.00000000E+00
  0.00000000E+00  0.00000000E+00  0.00000000E+00  0.00000000E+00  0.00000000E+00
  0.00000000E+00  0.00000000E+00  0.00000000E+00  0.00000000E+00  0.00000000E+00
  0.00000000E+00  0.00000000E+00  0.00000000E+00  0.00000000E+00  0.00000000E+00
  0.00000000E+00  0.00000000E+00  0.00000000E+00  0.00000000E+00  0.00000000E+00
  0.00000000E+00  0.00000000E+00  0.00000000E+00  0.00000000E+00  0.00000000E+00
  0.00000000E+00  0.00000000E+00  0.00000000E+00  0.00000000E+00  0.00000000E+00
  0.00000000E+00  0.00000000E+00  0.00000000E+00  0.00000000E+00  0.00000000E+00
  0.00000000E+00  0.00000000E+00  0.00000000E+00  0.00000000E+00  0.00000000E+00
  0.00000000E+00  0.00000000E+00  0.00000000E+00  0.00000000E+00  0.00000000E+00
  0.00000000E+00  0.00000000E+00  0.00000000E+00  0.00000000E+00  0.00000000E+00
  0.00000000E+00  0.00000000E+00  0.00000000E+00  0.00000000E+00  0.00000000E+00
  0.00000000E+00  0.00000000E+00  0.00000000E+00  0.00000000E+00  0.00000000E+00
  0.00000000E+00  0.00000000E+00  0.00000000E+00  0.00000000E+00  0.00000000E+00
  0.00000000E+00  0.00000000E+00  0.00000000E+00  0.00000000E+00  0.00000000E+00
  0.00000000E+00  0.00000000E+00  0.00000000E+00  0.00000000E+00  0.00000000E+00
  0.00000000E+00  0.00000000E+00  0.00000000E+00  0.00000000E+00  0.00000000E+00
  0.00000000E+00  0.00000000E+00  0.00000000E+00  0.00000000E+00  0.00000000E+00
  0.00000000E+00  0.00000000E+00  0.00000000E+00  0.00000000E+00  0.00000000E+00
  0.00000000E+00  0.00000000E+00  0.00000000E+00  0.00000000E+00  0.00000000E+00
  0.00000000E+00  0.00000000E+00  0.00000000E+00  0.00000000E+00  0.00000000E+00
  0.00000000E+00  0.00000000E+00  0.00000000E+00  0.00000000E+00  0.00000000E+00
  0.00000000E+00  0.00000000E+00  0.00000000E+00  0.00000000E+00  0.00000000E+00
  0.00000000E+00  0.00000000E+00  0.00000000E+00  0.00000000E+00  0.00000000E+00
  0.00000000E+00  0.00000000E+00  0.00000000E+00  0.00000000E+00  0.00000000E+00
  0.00000000E+00  0.00000000E+00  0.00000000E+00  0.00000000E+00  0.00000000E+00
  0.00000000E+00  0.00000000E+00  0.00000000E+00  0.00000000E+00  0.00000000E+00
  0.00000000E+00  0.00000000E+00  0.00000000E+00  0.00000000E+00  0.00000000E+00
  0.00000000E+00  0.00000000E+00  0.00000000E+00  0.00000000E+00  0.00000000E+00
  0.00000000E+00  0.00000000E+00  0.00000000E+00  0.00000000E+00  0.00000000E+00
  0.00000000E+00  0.00000000E+00  0.00000000E+00  0.00000000E+00  0.00000000E+00
  0.00000000E+00  0.00000000E+00  0.00000000E+00  0.00000000E+00  0.00000000E+00
  0.00000000E+00  0.00000000E+00  0.00000000E+00  0.00000000E+00  0.00000000E+00
  0.00000000E+00  0.00000000E+00  0.00000000E+00  0.00000000E+00  0.00000000E+00
  0.00000000E+00  0.00000000E+00  0.00000000E+00  0.00000000E+00  0.00000000E+00
  0.00000000E+00  0.00000000E+00  0.00000000E+00  0.00000000E+00  0.00000000E+00
  0.00000000E+00  0.00000000E+00  0.00000000E+00  0.00000000E+00  0.00000000E+00
  0.00000000E+00  0.00000000E+00  0.00000000E+00  0.00000000E+00  0.00000000E+00
  0.00000000E+00  0.00000000E+00  0.00000000E+00  0.00000000E+00  0.00000000E+00
  0.00000000E+00  0.00000000E+00  0.00000000E+00  0.00000000E+00  0.00000000E+00
  0.00000000E+00  0.00000000E+00  0.00000000E+00  0.00000000E+00  0.00000000E+00
  0.00000000E+00  0.00000000E+00  0.00000000E+00  0.00000000E+00  0.00000000E+00
  0.00000000E+00  0.00000000E+00  0.00000000E+00  0.00000000E+00  0.00000000E+00
  0.00000000E+00  0.00000000E+00  0.00000000E+00  0.00000000E+00  0.00000000E+00
  0.00000000E+00  0.00000000E+00  0.00000000E+00  0.00000000E+00  0.00000000E+00
  0.00000000E+00  0.00000000E+00  0.00000000E+00  0.00000000E+00  0.00000000E+00
  0.00000000E+00  0.00000000E+00  0.00000000E+00  0.00000000E+00  0.00000000E+00
  0.00000000E+00  0.00000000E+00  0.00000000E+00  0.00000000E+00  0.00000000E+00
  0.00000000E+00  0.00000000E+00  0.00000000E+00  0.00000000E+00  0.00000000E+00
  0.00000000E+00  0.00000000E+00  0.00000000E+00  0.00000000E+00  0.00000000E+00
  0.00000000E+00  0.00000000E+00  0.00000000E+00  0.00000000E+00  0.00000000E+00
  0.00000000E+00  0.00000000E+00  0.00000000E+00  0.00000000E+00  0.00000000E+00
  0.00000000E+00  0.00000000E+00  0.00000000E+00  0.00000000E+00  0.00000000E+00
  0.00000000E+00  0.00000000E+00  0.00000000E+00  0.00000000E+00  0.00000000E+00
  0.00000000E+00  0.00000000E+00  0.00000000E+00  0.00000000E+00  0.00000000E+00
  0.00000000E+00  0.00000000E+00  0.00000000E+00  0.00000000E+00  0.00000000E+00
  0.00000000E+00  0.00000000E+00  0.00000000E+00  0.00000000E+00  0.00000000E+00
  0.00000000E+00  0.00000000E+00  0.00000000E+00  0.00000000E+00  0.00000000E+00
  0.00000000E+00  0.00000000E+00  0.00000000E+00  0.00000000E+00  0.00000000E+00
  0.00000000E+00  0.00000000E+00  0.00000000E+00  0.00000000E+00  0.00000000E+00
  0.00000000E+00  0.00000000E+00  0.00000000E+00  0.00000000E+00  0.00000000E+00
  0.00000000E+00  0.00000000E+00  0.00000000E+00  0.00000000E+00  0.00000000E+00
  0.00000000E+00  0.00000000E+00  0.00000000E+00  0.00000000E+00  0.00000000E+00
  0.00000000E+00  0.00000000E+00  0.00000000E+00  0.00000000E+00  0.00000000E+00
  0.00000000E+00  0.00000000E+00  0.00000000E+00  0.00000000E+00  0.00000000E+00
  0.00000000E+00  0.00000000E+00  0.00000000E+00  0.00000000E+00  0.00000000E+00
  0.00000000E+00  0.00000000E+00  0.00000000E+00  0.00000000E+00  0.00000000E+00
  0.00000000E+00  0.00000000E+00  0.00000000E+00  0.00000000E+00  0.00000000E+00
  0.00000000E+00  0.00000000E+00  0.00000000E+00  0.00000000E+00  0.00000000E+00
  0.00000000E+00  0.00000000E+00  0.00000000E+00  0.00000000E+00  0.00000000E+00
  0.00000000E+00  0.00000000E+00  0.00000000E+00  0.00000000E+00  0.00000000E+00
  0.00000000E+00  0.00000000E+00  0.00000000E+00  0.00000000E+00  0.00000000E+00
  0.00000000E+00  0.00000000E+00  0.00000000E+00  0.00000000E+00  0.00000000E+00
  0.00000000E+00  0.00000000E+00  0.00000000E+00  0.00000000E+00  0.00000000E+00
  0.00000000E+00  0.00000000E+00  0.00000000E+00  0.00000000E+00  0.00000000E+00
  0.00000000E+00  0.00000000E+00  0.00000000E+00  0.00000000E+00  0.00000000E+00
  0.00000000E+00  0.00000000E+00  0.00000000E+00  0.00000000E+00  0.00000000E+00
  0.00000000E+00  0.00000000E+00  0.00000000E+00  0.00000000E+00  0.00000000E+00
  0.00000000E+00  0.00000000E+00  0.00000000E+00  0.00000000E+00  0.00000000E+00
  0.00000000E+00  0.00000000E+00  0.00000000E+00  0.00000000E+00  0.00000000E+00
  0.00000000E+00  0.00000000E+00  0.00000000E+00  0.00000000E+00  0.00000000E+00
  0.00000000E+00  0.00000000E+00  0.00000000E+00  0.00000000E+00  0.00000000E+00
  0.00000000E+00  0.00000000E+00  0.00000000E+00  0.00000000E+00  0.00000000E+00
  0.00000000E+00  0.00000000E+00  0.00000000E+00  0.00000000E+00  0.00000000E+00
  0.00000000E+00  0.00000000E+00  0.00000000E+00  0.00000000E+00  0.00000000E+00
  0.00000000E+00  0.00000000E+00  0.00000000E+00  0.00000000E+00  0.00000000E+00
  0.00000000E+00  0.00000000E+00  0.00000000E+00  0.00000000E+00  0.00000000E+00
  0.00000000E+00  0.00000000E+00  0.00000000E+00  0.00000000E+00  0.00000000E+00
  0.00000000E+00  0.00000000E+00  0.00000000E+00  0.00000000E+00  0.00000000E+00
  0.00000000E+00  0.00000000E+00  0.00000000E+00  0.00000000E+00  0.00000000E+00
  0.00000000E+00  0.00000000E+00  0.00000000E+00  0.00000000E+00  0.00000000E+00
  0.00000000E+00  0.00000000E+00  0.00000000E+00  0.00000000E+00  0.00000000E+00
  0.00000000E+00  0.00000000E+00  0.00000000E+00  0.00000000E+00  0.00000000E+00
  0.00000000E+00  0.00000000E+00  0.00000000E+00  0.00000000E+00  0.00000000E+00
  0.00000000E+00  0.00000000E+00  0.00000000E+00  0.00000000E+00  0.00000000E+00
  0.00000000E+00  0.00000000E+00  0.00000000E+00  0.00000000E+00  0.00000000E+00
  0.00000000E+00  0.00000000E+00  0.00000000E+00  0.00000000E+00  0.00000000E+00
  0.00000000E+00  0.00000000E+00  0.00000000E+00  0.00000000E+00  0.00000000E+00
  0.00000000E+00  0.00000000E+00  0.00000000E+00  0.00000000E+00  0.00000000E+00
  0.00000000E+00  0.00000000E+00  0.00000000E+00  0.00000000E+00  0.00000000E+00
  0.00000000E+00  0.00000000E+00  0.00000000E+00  0.00000000E+00  0.00000000E+00
  0.00000000E+00  0.00000000E+00  0.00000000E+00  0.00000000E+00  0.00000000E+00
  0.00000000E+00  0.00000000E+00  0.00000000E+00  0.00000000E+00  0.00000000E+00
  0.00000000E+00  0.00000000E+00  0.00000000E+00  0.00000000E+00  0.00000000E+00
  0.00000000E+00  0.00000000E+00  0.00000000E+00  0.00000000E+00  0.00000000E+00
  0.00000000E+00  0.00000000E+00  0.00000000E+00  0.00000000E+00  0.00000000E+00
  0.00000000E+00  0.00000000E+00  0.00000000E+00  0.00000000E+00  0.00000000E+00
  0.00000000E+00  0.00000000E+00  0.00000000E+00  0.00000000E+00  0.00000000E+00
  0.00000000E+00  0.00000000E+00  0.00000000E+00  0.00000000E+00  0.00000000E+00
  0.00000000E+00  0.00000000E+00  0.00000000E+00  0.00000000E+00  0.00000000E+00
  0.00000000E+00  0.00000000E+00  0.00000000E+00  0.00000000E+00  0.00000000E+00
  0.00000000E+00  0.00000000E+00  0.00000000E+00  0.00000000E+00  0.00000000E+00
  0.00000000E+00  0.00000000E+00  0.00000000E+00  0.00000000E+00  0.00000000E+00
  0.00000000E+00  0.00000000E+00  0.00000000E+00  0.00000000E+00  0.00000000E+00
  0.00000000E+00  0.00000000E+00  0.00000000E+00  0.00000000E+00  0.00000000E+00
  0.00000000E+00  0.00000000E+00  0.00000000E+00  0.00000000E+00  0.00000000E+00
  0.00000000E+00  0.00000000E+00  0.00000000E+00  0.00000000E+00  0.00000000E+00
  0.00000000E+00  0.00000000E+00  0.00000000E+00  0.00000000E+00  0.00000000E+00
  0.00000000E+00  0.00000000E+00  0.00000000E+00  0.00000000E+00  0.00000000E+00
  0.00000000E+00  0.00000000E+00  0.00000000E+00  0.00000000E+00  0.00000000E+00
  0.00000000E+00  0.00000000E+00  0.00000000E+00  0.00000000E+00  0.00000000E+00
  0.00000000E+00  0.00000000E+00  0.00000000E+00  0.00000000E+00  0.00000000E+00
  0.00000000E+00  0.00000000E+00  0.00000000E+00  0.00000000E+00  0.00000000E+00
  0.00000000E+00  0.00000000E+00  0.00000000E+00  0.00000000E+00  0.00000000E+00
  0.00000000E+00  0.00000000E+00  0.00000000E+00  0.00000000E+00  0.00000000E+00
  0.00000000E+00  0.00000000E+00  0.00000000E+00  0.00000000E+00  0.00000000E+00
  0.00000000E+00  0.00000000E+00  0.00000000E+00  0.00000000E+00  0.00000000E+00
  0.00000000E+00  0.00000000E+00  0.00000000E+00  0.00000000E+00  0.00000000E+00
  0.00000000E+00  0.00000000E+00  0.00000000E+00  0.00000000E+00  0.00000000E+00
  0.00000000E+00  0.00000000E+00  0.00000000E+00  0.00000000E+00  0.00000000E+00
  0.00000000E+00  0.00000000E+00  0.00000000E+00  0.00000000E+00  0.00000000E+00
  0.00000000E+00  0.00000000E+00  0.00000000E+00  0.00000000E+00  0.00000000E+00
  0.00000000E+00  0.00000000E+00  0.00000000E+00  0.00000000E+00  0.00000000E+00
  0.00000000E+00  0.00000000E+00  0.00000000E+00  0.00000000E+00  0.00000000E+00
  0.00000000E+00  0.00000000E+00  0.00000000E+00  0.00000000E+00  0.00000000E+00
  0.00000000E+00  0.00000000E+00  0.00000000E+00  0.00000000E+00  0.00000000E+00
  0.00000000E+00  0.00000000E+00  0.00000000E+00  0.00000000E+00  0.00000000E+00
  0.00000000E+00  0.00000000E+00  0.00000000E+00  0.00000000E+00  0.00000000E+00
  0.00000000E+00  0.00000000E+00  0.00000000E+00  0.00000000E+00  0.00000000E+00
  0.00000000E+00  0.00000000E+00  0.00000000E+00  0.00000000E+00  0.00000000E+00
  0.00000000E+00  0.00000000E+00  0.00000000E+00  0.00000000E+00  0.00000000E+00
  0.00000000E+00  0.00000000E+00  0.00000000E+00  0.00000000E+00  0.00000000E+00
  0.00000000E+00  0.00000000E+00  0.00000000E+00  0.00000000E+00  0.00000000E+00
  0.00000000E+00  0.00000000E+00  0.00000000E+00  0.00000000E+00  0.00000000E+00
  0.00000000E+00  0.00000000E+00  0.00000000E+00  0.00000000E+00  0.00000000E+00
  0.00000000E+00  0.00000000E+00  0.00000000E+00  0.00000000E+00  0.00000000E+00
  0.00000000E+00  0.00000000E+00  0.00000000E+00  0.00000000E+00  0.00000000E+00
  0.00000000E+00  0.00000000E+00  0.00000000E+00  0.00000000E+00  0.00000000E+00
  0.00000000E+00  0.00000000E+00  0.00000000E+00  0.00000000E+00  0.00000000E+00
  0.00000000E+00  0.00000000E+00  0.00000000E+00  0.00000000E+00  0.00000000E+00
  0.00000000E+00  0.00000000E+00  0.00000000E+00  0.00000000E+00  0.00000000E+00
  0.00000000E+00  0.00000000E+00  0.00000000E+00  0.00000000E+00  0.00000000E+00
  0.00000000E+00  0.00000000E+00  0.00000000E+00  0.00000000E+00  0.00000000E+00
  0.00000000E+00  0.00000000E+00  0.00000000E+00  0.00000000E+00  0.00000000E+00
  0.00000000E+00  0.00000000E+00  0.00000000E+00  0.00000000E+00  0.00000000E+00
  0.00000000E+00  0.00000000E+00  0.00000000E+00  0.00000000E+00  0.00000000E+00
  0.00000000E+00  0.00000000E+00  0.00000000E+00  0.00000000E+00  0.00000000E+00
  0.00000000E+00  0.00000000E+00  0.00000000E+00  0.00000000E+00  0.00000000E+00
  0.00000000E+00  0.00000000E+00  0.00000000E+00  0.00000000E+00  0.00000000E+00
  0.00000000E+00  0.00000000E+00  0.00000000E+00  0.00000000E+00  0.00000000E+00
  0.00000000E+00  0.00000000E+00  0.00000000E+00  0.00000000E+00  0.00000000E+00
  0.00000000E+00  0.00000000E+00  0.00000000E+00  0.00000000E+00  0.00000000E+00
  0.00000000E+00  0.00000000E+00  0.00000000E+00  0.00000000E+00  0.00000000E+00
  0.00000000E+00  0.00000000E+00  0.00000000E+00  0.00000000E+00  0.00000000E+00
  0.00000000E+00  0.00000000E+00  0.00000000E+00  0.00000000E+00  0.00000000E+00
  0.00000000E+00  0.00000000E+00  0.00000000E+00  0.00000000E+00  0.00000000E+00
  0.00000000E+00  0.00000000E+00  0.00000000E+00  0.00000000E+00  0.00000000E+00
  0.00000000E+00  0.00000000E+00  0.00000000E+00  0.00000000E+00  0.00000000E+00
  0.00000000E+00  0.00000000E+00  0.00000000E+00  0.00000000E+00  0.00000000E+00
  0.00000000E+00  0.00000000E+00  0.00000000E+00  0.00000000E+00  0.00000000E+00
  0.00000000E+00  0.00000000E+00  0.00000000E+00  0.00000000E+00  0.00000000E+00
  0.00000000E+00  0.00000000E+00  0.00000000E+00  0.00000000E+00  0.00000000E+00
  0.00000000E+00  0.00000000E+00  0.00000000E+00  0.00000000E+00  0.00000000E+00
  0.00000000E+00  0.00000000E+00  0.00000000E+00  0.00000000E+00  0.00000000E+00
  0.00000000E+00  0.00000000E+00  0.00000000E+00  0.00000000E+00  0.00000000E+00
  0.00000000E+00  0.00000000E+00  0.00000000E+00  0.00000000E+00  0.00000000E+00
  0.00000000E+00  0.00000000E+00  0.00000000E+00  0.00000000E+00  0.00000000E+00
  0.00000000E+00  0.00000000E+00  0.00000000E+00  0.00000000E+00  0.00000000E+00
  0.00000000E+00  0.00000000E+00  0.00000000E+00  0.00000000E+00  0.00000000E+00
  0.00000000E+00  0.00000000E+00  0.00000000E+00  0.00000000E+00  0.00000000E+00
  0.00000000E+00  0.00000000E+00  0.00000000E+00  0.00000000E+00  0.00000000E+00
  0.00000000E+00  0.00000000E+00  0.00000000E+00  0.00000000E+00  0.00000000E+00
  0.00000000E+00  0.00000000E+00  0.00000000E+00  0.00000000E+00  0.00000000E+00
  0.00000000E+00  0.00000000E+00  0.00000000E+00  0.00000000E+00  0.00000000E+00
  0.00000000E+00  0.00000000E+00  0.00000000E+00  0.00000000E+00  0.00000000E+00
  0.00000000E+00  0.00000000E+00  0.00000000E+00  0.00000000E+00  0.00000000E+00
  0.00000000E+00  0.00000000E+00  0.00000000E+00  0.00000000E+00  0.00000000E+00
  0.00000000E+00  0.00000000E+00  0.00000000E+00  0.00000000E+00  0.00000000E+00
  0.00000000E+00  0.00000000E+00  0.00000000E+00  0.00000000E+00  0.00000000E+00
  0.00000000E+00  0.00000000E+00  0.00000000E+00  0.00000000E+00  0.00000000E+00
  0.00000000E+00  0.00000000E+00  0.00000000E+00  0.00000000E+00  0.00000000E+00
  0.00000000E+00  0.00000000E+00  0.00000000E+00  0.00000000E+00  0.00000000E+00
  0.00000000E+00  0.00000000E+00  0.00000000E+00  0.00000000E+00  0.00000000E+00
  0.00000000E+00  0.00000000E+00  0.00000000E+00  0.00000000E+00  0.00000000E+00
  0.00000000E+00  0.00000000E+00  0.00000000E+00  0.00000000E+00  0.00000000E+00
  0.00000000E+00  0.00000000E+00  0.00000000E+00  0.00000000E+00  0.00000000E+00
  0.00000000E+00  0.00000000E+00  0.00000000E+00  0.00000000E+00  0.00000000E+00
  0.00000000E+00  0.00000000E+00  0.00000000E+00  0.00000000E+00  0.00000000E+00
  0.00000000E+00  0.00000000E+00  0.00000000E+00  0.00000000E+00  0.00000000E+00
  0.00000000E+00  0.00000000E+00  0.00000000E+00  0.00000000E+00  0.00000000E+00
  0.00000000E+00  0.00000000E+00  0.00000000E+00  0.00000000E+00  0.00000000E+00
  0.00000000E+00  0.00000000E+00  0.00000000E+00  0.00000000E+00  0.00000000E+00
  0.00000000E+00  0.00000000E+00  0.00000000E+00  0.00000000E+00  0.00000000E+00
  0.00000000E+00  0.00000000E+00  0.00000000E+00  0.00000000E+00  0.00000000E+00
  0.00000000E+00  0.00000000E+00  0.00000000E+00  0.00000000E+00  0.00000000E+00
  0.00000000E+00  0.00000000E+00  0.00000000E+00  0.00000000E+00  0.00000000E+00
  0.00000000E+00  0.00000000E+00  0.00000000E+00  0.00000000E+00  0.00000000E+00
  0.00000000E+00  0.00000000E+00  0.00000000E+00  0.00000000E+00  0.00000000E+00
  0.00000000E+00  0.00000000E+00  0.00000000E+00  0.00000000E+00  0.00000000E+00
  0.00000000E+00  0.00000000E+00  0.00000000E+00  0.00000000E+00  0.00000000E+00
  0.00000000E+00  0.00000000E+00  0.00000000E+00  0.00000000E+00  0.00000000E+00
  0.00000000E+00  0.00000000E+00  0.00000000E+00  0.00000000E+00  0.00000000E+00
  0.00000000E+00  0.00000000E+00  0.00000000E+00  0.00000000E+00  0.00000000E+00
  0.00000000E+00  0.00000000E+00  0.00000000E+00  0.00000000E+00  0.00000000E+00
  0.00000000E+00  0.00000000E+00  0.00000000E+00  0.00000000E+00  0.00000000E+00
  0.00000000E+00  0.00000000E+00  0.00000000E+00  0.00000000E+00  0.00000000E+00
  0.00000000E+00  0.00000000E+00  0.00000000E+00  0.00000000E+00  0.00000000E+00
  0.00000000E+00  0.00000000E+00  0.00000000E+00  0.00000000E+00  0.00000000E+00
  0.00000000E+00  0.00000000E+00  0.00000000E+00  0.00000000E+00  0.00000000E+00
  0.00000000E+00  0.00000000E+00  0.00000000E+00  0.00000000E+00  0.00000000E+00
  0.00000000E+00  0.00000000E+00  0.00000000E+00  0.00000000E+00  0.00000000E+00
  0.00000000E+00  0.00000000E+00  0.00000000E+00  0.00000000E+00  0.00000000E+00
  0.00000000E+00  0.00000000E+00  0.00000000E+00  0.00000000E+00  0.00000000E+00
  0.00000000E+00  0.00000000E+00  0.00000000E+00  0.00000000E+00  0.00000000E+00
  0.00000000E+00  0.00000000E+00  0.00000000E+00  0.00000000E+00  0.00000000E+00
  0.00000000E+00  0.00000000E+00  0.00000000E+00  0.00000000E+00  0.00000000E+00
  0.00000000E+00  0.00000000E+00  0.00000000E+00  0.00000000E+00  0.00000000E+00
  0.00000000E+00  0.00000000E+00  0.00000000E+00  0.00000000E+00  0.00000000E+00
  0.00000000E+00  0.00000000E+00  0.00000000E+00  0.00000000E+00  0.00000000E+00
  0.00000000E+00  0.00000000E+00  0.00000000E+00  0.00000000E+00  0.00000000E+00
  0.00000000E+00  0.00000000E+00  0.00000000E+00  0.00000000E+00  0.00000000E+00
  0.00000000E+00  0.00000000E+00  0.00000000E+00  0.00000000E+00  0.00000000E+00
  0.00000000E+00  0.00000000E+00  0.00000000E+00  0.00000000E+00  0.00000000E+00
  0.00000000E+00  0.00000000E+00  0.00000000E+00  0.00000000E+00  0.00000000E+00
  0.00000000E+00  0.00000000E+00  0.00000000E+00  0.00000000E+00  0.00000000E+00
  0.00000000E+00  0.00000000E+00  0.00000000E+00  0.00000000E+00  0.00000000E+00
  0.00000000E+00  0.00000000E+00  0.00000000E+00  0.00000000E+00  0.00000000E+00
  0.00000000E+00  0.00000000E+00  0.00000000E+00  0.00000000E+00  0.00000000E+00
  0.00000000E+00  0.00000000E+00  0.00000000E+00  0.00000000E+00  0.00000000E+00
  0.00000000E+00  0.00000000E+00  0.00000000E+00  0.00000000E+00  0.00000000E+00
  0.00000000E+00  0.00000000E+00  0.00000000E+00  0.00000000E+00  0.00000000E+00
  0.00000000E+00  0.00000000E+00  0.00000000E+00  0.00000000E+00  0.00000000E+00
  0.00000000E+00  0.00000000E+00  0.00000000E+00  0.00000000E+00  0.00000000E+00
  0.00000000E+00  0.00000000E+00  0.00000000E+00  0.00000000E+00  0.00000000E+00
  0.00000000E+00  0.00000000E+00  0.00000000E+00  0.00000000E+00  0.00000000E+00
  0.00000000E+00  0.00000000E+00  0.00000000E+00  0.00000000E+00  0.00000000E+00
  0.00000000E+00  0.00000000E+00  0.00000000E+00  0.00000000E+00  0.00000000E+00
  0.00000000E+00  0.00000000E+00  0.00000000E+00  0.00000000E+00  0.00000000E+00
  0.00000000E+00  0.00000000E+00  0.00000000E+00  0.00000000E+00  0.00000000E+00
  0.00000000E+00  0.00000000E+00  0.00000000E+00  0.00000000E+00  0.00000000E+00
  0.00000000E+00  0.00000000E+00  0.00000000E+00  0.00000000E+00  0.00000000E+00
  0.00000000E+00  0.00000000E+00  0.00000000E+00  0.00000000E+00  0.00000000E+00
  0.00000000E+00  0.00000000E+00  0.00000000E+00  0.00000000E+00  0.00000000E+00
Pure Switching                             I                1
Dipole_Data                                R   N=           3
 -1.34571855E-15  1.84047483E-16 -5.38711688E-02
Quadrupole_Data                            R   N=           6
 -3.31316674E+00 -4.41650951E-17 -3.31316674E+00  2.82257715E-15  1.81189291E-16
 -3.16384620E+00
Octapole_Data                              R   N=          10
 -1.62265276E-15  4.03795317E-16 -5.40884253E-16  1.21138595E-15 -1.15308674E+00
 -4.53004743E-16 -1.15308674E+00 -2.16790222E-16 -1.62677557E-16 -4.77355315E+00
Hexadecapole_Data                          R   N=          15
 -3.48080904E+00 -3.35112617E-17 -1.16026968E+00 -3.35112618E-17 -3.48080904E+00
  4.82828367E-15  5.18573380E-16  1.60942789E-15  1.55572014E-15 -4.71405723E+00
 -3.55571784E-16 -4.71405723E+00  1.19879692E-14  7.93022081E-16 -2.52355849E+01
