Jobname.Temp
SP        U                             aug-cc-pVTZ         
Number of atoms                            I                3
Charge                                     I                0
Multiplicity                               I                2
Number of electrons                        I                3
Number of alpha electrons                  I                2
Number of beta electrons                   I                1
Atomic numbers                             I   N=           3
           1           1           1
Current cartesian coordinates              R   N=           9
  0.00000000E+00  0.00000000E+00 -1.80786886E+00  0.00000000E+00  0.00000000E+00
  0.00000000E+00  0.00000000E+00  0.00000000E+00  1.80793500E+00
Nuclear charges                            R   N=           3
  1.00000000E+00  1.00000000E+00  1.00000000E+00
Number of basis functions                  I               69
Number of contracted shells                I               27
Number of primitive shells                 I               33
Highest angular momentum                   I                2
Largest degree of contraction              I                3
Shell types                                I   N=          27
           0           0           0           0           1           1
           1          -2          -2           0           0           0
           0           1           1           1          -2          -2
           0           0           0           0           1           1
           1          -2          -2
Number of primitives per shell             I   N=          27
           3           1           1           1           1           1
           1           1           1           3           1           1
           1           1           1           1           1           1
           3           1           1           1           1           1
           1           1           1
Shell to atom map                          I   N=          27
           1           1           1           1           1           1
           1           1           1           2           2           2
           2           2           2           2           2           2
           3           3           3           3           3           3
           3           3           3
Primitive exponents                        R   N=          33
  3.38700000E+01  5.09500000E+00  1.15900000E+00  3.25800000E-01  1.02700000E-01
  2.52600000E-02  1.40700000E+00  3.88000000E-01  1.02000000E-01  1.05700000E+00
  2.47000000E-01  3.38700000E+01  5.09500000E+00  1.15900000E+00  3.25800000E-01
  1.02700000E-01  2.52600000E-02  1.40700000E+00  3.88000000E-01  1.02000000E-01
  1.05700000E+00  2.47000000E-01  3.38700000E+01  5.09500000E+00  1.15900000E+00
  3.25800000E-01  1.02700000E-01  2.52600000E-02  1.40700000E+00  3.88000000E-01
  1.02000000E-01  1.05700000E+00  2.47000000E-01
Contraction coefficients                   R   N=          33
  2.54948632E-02  1.90362766E-01  8.52162022E-01  1.00000000E+00  1.00000000E+00
  1.00000000E+00  1.00000000E+00  1.00000000E+00  1.00000000E+00  1.00000000E+00
  1.00000000E+00  2.54948632E-02  1.90362766E-01  8.52162022E-01  1.00000000E+00
  1.00000000E+00  1.00000000E+00  1.00000000E+00  1.00000000E+00  1.00000000E+00
  1.00000000E+00  1.00000000E+00  2.54948632E-02  1.90362766E-01  8.52162022E-01
  1.00000000E+00  1.00000000E+00  1.00000000E+00  1.00000000E+00  1.00000000E+00
  1.00000000E+00  1.00000000E+00  1.00000000E+00
Coordinates of each shell                  R   N=          81
  0.00000000E+00  0.00000000E+00 -1.80786886E+00  0.00000000E+00  0.00000000E+00
 -1.80786886E+00  0.00000000E+00  0.00000000E+00 -1.80786886E+00  0.00000000E+00
  0.00000000E+00 -1.80786886E+00  0.00000000E+00  0.00000000E+00 -1.80786886E+00
  0.00000000E+00  0.00000000E+00 -1.80786886E+00  0.00000000E+00  0.00000000E+00
 -1.80786886E+00  0.00000000E+00  0.00000000E+00 -1.80786886E+00  0.00000000E+00
  0.00000000E+00 -1.80786886E+00  0.00000000E+00  0.00000000E+00  0.00000000E+00
  0.00000000E+00  0.00000000E+00  0.00000000E+00  0.00000000E+00  0.00000000E+00
  0.00000000E+00  0.00000000E+00  0.00000000E+00  0.00000000E+00  0.00000000E+00
  0.00000000E+00  0.00000000E+00  0.00000000E+00  0.00000000E+00  0.00000000E+00
  0.00000000E+00  0.00000000E+00  0.00000000E+00  0.00000000E+00  0.00000000E+00
  0.00000000E+00  0.00000000E+00  0.00000000E+00  0.00000000E+00  0.00000000E+00
  0.00000000E+00  1.80793500E+00  0.00000000E+00  0.00000000E+00  1.80793500E+00
  0.00000000E+00  0.00000000E+00  1.80793500E+00  0.00000000E+00  0.00000000E+00
  1.80793500E+00  0.00000000E+00  0.00000000E+00  1.80793500E+00  0.00000000E+00
  0.00000000E+00  1.80793500E+00  0.00000000E+00  0.00000000E+00  1.80793500E+00
  0.00000000E+00  0.00000000E+00  1.80793500E+00  0.00000000E+00  0.00000000E+00
  1.80793500E+00
Orthonormalization Matrix                  R   N=        2415
 -1.34966371E-13  1.35165328E-01  7.09489463E-02  9.59723793E-17  3.30416862E-15
 -6.05994329E-16  4.58395670E-02 -1.51893226E-02  2.23241593E-01  3.01642536E-16
  2.44395026E-16  1.14525215E-14  3.21137600E+00  3.12906849E+01  4.02055398E-16
  1.12894079E-14 -2.19777597E-12 -3.09893217E-13 -3.12791524E-01 -3.96899644E-01
 -4.34257940E-14 -2.53642407E-16  4.53893904E-17 -2.39443789E-02 -2.42306472E-16
  4.71280117E-14  2.70989610E-15 -2.39443789E-02 -5.10978792E-16 -8.32731728E-14
 -1.81039544E-14  9.01503701E-01 -6.21051801E-02 -7.11631835E-16  3.12860440E-16
  8.11419427E-16 -5.08919866E-17 -1.91637151E-13 -1.28762349E-13  7.66363881E-16
  1.02938263E-01  8.61586767E-15 -6.32160921E-15 -4.73683916E-16 -2.64059105E-14
  2.12334635E-15 -4.96166662E-14  5.96980895E-14  2.03294094E-14 -6.49742430E-16
  8.19347016E-13  3.47905162E+00  4.75001637E-14  6.57805784E-14  5.13485610E-01
 -6.21051801E-02 -6.62646791E-14 -8.96006440E-14  1.89572757E-01  3.06842091E-02
  1.11381494E-16  2.34474918E+00 -3.74444092E-15  2.44422108E-15 -2.55808563E-16
 -5.42095388E-17 -4.73195433E-14 -7.50284311E-14  1.00090343E-12 -2.40968241E-01
 -1.12658139E-15  3.61567302E-01 -8.55399464E-15 -7.05896573E-01  5.94944025E-16
 -1.19586815E-01  1.63635669E-14 -1.20238889E-15 -5.82290091E-16  6.29538687E-17
 -2.53723653E-16  2.20443684E-17  2.07116727E-16  1.98458967E-02 -3.96271852E-15
  1.40220688E-12 -6.12563173E-14  3.67726270E-15 -4.64145154E-15  1.27596347E-14
 -6.39768008E-02 -5.63685724E-15 -1.30020490E-16 -3.06377153E-16 -5.14803775E-17
 -4.41558574E-13  5.36220081E-16  1.83861021E-16  4.45657516E-16 -1.46452191E-17
 -1.59086484E-15  1.12134582E-16  3.06842091E-02  4.10239505E-17 -4.21136490E-05
 -3.54925362E-16  3.29963453E-02 -8.51145751E-16  1.04221873E-16 -3.12791524E-01
 -1.35332717E-13  3.73130647E-13 -4.89452008E-01 -4.70855535E-15 -1.56960288E-14
 -6.77804638E-17  6.23298231E-13  1.70793178E-02  4.24987643E-16 -3.16794409E+00
 -6.58967202E-16  1.62646318E+01  2.63962984E-15  1.58709666E-16  2.07876563E-14
  1.61641717E+00 -6.52170185E-17 -1.56642897E-15  1.17155556E+00 -2.14229448E-01
 -2.51133558E-15 -1.08677020E-15  2.86305539E-16 -1.59585996E+00 -2.31452259E-14
 -3.03868351E-13  4.97696306E-15  1.75889141E-16 -8.01877742E-15 -9.62736994E-16
  1.28329714E-14  2.41969457E-14  3.75475098E-16 -8.67773700E-14 -3.16331236E-16
 -6.81282659E-16 -5.36898987E-16 -1.17331507E-16 -7.15772492E-16  2.09326413E-04
  1.53600910E+00 -4.11543738E-14 -4.58098772E-15 -3.17440921E-15 -4.66837705E-15
  1.49564324E-17  1.10237455E-15  1.84474222E-16 -1.71135662E-17 -2.99729852E-16
 -2.43575976E-16 -1.11321485E-16 -1.33220196E-15 -1.26438275E-16 -2.80532482E-16
  2.67452487E-14  2.78074152E-15 -6.41230308E-16 -1.92643990E-15 -5.37916662E-14
 -8.25832096E-15 -2.65903963E-15  3.03729205E-16  7.97749349E-15 -3.73471824E-16
 -9.09096735E-16 -1.83726630E-01  3.48400062E-16 -9.73559385E-16 -7.08489989E-01
 -3.56286614E-16  2.88878747E-16 -6.74439693E-15  5.73801986E-17  2.80606640E-05
  3.49264056E-15 -2.83400157E-15  3.26844597E-14  9.73134715E-01  3.48558880E-05
  8.33638702E-18 -1.02441870E-01 -2.43375012E-16  4.05914179E-01 -5.11057352E+00
  1.45334023E-12 -7.26690295E-15 -9.99430639E-01  5.11012426E-02 -3.54427691E-13
 -1.14978413E-14 -2.40759818E+00 -4.36466481E-13  7.82784434E-02 -4.84056771E-13
 -4.78231522E-01 -8.89313989E-14 -1.51891103E-13 -1.00578879E-01  1.00575669E-01
 -3.78713093E-16  4.27295557E+00 -2.00531497E-14 -9.07493851E-14 -1.83375358E-01
  3.85020902E-15  5.99173205E-02  8.58273959E-16  1.50627694E-16 -2.93229779E-15
 -2.60656203E-15 -1.65037472E+00  9.30074535E-15  1.36178904E-13 -2.84585358E-15
  1.03492733E-01  1.85038172E-14  1.52775288E-15  7.41685936E-15  9.55085664E-15
 -2.54405391E-15  5.87660822E-16 -1.96563352E-16  2.05112102E-15 -5.99619633E-17
 -5.23491629E-15 -1.37354375E-15 -6.16705494E-06 -9.22447810E-15  1.20985286E-15
  3.57448435E-15 -8.43445042E-14  1.29435097E+00 -1.33502121E-14  4.61728243E-15
  3.39186081E-14 -1.73760305E+00 -4.67746634E-16  5.33703812E-17  1.50614344E-01
  1.04163010E-14 -2.64059105E-14 -2.15886400E-14  1.20504726E-14 -2.41781006E-14
  2.38099821E-02  2.88307869E-15  3.18957087E-02 -1.59174346E-15 -1.17718100E-15
 -1.29402584E-15  1.04604720E-16  7.18398500E-16 -1.49373701E-16 -3.85958590E-16
  2.79325132E-15  1.50614344E-01  2.79488228E-15  4.68767526E-17  1.96120442E-16
 -6.32420935E-16 -1.61984386E-14 -1.21329190E-14 -3.51503134E-16  3.28449880E-14
 -5.48959992E-17  1.17606047E-15 -1.22919998E-01 -1.93446295E-15  8.24591171E-17
  5.03682624E-15  2.05112102E-15 -2.46553166E-01  1.07258611E-15 -7.82282027E-17
  1.03500629E-01  1.69197965E-15  3.93412059E-17 -7.45318399E-17  5.52835466E-17
  4.04806533E-15  8.33351917E-16  2.39961332E-15  4.58246254E-02 -2.20964805E-15
  6.39249757E-16 -6.65627910E-15 -4.74737227E-15 -5.69046505E-02 -2.88403965E-14
  7.95113437E-16 -1.48235248E-15  2.53214641E-16  1.99488348E-16  3.51821873E-15
 -1.01637542E+02  4.67230736E-15  4.91689858E-14  7.28213334E-15  2.28125104E-13
 -6.65627910E-15 -7.26434156E-14  5.66180439E-17 -2.24193910E-15 -6.39768008E-02
 -4.72618178E-15 -3.19867875E-02 -2.13860929E-14  4.90098457E-16 -6.32160921E-15
  1.43687839E-14  2.60683925E-17 -3.96878667E-01  1.07637478E-01 -8.10982788E-01
  6.70303851E-02  2.52351101E-16 -2.97873652E-01 -5.36898987E-16 -1.38193464E-14
  3.29823360E-16 -1.60005866E-16  1.17802704E+01  6.18641282E-13 -6.58481077E-14
  6.00733178E-15  6.99394915E-14  2.63389111E-15 -1.00477992E-15 -9.00835128E-15
  1.64773677E-14 -1.49373701E-16 -2.39937308E-14  4.34051860E-16 -8.49180184E-16
  2.98553640E-15  7.34415829E-03  1.98458967E-02  2.99178233E-02  1.22857324E-15
 -2.66240783E-16 -7.87037311E-16  4.75395274E-17 -1.27650947E-02 -1.83375358E-01
 -7.99525173E-14 -9.92302757E+00 -6.40746722E-17  2.17871902E+00 -1.55687227E-02
 -1.79302641E-02 -3.43659093E-01  1.04218922E-14 -7.05896573E-01  8.75480918E-16
  4.02432896E-17 -1.31099687E-15  5.52653536E-02 -1.66904456E+00 -5.89524109E-16
  8.09193254E-16  2.52351101E-16 -9.99430639E-01 -6.12934470E-03  5.41918458E-17
  6.01985632E-15  9.14219275E-02 -3.85958590E-16  3.92380856E-02 -1.53656695E+00
 -2.71283365E-03  1.24595236E-14 -2.37050962E-01  3.43729441E-01 -4.22814871E-15
 -5.26519870E-02  5.64240503E-15 -4.78265883E-01 -4.68553274E-16 -1.81474241E-14
 -7.40739991E-13 -7.35509737E-15 -1.70814814E-15  1.98251078E+00 -3.33334921E-17
 -2.05208042E-16  1.10237455E-15 -4.97056790E-15 -2.38051686E-02 -9.10267990E-15
 -6.41230308E-16 -4.42859232E-02  1.39832702E+00  1.62962028E-13  5.36353562E-13
 -1.79624615E-14  3.29963453E-02  3.76919622E+00  3.67465472E-15 -2.40759818E+00
 -2.87762149E-16  5.35106604E-15  1.61641717E+00 -5.00372652E-14 -1.24860798E+00
 -3.94721916E-14  1.10779678E-13 -2.97873652E-01 -3.56381850E-15 -3.80179765E-17
  4.89345481E-01  7.79430452E-16  8.66781337E-02  5.84241396E-17  1.25749354E-15
 -2.23335289E-13 -2.67629293E-15 -3.18475178E-16  1.43452887E+00 -7.05896573E-01
 -1.59585996E+00  1.06229964E+00 -4.94587641E-02 -4.14385356E-15 -1.03348138E+00
  1.35161470E-15  3.08491158E-16  3.29963453E-02 -5.94442158E-16 -4.86009997E-14
 -5.47082752E-15 -1.95051416E-16 -7.70012238E-15  6.55485205E-17 -2.58024880E-15
  1.08533983E+00 -1.34840041E-14  1.09376354E+00  3.88825833E-16  3.87754238E-14
  1.52182739E-01 -5.42980503E-16 -1.42413850E-14 -8.63600662E-16  7.30984786E-02
  9.54363440E-02  6.03871764E-16 -3.93245904E-14 -4.11543738E-14 -1.11081295E-14
 -6.31608461E-16 -7.92950582E-14 -6.56319684E-02 -1.00527949E-15  4.92275670E-15
  9.90261509E-18  8.46958846E+00 -7.06218581E-14  1.42384722E+02  1.59428074E-15
 -6.55182240E-15 -1.48960407E-14  8.72890971E-17 -4.04184565E-02 -8.53339591E-15
 -3.42485350E-16  2.55263229E-16  5.51271222E-13  1.68007575E-14  7.36895914E-14
 -9.73207673E-01 -4.84056771E-13  3.12860440E-16  6.73885792E-17  1.26612601E-14
  6.21009705E-02  1.09385850E-13 -1.61880005E-17 -4.10067251E-17  1.35197662E-01
  1.27996436E-15  7.09489463E-02 -7.13198433E-16 -7.13340169E-17  2.60705128E-01
  9.95484386E-16  3.29823360E-16  6.50159752E-13 -1.41907893E+00  1.04227713E-14
  3.47872031E+00 -2.77382784E-15  2.45412370E-01 -1.34966371E-13  1.00317206E-15
  2.62024270E-15  5.13485610E-01 -3.09868475E-15  7.26506796E+00  5.02096372E-02
 -1.49631297E-14 -6.36480399E-16 -1.56642897E-15  3.08783056E-17  4.08665334E-17
 -2.77945293E-01  3.65929130E-16 -1.49954956E-05  5.37362188E-15 -1.56323535E-15
 -1.09301600E-14 -2.09291613E-02  1.78717724E+00 -8.34082061E-17  3.10556550E-01
 -4.20132859E-16  1.57871272E-13 -4.78265883E-01 -2.86311557E-16  1.24643568E-13
  5.27376549E-02 -6.76657329E-15 -2.60945173E-15  3.92371613E-02  2.29775870E-13
 -2.87981414E-14 -2.64907895E-14  1.08533983E+00  6.08910597E-15 -3.96878667E-01
  2.19170604E-16 -5.60628666E-01 -2.40740941E+00  1.14525215E-14  1.18952414E-16
  1.66303206E-16  1.87960572E-15 -1.27650947E-02  1.98251078E+00  8.61932964E-15
  8.69563810E-16  7.74283063E-14 -1.78085693E-15  5.75838738E-15  2.17845870E-16
  2.58398051E-01  2.19711518E-14 -1.48834754E-14  2.23428003E+00  8.85000392E-15
 -3.09181529E-14  6.56657775E-16  1.16329831E+00  1.60852231E+00 -2.03712153E-14
  7.30984786E-02  7.50455312E-13  4.74946941E-15  2.42213271E-16 -3.51538587E-02
  6.15751244E-14  1.98265397E-01 -2.57170299E-16  9.63888970E-01  6.29538687E-17
  8.61932964E-15 -3.88370460E-14 -7.30903214E-02  6.44818368E-15  2.64183801E-01
 -9.09096735E-16  3.36896401E-15 -1.27777166E-02  3.28467443E-21 -3.59068070E-16
 -1.24056225E+00 -3.69606969E+00  2.38343649E-13  6.73885792E-17  1.48075675E-15
  6.88105919E-15 -3.33840660E-15 -1.64449130E-01 -3.60396408E-15 -1.25152177E-15
 -8.27288900E-15  1.01122636E-13 -1.52078485E-01  1.48766776E-15 -7.46413325E-15
  5.36971375E-17 -3.31585811E-14  6.08910597E-15  8.04588894E-15 -2.49299703E-14
  9.02150400E-16  2.34474918E+00  5.19769871E-15  6.30975854E-17 -2.10819314E-15
 -6.93764340E-15  6.71864567E-16  4.35594703E-15  2.83838551E-16 -8.53339591E-15
  9.77443895E-16  1.44123016E-15 -4.38267346E-16 -2.87834993E-14  1.28726426E-01
 -1.91016958E+00 -6.21102195E-02  9.63888970E-01  6.69158652E-16  1.11346760E-15
  1.51571539E-16  3.09172829E-15 -3.00315636E+00  2.38815153E-15  1.72858401E-16
  1.06856635E-15  4.00431396E-15 -2.51413009E-15  8.72890971E-17  4.06888264E-15
  3.92091586E-15 -1.12629132E-14  5.13485610E-01  2.84173763E-15  8.74765148E-02
 -8.30969111E-16 -1.53107874E-02  3.46010446E-15 -6.06185234E-01  5.18849876E-13
 -2.28214740E-15 -3.80179765E-17  2.18136085E-01 -1.80646584E-16 -2.77956505E-01
 -1.28661462E-16 -1.50953176E-16 -6.52388208E-16 -4.42859232E-02 -1.30181857E-01
  1.99579216E-14 -2.41781006E-14 -6.39768008E-02 -1.00967123E-14 -1.53107874E-02
  4.91689858E-14  2.97877721E-15  7.23485796E-17 -6.64051038E-02  3.46361984E-15
 -1.31099687E-15  4.84289382E-15 -2.10819314E-15  4.57865381E-16  6.78467908E-03
  6.03908903E-15  2.52043052E-16 -2.58088583E-02 -6.63776901E-15  1.59831383E-16
 -9.87178858E-01  2.78935875E-16  5.34965652E-17 -1.05803862E-14  1.15326458E-14
 -2.89987337E-01 -1.48960407E-14 -1.38345245E-13 -3.69299950E-14 -1.22908226E-13
  7.26470000E+00  2.95085108E-16 -4.78265883E-01  4.94608696E-15 -6.39768008E-02
 -1.64336317E-16  4.53390079E-16  3.00923335E-16 -1.79007420E-14  5.02968166E-15
  1.94165030E-16  6.21009705E-02  7.58173911E-15 -1.45909845E-01  3.32880125E-16
  1.76247022E-15 -2.66982651E-16  5.02968166E-15 -1.54039454E-01  8.18174319E-16
 -1.54039454E-01  1.12058807E-14 -1.45894328E-01  8.42971954E-15 -1.88896866E-15
 -5.97681433E+00  4.12460440E-16 -3.96858437E+01  1.20985286E-15 -1.24953775E+01
 -5.83170774E-01 -5.35193159E-15  1.23992238E-14  6.70316508E-14 -6.31666345E-07
  5.36220081E-16 -2.84478770E-13 -9.11846014E-17  1.78208467E-13  1.12971239E-13
  1.42179512E-15 -1.50953176E-16 -5.83056753E-16  5.26715077E-18 -2.71940057E-17
 -5.10960075E+00  5.88310149E-14  3.83615688E-14 -2.87834993E-14  7.08927458E-15
  3.75010128E-13  3.92153424E-14 -2.96487461E-05 -2.23140225E-14 -1.33926984E-13
  2.19711518E-14  4.24257319E-17 -1.50958015E-15  3.42802856E-02 -1.21805237E-15
  2.76131342E-15  3.56084180E-01  5.19779812E-15  5.79503934E-15 -1.72717168E-01
  1.01739007E-16 -9.34779753E-14 -1.21329190E-14  1.63411390E-15  3.70297736E-15
  3.45360447E-16  6.66930118E-17  9.25004917E-01  5.79503934E-15  9.73134715E-01
 -9.73207673E-01  6.19390307E-16 -4.35188007E-17  6.23298231E-13 -1.69863431E-02
 -2.78408172E-13 -3.51452997E-02  2.42213271E-16 -7.24492235E-16 -1.12658139E-15
 -3.29055451E-16  7.69719454E-14  2.59420767E-15 -4.03534092E-15  2.64183801E-01
 -1.80447558E-15  4.02087498E-13  1.17802704E+01 -1.12171506E-14 -1.51125288E-14
 -2.84778392E-14 -1.23572949E-15  2.79371634E-16 -1.42962960E-14  7.05187853E-14
 -4.68553274E-16  8.96444226E-17 -3.13920490E-13 -2.80532482E-16 -1.18137096E-14
 -5.45483600E-15  1.82999542E-17 -1.27576221E-15  1.73773472E-13  4.27433636E-02
  8.19347016E-13 -2.42306472E-16 -1.77233017E-13 -2.49750376E-14  1.62642146E+01
  1.93218198E-14  1.04707160E-15 -1.40776031E-14 -2.07250972E-16 -7.41724890E-15
 -1.29926038E-15 -1.65161262E-15  2.05041806E+01 -2.58024880E-15 -7.82765007E-17
 -4.23634947E-06  1.71221044E-16  1.50140109E-16  7.92244055E-16  8.66873904E-02
  1.38020229E-15 -6.43431993E-03  1.51857965E-02 -7.92950582E-14 -4.87819625E-14
  1.91260584E-16  6.46957711E-15  1.54499031E-13 -1.24953775E+01  4.49806331E-17
 -1.66112540E-15 -7.52292811E-15  1.54667546E-16  2.66490327E-17 -1.06570075E-16
  2.46371090E-15  5.19769871E-15 -1.30545906E-16 -2.96487461E-05  2.30910100E-02
  6.59524747E-17 -4.08033729E-16  6.69846159E-16 -3.64422505E-16  2.26448357E-01
  2.70989610E-15  1.03500629E-01 -1.98111364E-14 -2.90897625E-02 -1.14591594E-13
  5.73988210E-15  1.46683419E-13 -1.86612277E-16 -5.29773071E-17 -8.63480064E-16
 -4.36936031E-15  7.17147240E-17 -7.08489989E-01 -5.84266055E-18 -7.26690295E-15
  1.08533983E+00  7.19704580E-14  1.00575669E-01  4.34051860E-16  8.70517215E-15
  3.00575439E-16 -3.09170085E-16  3.88825833E-16 -2.50232246E-16 -3.81490730E-16
  7.23485796E-17 -5.03426445E-17 -1.48056692E-15 -5.08919866E-17  7.78724053E-17
 -5.78576163E-15 -3.32978424E-15  5.76586064E-18  3.72129468E-17 -1.51891103E-13
  8.24695423E-14  9.15757253E-01  1.32109431E-14  1.54009291E-01 -5.50289804E-01
 -1.09788626E-14 -4.34257940E-14 -2.19777597E-12  1.10204082E-14 -1.50765671E-16
  6.19405810E-16  2.96036582E-15 -1.47593779E-16 -1.08082469E-15 -7.46413325E-15
 -6.46124146E-16 -4.48699594E-16 -1.03203204E-15 -3.49149203E-05 -3.19912942E-02
 -6.19568553E-15 -4.21136490E-05 -1.25182632E-14  9.15761375E-01 -6.42310751E-15
 -3.16794409E+00 -4.49848880E-15  8.38510797E-05 -7.86742954E-17  2.60705128E-01
  1.27529414E+00  4.97891304E-16  5.70807911E-04 -5.83048289E-01 -1.20266568E-15
 -1.06291666E-04  4.85796594E-14  1.29214617E-14  2.65681255E-14 -6.31220420E-02
  1.31314051E-14  6.01985632E-15  1.51937257E-14  8.40688554E-13  5.53427155E-06
 -6.57077567E-02 -5.18539854E-15  2.34630785E-16  5.53427149E-06  1.30547869E-14
  5.73801986E-17  3.14727918E-16  1.71221044E-16 -2.00159597E-01 -4.67746634E-16
 -1.04271220E+01  8.38510797E-05  6.75617213E-16  7.15797133E-15  3.33821473E-16
 -5.95386808E-13  2.46371090E-15 -3.97047923E+01 -9.09412667E-13 -9.45449825E-15
  5.98880777E-13 -5.17824466E-15  4.75189858E-15 -1.83341061E-14  2.04639388E-14
  2.96036582E-15  3.78894646E-16 -6.10857975E-02  1.08548841E-13 -3.80049270E-15
 -1.16486114E-14 -1.44726685E-15  7.05187853E-14 -1.62805705E-15 -1.73760305E+00
  1.50627694E-16  8.23378716E-01  8.80340235E-17  1.46683419E-13  2.45536971E-15
 -4.89373513E-15  1.81634996E-15  5.48212913E-15  1.26612601E-14  1.54009291E-01
 -1.54039454E-01  3.10752377E-15  1.73773472E-13 -4.90971760E-15  1.15851788E-15
  1.76495346E-13  1.47000747E-01 -1.52203808E-01  6.70751426E-17  9.53096674E-15
  4.33686141E-15  6.89829498E-14  2.13783771E+00 -1.56323535E-15  1.38720917E-15
 -1.45909845E-01  4.69774003E-15 -7.06218581E-14  6.15908084E-17  4.60574934E-14
  2.62942285E-14  6.03871764E-16  1.35147175E-15  7.10423728E-16 -4.81111601E-15
 -1.41713711E-15  8.66979009E-16  5.41059782E-18 -2.23260158E-01  4.44740929E-16
 -6.16705494E-06  4.59642467E-17  5.53908947E-15  9.54677120E-16  2.26456058E-16
 -7.44948583E-16 -6.89901842E-01 -2.18772622E-16 -1.64945508E-14  4.72172571E-13
  5.52653536E-02  1.14116245E-15 -1.54808730E-16 -3.19987477E+00 -3.01377540E-13
  3.26229944E-13 -2.53642407E-16  2.59692505E-15  8.45501822E-17 -6.12934470E-03
 -2.41753352E-16 -8.64046522E-16  1.01122636E-13  8.74712661E-02 -9.50206330E-16
 -2.80104245E-02 -2.80328147E-16  8.66781337E-02  1.78443772E-14  1.28329714E-14
  8.74765148E-02 -2.96166780E-15 -5.52607632E-02  6.89829498E-14 -7.53623167E-02
 -5.76824916E-15 -6.73754607E-14 -4.13062020E-01  5.51271222E-13  3.51821873E-15
 -6.12713980E-16  2.40641384E-14 -1.51515304E-15 -1.81591690E-14 -2.83400157E-15
 -1.63276021E-16  1.10233994E-13  6.75617213E-16  7.05355761E-15 -3.26906035E-15
 -1.63276021E-16  4.41777474E-15  8.27965642E-15  1.52775288E-15  5.46892217E-16
  2.45412370E-01  3.58322997E-14  8.74712661E-02 -4.23634947E-06 -1.35084974E-01
  2.69164575E-16  2.14131226E-16  3.49529046E-15 -7.27727800E-16  1.78717724E+00
  6.78088306E-15  1.03408932E+01  2.10692947E-16 -3.29799884E-16 -2.00159597E-01
 -1.95051416E-16  1.70085891E-16 -6.29796638E-17 -3.04654891E-17  6.78467908E-03
 -3.35162533E-16 -1.76797917E-15  2.45361091E-01 -2.50232246E-16 -1.03348138E+00
 -1.32271187E-15  2.45979916E-17  1.68527727E-14 -1.54039454E-01 -2.45817714E-14
 -9.76463287E-15 -2.40968241E-01  9.01503701E-01  1.09177928E-15 -8.10982788E-01
 -3.82316416E-14  2.69164575E-16  1.53873878E-15 -6.05994329E-16  4.98071854E-17
  1.27151926E-01 -2.27075329E-16 -1.30181857E-01 -8.15683235E-16 -5.09350493E-15
  1.57758203E-01 -1.93081394E-15  1.11838453E-01  4.92621540E-17 -2.00159597E-01
  4.05914179E-01  1.82394217E-15 -7.96694892E-15  7.04382341E-15  2.84154200E-14
 -4.50754488E-15  7.60706261E-02  3.15980975E-15  4.25628533E-16  8.66964413E-17
 -1.06807157E-15  9.73265998E-14  9.18322306E-16  9.41815009E-16  1.27151926E-01
 -2.39443789E-02 -2.14710045E-15  2.79371634E-16  1.00575669E-01 -7.85126707E-02
 -2.88098681E-16  1.08905585E-01 -6.52111396E-18  1.93218198E-14 -1.17204761E-16
 -1.02942361E-01 -1.18329248E-15  5.21710134E-01  1.90478894E+01  9.37881190E-16
  1.58243259E-16 -2.38654120E-01  1.20741932E-01  2.89969059E-01 -2.46553166E-01
 -1.62787321E-15  7.37422465E+00 -2.41753352E-16  5.63369819E-01  9.10271901E+01
 -1.01649602E+00 -7.99525173E-14  4.06725845E-15 -9.66641376E-18 -1.56751883E-15
  9.15757253E-01  5.09922036E-17  4.85796594E-14  2.58451484E-01 -1.98902640E-15
  9.41781960E-01 -5.46569529E-16 -1.29427561E-01  3.78894646E-16  3.12865786E-16
 -1.03497605E+00 -6.16437546E-14  4.77090922E-15  9.41781960E-01 -5.10960075E+00
  1.49917811E-16 -1.65726501E-14 -3.19729907E+00  1.69185372E-03 -1.47284039E-16
  1.76846252E-16  2.22943096E-01 -2.17405798E-15  8.17649955E-14 -8.05590273E-17
  1.87839359E-15 -1.30726870E-14  2.16614261E-17 -3.11222213E-15  3.65582227E-17
  1.59728992E+00 -3.69445504E-02 -1.10177477E-16  3.77569529E-16  8.27993899E-02
  1.58219856E+00 -2.93163683E-14  7.82784434E-02  1.35130727E-01  1.88433276E+01
  1.17606047E-15  1.15442372E-14 -7.02431196E-13  3.45111204E-14 -1.82892908E-17
  3.88534737E-14 -4.20132859E-16  2.37290951E-15 -2.04600212E+00  4.48383970E-17
 -1.92643990E-15  1.30112707E-14  1.39529502E+00 -5.26519870E-02 -5.47066483E-15
  7.34415829E-03 -6.83540221E-16 -2.30575727E-02  1.51376595E-14 -1.81474241E-14
  1.90374535E-15 -2.84478770E-13 -8.64067397E-02 -1.47072387E-01 -8.14756392E+00
 -5.18483887E-14  3.55158656E+00  1.05689369E-15  1.00575669E-01  4.61912720E-15
 -1.17718100E-15  3.26767777E-13  2.95085108E-16 -3.04654891E-17 -1.89616997E-01
  1.44463910E-01 -7.19514523E-15 -8.63805017E-02  1.98265397E-01 -6.21102195E-02
 -3.60619046E-17  5.17014096E-15  1.83087902E-15  5.11012426E-02  2.03273248E-14
  3.58322997E-14 -1.58627642E-16  7.50455312E-13 -3.93245904E-14 -1.88479752E-15
  3.76959332E+00  6.61089081E-14  3.67465472E-15  2.53214641E-16 -1.02942361E-01
 -1.96563352E-16 -1.04672360E-15 -1.75728621E-13  1.49901574E-15  6.49342244E-15
  2.20443684E-17 -2.18772622E-16  2.67452487E-14 -3.98518711E-17 -3.35329571E-01
 -6.81282659E-16  1.01739007E-16  2.46318157E-14 -1.18137096E-14  7.58198950E-17
 -3.82316416E-14 -2.43575976E-16  6.59524747E-17 -2.72589002E-14  6.64286229E-14
 -7.82282027E-17  8.29701731E-16  3.69023175E-16  1.08872931E+00 -5.73804403E-17
 -1.33502121E-14 -1.30335782E-15  1.92234833E-15  1.24595236E-14  1.70793178E-02
 -1.29402584E-15  1.52330721E-17  2.14728643E-15 -5.85509188E-17  1.84474222E-16
  2.84154200E-14  1.10233994E-13 -1.19521736E-13 -4.36936031E-15  1.15956687E-01
  1.88659509E-15 -1.24860798E+00 -2.42763738E-16  3.47872031E+00  3.23908015E-15
  2.26524312E-01  5.16005728E-16  1.27162580E-01 -3.33334921E-17  2.37336104E-14
  1.20741932E-01  4.98071854E-17  1.16949519E-15 -1.04882400E-16 -1.12506171E-15
 -9.95432414E-16 -1.23804471E-14  3.41191198E-17 -1.91153830E-14 -1.23118412E-14
 -1.18054432E-15  1.44463910E-01 -3.57322632E-03  2.09299841E-02  2.32605094E-14
 -7.70012238E-15 -6.56829137E-02  1.93187626E-14 -6.31220420E-02 -2.88403965E-14
 -3.33456539E-15 -1.74560393E-16  2.23241593E-01 -2.28214740E-15  6.62937665E-01
  1.04649039E-15 -2.91216381E-16  1.55286596E-13  8.32766442E-15  1.66910581E+00
  2.35755241E-16  2.65145960E-15 -8.40524569E-15  1.14550874E-13  1.40220688E-12
  3.92380856E-02 -1.79302641E-02  7.45007131E-14  3.56084180E-01 -1.82310282E-03
 -1.54993854E-17  1.12894079E-14 -1.19868415E-14  8.66781337E-02 -6.31608461E-16
 -5.27210251E-02 -1.17747645E-14  1.58219856E+00 -3.21122296E+00  3.67726270E-15
 -6.43431993E-03  9.44094450E-15 -3.10666622E-16  4.73688436E-15  5.63369819E-01
  8.49381201E+01 -3.69301266E-02 -7.02069047E-15  1.26595596E-16  1.15851788E-15
  6.98908886E-01 -3.57322632E-03 -5.23491629E-15  3.30416862E-15 -6.98108318E-17
  9.30074535E-15  1.88659509E-15  3.48258649E-15  3.57448435E-15  8.04490741E-17
  3.10247609E-15 -2.17599605E-01 -9.99583697E-16 -6.72405958E-14 -1.85063193E-01
  2.25761380E-15  1.16766259E-17 -1.74515867E-16 -1.92937608E-14  1.34684143E-16
 -3.44727502E-15 -3.09170085E-16  5.16005728E-16  1.36178904E-13 -1.70641749E-13
  2.78935875E-16 -1.29244628E-14  1.96120442E-16 -4.32331311E-15  1.84197973E-16
  1.35147175E-15  3.46838251E-16  1.88226044E-13  5.36353562E-13  3.18069570E-14
 -6.15428021E-13  7.88672632E-14 -2.61305685E-15 -1.34344445E-15 -5.59582799E-16
 -2.80086054E-14 -6.05122254E-15 -4.11469629E-01 -2.79194129E-15 -4.29554726E-15
  3.28467443E-21  1.83605789E-01  1.88226044E-13  5.08829300E-15 -6.57077567E-02
 -1.03413411E-14 -1.06605510E-14 -1.20104897E-02 -4.38267346E-16  1.30296912E-01
 -8.17645892E-01  6.42268133E-15  7.05355761E-15 -2.39443789E-02 -1.08385100E-13
 -2.14151105E-13 -6.60017276E-15  3.31596228E-15  2.99496968E-17 -2.23260158E-01
 -1.13531689E-14 -1.56334837E-16  6.38582827E-17  5.02096372E-02 -4.94554489E-02
 -6.76657329E-15 -2.23335289E-13  1.29435097E+00 -8.40524569E-15  7.82784434E-02
  6.15928281E-01  1.51571539E-16 -9.45449825E-15 -7.97712735E-15  8.74765148E-02
 -1.12084701E-13 -2.84898789E-17 -6.07721855E-16 -2.69567350E-15 -2.37050962E-01
  2.05917216E-15 -3.33840660E-15  8.45185951E-16  1.54667546E-16 -1.68962672E-15
  2.90277736E-15 -1.85063193E-01 -2.45837630E-15 -3.13114981E-15  1.26595596E-16
  1.21106724E-13 -1.56133556E-16 -4.11473432E-01  2.51480693E-17 -9.13170569E-15
 -2.04600212E+00  1.68527727E-14 -1.22866522E-16 -2.09788660E-15 -3.54176046E-15
  7.88672632E-14 -1.38345245E-13 -1.16255804E-13 -4.71345677E-01  3.06107739E-15
 -1.03348138E+00  9.18322306E-16 -4.97206113E-16  4.02559670E-14 -3.78713093E-16
  5.69167546E-02  2.32304404E-15 -3.61516836E-01  1.10779678E-13 -1.26611795E-16
  3.48558880E-05  8.66964413E-17  8.04490741E-17 -1.20578207E-03  5.98147170E-15
  1.68284360E-13  1.16399005E-17  4.45622344E-02  1.01003857E-14 -1.59693844E-14
  2.42755813E-15  8.65243027E-17 -7.88469673E-16 -1.29926038E-15  4.45622344E-02
 -1.20266568E-15  2.17871902E+00  8.07023571E-13  4.41777474E-15 -8.01208629E-16
  1.28726426E-01  1.91032768E+00  2.60705128E-01 -5.69036006E-17 -1.68871389E+00
 -1.67863646E-16 -1.87063419E-15 -3.94628657E-01 -4.94587641E-02 -7.91648860E-14
  1.06231815E+00  4.26439763E-17 -1.14978413E-14  1.14658790E-16 -1.65009705E+00
  7.88679486E-16  9.54363440E-02  6.00418757E-03  1.28452814E+00  1.19252563E-01
  7.61064205E-15  1.82394217E-15 -3.74444092E-15  1.27162580E-01  2.25761380E-15
 -1.19521736E-13 -5.94093811E-14 -1.83726630E-01  4.05195313E-16  2.44932098E-14
 -1.09384149E-13  1.36829273E-16  1.64235959E-14 -2.43375012E-16 -1.61880005E-17
 -1.75413924E-17 -2.22776733E-16  6.44818368E-15  9.26564172E-02 -1.17554167E-16
 -1.12883209E-15  8.93930967E-16 -6.23952316E-15  5.08597417E-14 -1.12084701E-13
 -1.39928262E-15 -8.18580946E-17  1.06214835E+00 -3.72917082E-14 -2.65642209E-15
  3.35216513E-17 -5.83056753E-16 -2.66240783E-16  1.03500629E-01  7.36895914E-14
 -1.48235248E-15 -3.89417498E-17 -1.48834754E-14  8.02778804E-01  3.29300224E-14
  8.18174319E-16  5.92359369E-17  3.26229944E-13  1.18478385E-14 -1.66904456E+00
 -1.01483131E+00  8.80618102E-17 -2.15109224E-15 -2.80328147E-16  4.73126348E-14
 -2.93163683E-14 -2.53333395E-16 -4.22137371E-15  7.41685936E-15  4.12836413E-01
 -1.42897715E-13  1.18952414E-16 -7.50284311E-14 -8.32363102E-13 -4.19017209E-14
  2.77044630E-15  1.09376354E+00  2.59420767E-15  3.47905162E+00  5.63007093E-14
 -6.72739039E-01  1.75121890E+00 -8.14748889E+00  3.33294412E-16 -7.26434156E-14
  1.53177028E-15  5.63487830E-01 -3.19729907E+00 -1.59086484E-15  2.25234513E-14
  9.68857267E-17  1.54094883E-14  4.04158655E-02 -2.91812046E-17  7.14242576E-16
  9.04934489E-14 -3.16794409E+00  3.15566832E-14  5.80118785E-14 -6.72739039E-01
  1.59428074E-15  3.25835553E-16  2.82841210E-15 -3.92072957E-15 -1.92583971E+00
 -2.53333395E-16 -7.05896573E-01 -2.26425868E-14 -6.29202268E-16  4.81932599E-16
 -2.48215144E-16  5.34809944E-18  1.67845495E-16  3.10556550E-01  5.26715077E-18
  1.97873936E+00 -5.60385572E-16 -7.93256305E-15 -1.29664497E-15 -5.85509188E-17
  2.28590002E+01 -9.56209855E-17 -3.19765749E+00  2.25316521E-16 -6.93198246E-16
 -8.68213614E-16 -1.04295661E+01 -1.01650311E+00 -4.89452008E-01  1.22857324E-15
  1.55187356E-16  1.80900681E-01 -3.22446693E-16  6.85462287E-16  5.21710134E-01
  1.22902449E-01 -1.06812475E-16  7.28213334E-15  6.62937665E-01 -1.21413463E-14
  5.03826963E-15  1.94165030E-16  3.89969053E-15 -1.65037472E+00 -4.62958096E-15
  2.50795413E-14  1.08872931E+00 -1.80953035E-15 -1.29225095E-13 -2.03119188E-13
  1.01483401E-13 -2.93229779E-15 -2.41568558E-02  9.69336284E-15  1.54940467E+00
  7.08005419E-16  8.66781337E-02  7.78837223E-17 -4.09484997E-16 -1.26387384E-12
  1.57915917E-01 -5.75141489E-14  2.42745887E-13  8.46958846E+00 -6.70363400E-02
 -1.93081394E-15 -2.78776377E-15 -4.62186932E-15 -8.01877742E-15  1.02938263E-01
  1.14116245E-15  2.18136085E-01 -5.60628666E-01 -9.52914020E-15 -4.93871258E-16
  7.88679486E-16 -1.57849316E-16 -3.00315636E+00 -4.90971760E-15 -6.57077567E-02
  5.34809944E-18 -2.60945173E-15 -3.97047923E+01 -2.15886400E-14  1.08897987E-01
  4.69774003E-15  1.26473282E-15 -7.38465365E-14 -2.39937308E-14 -3.96899644E-01
 -7.10151235E-14  3.61567302E-01  5.28555184E-14 -2.15109224E-15  3.17527069E-16
 -2.14151105E-13  1.52026598E+00  4.83159849E-14  9.25194114E-16 -5.41525707E-17
 -4.73195433E-14 -4.11469629E-01 -5.28671217E-16  2.03273248E-14  1.76247022E-15
  1.93214184E-15 -1.68683344E-14 -1.39086330E-14  9.25194114E-16 -2.02782704E-16
 -6.43573875E-15  1.93214184E-15 -7.50630861E-14 -5.97681433E+00  2.89853874E-16
 -1.83876277E-15  7.43150564E-17  2.99244961E-02 -9.17568567E-15 -1.16255804E-13
 -2.91216381E-16  2.38099821E-02 -3.34443477E-14 -1.21805237E-15  1.62640011E-13
 -3.16794409E+00  3.26767777E-13 -1.15606260E-14  3.26844597E-14  4.93657272E-15
 -1.17747645E-14 -1.28159259E-16  1.15326458E-14 -1.30181857E-01 -4.66468794E-16
 -2.07867076E-16 -8.64046522E-16  8.67504449E-16 -1.26641560E-15  1.30296912E-01
  1.26894264E-14  6.99209267E-01  1.28452814E+00  4.35594703E-15  4.68519125E-16
 -7.26509803E-15  2.92183376E-14 -1.02421486E-14  1.13853933E-14  8.51212341E-15
 -3.81925897E-16 -5.63685724E-15 -5.92498160E-16  2.76072734E-13  2.25316521E-16
  9.77443895E-16  4.30508848E-17  2.48702423E-06  1.59896124E-14 -8.94680790E-15
 -1.02441870E-01  3.88276712E-15 -7.43680056E-17  7.79430452E-16  9.51426847E-02
  4.92275670E-15 -1.98902640E-15 -5.53196008E-16  2.69497388E-15 -6.83540221E-16
  8.10865506E-16 -8.94680790E-15 -1.58761124E-16  1.04707160E-15  1.18699457E-13
  7.02973648E-15 -1.65726501E-14  4.92738248E-18 -1.88118463E-17  2.22507892E-15
 -1.34344445E-15  4.59615459E-16 -2.59886709E-01  1.19252563E-01  1.75612680E-15
 -8.05590273E-17 -4.58256372E-16 -3.07097569E-02 -7.38270595E-15 -4.15008344E-15
  1.52026598E+00 -4.11166021E-15  1.99489099E-16  1.88090612E-15 -5.31889396E-01
  4.57565111E-15  2.21567515E-15 -1.38483520E-15  8.89923968E-16  6.35299864E-17
 -9.37350607E-15  6.46696845E-17  8.23378716E-01  1.48293570E-16 -8.51145751E-16
  1.60382974E-15  2.77694195E-17 -1.08082469E-15  2.82841210E-15  1.31116727E-15
 -4.26475259E-16  4.34482181E-15  1.59563153E+00  1.15956687E-01  2.14728643E-15
 -1.03330418E+00  1.62299601E+01  7.11738314E-14  3.29300224E-14  9.41815009E-16
  4.29305628E-16 -2.39019304E-15 -2.59886709E-01 -7.53623167E-02  6.00418757E-03
 -6.47421448E-16  6.15908084E-17 -1.50765671E-16 -3.96436091E-14 -9.11846014E-17
 -7.24492235E-16  5.66668391E-17  7.14242576E-16  2.57923182E-02  2.02663600E-14
  1.18548560E-15 -2.53511485E-15 -2.24013095E-15 -9.72162235E-16 -3.12712202E-01
  5.98880777E-13  7.69719454E-14  1.98060217E-14  3.53086580E+00  2.29775870E-13
 -5.54943060E-15  2.22507892E-15  4.02559670E-14 -4.78265883E-01 -1.76797917E-15
 -3.16782840E+00  9.93016784E-15 -1.11431954E-12  6.15751244E-14 -6.57077567E-02
 -1.09967311E-13  2.43299583E-13 -4.82463678E-14 -6.42310751E-15 -1.81591690E-14
 -4.11166021E-15 -4.45549501E-02 -1.31622976E-15 -6.06340852E-14  4.97798297E-01
  2.32605094E-14 -9.99337953E-01  5.11740145E-02  9.48297499E+00 -6.15428021E-13
 -3.52601155E-14 -5.89769421E-16 -1.42962960E-14 -3.15816454E-15 -4.95018395E-15
 -1.01483131E+00  2.02475317E-16 -6.93764340E-15  1.19577442E-13  2.19868376E-14
 -3.13920490E-13 -1.02441870E-01  1.04227713E-14  1.58822378E-16  7.95329547E-16
 -1.04295661E+01  5.97555669E+00  2.92562278E-15  2.17845870E-16  2.04600329E+00
  5.25200135E+00  2.48558294E+00 -3.48914847E-14 -2.24193910E-15  2.36286509E-14
 -1.09384149E-13  2.60705128E-01  5.52835466E-17  4.05195313E-16  1.76846252E-16
  1.39832702E+00  8.17622392E-01 -2.06839187E-16 -2.65914973E-15 -1.24041137E+00
  2.02663600E-14  2.27524876E-14  2.60995283E-01 -1.27576221E-15  1.03500629E-01
 -1.49895418E-13 -1.03330418E+00  2.62444555E-14 -6.41192899E-14 -1.88479752E-15
  1.97195937E-13 -1.66157928E-15 -1.32263282E-15 -4.42156546E-15 -5.78513611E-15
 -4.28980405E-14  2.31644575E-16  2.88307869E-15  1.01619488E-15  8.93930967E-16
 -2.33418187E-16  9.54363440E-02 -1.30020490E-16 -5.51442740E-15 -3.14812060E-16
 -4.15878439E-15 -2.00159597E-01 -1.34835103E-15  1.73441831E-14 -3.19790402E-05
 -1.83341061E-14 -1.59174346E-15  2.28826259E-16  2.35755241E-16 -6.25229065E-05
 -2.23118905E-15 -3.56286614E-16  2.48188349E-16 -5.35706864E-13  9.22742080E-15
  3.93412059E-17  5.66668391E-17 -4.74342226E-15 -7.85252083E-02 -1.92937608E-14
  4.06888264E-15  2.15065519E-15  2.70030650E-15  9.51344090E-02  1.51937257E-14
  8.27993899E-02 -1.37517751E-15  9.25004917E-01  6.77884025E-16  1.38155716E-18
  5.31824602E-01 -2.92348029E-01 -1.79302641E-02  1.87756233E-15 -3.66000917E-15
 -1.29209975E-13 -1.79205037E-02 -6.73754607E-14  1.70859388E-02 -4.29024448E-16
 -6.89901842E-01  5.88872466E-13 -3.99049390E-14  2.48702423E-06 -6.88035700E-17
  9.10271901E+01  9.06478653E-05 -6.12576966E-15  7.58173911E-15 -7.86742954E-17
 -1.53656695E+00 -4.45549501E-02  9.54875503E-16  7.88141582E-16  2.50844576E-16
  9.07070061E-02 -8.01208629E-16  1.02410073E-01 -1.49895418E-13 -1.02441870E-01
  1.01003857E-14 -9.92269214E+00  3.50122024E-15  9.54363440E-02 -3.03868351E-13
  5.38658703E-14 -1.68871389E+00  1.49917811E-16 -3.16782840E+00  7.35553062E+01
  4.21586063E-13 -4.39591543E-14 -8.18580946E-17  1.44158521E-14  2.58707991E-16
 -1.98451006E-02  1.80900681E-01  4.28992989E-01  3.53086580E+00  8.74765148E-02
  2.66352004E-16  2.25234513E-14  6.35299864E-17 -9.54318020E-02 -5.25912411E-14
  6.22106114E-16 -1.49954956E-05  5.70807911E-04 -2.16729625E-15  4.12836413E-01
  1.73750266E+00 -3.42919481E-02  1.73441831E-14 -2.58088583E-02  5.18396112E-03
 -1.74291995E-16 -4.89373513E-15 -2.20964805E-15  3.22498507E-16  1.83861021E-16
  9.63888970E-01  2.34630785E-16  2.76131342E-15  1.90374535E-15 -2.62839913E-05
  8.58501568E-17  1.16399005E-17  1.13853933E-14 -9.54318020E-02  9.88012372E-17
  5.17275714E-03 -3.54925362E-16 -6.72739039E-01  4.45576096E-16 -2.65188096E-03
  8.02778804E-01  1.06214835E+00  2.41969457E-14  3.52094127E-15 -6.76705562E-17
  1.01931220E-14 -1.60005866E-16  5.78468447E-16 -2.87889479E-15 -2.59886709E-01
  1.79083741E-15  4.62475439E-16 -1.06291666E-04 -2.97197158E-16 -1.82310282E-03
 -3.51569294E-02 -1.79205037E-02  1.77277977E+00  9.11425970E-18 -1.54993854E-17
 -7.02431196E-13 -8.12300656E-16 -1.04366243E-14 -3.68670234E-13 -6.30143613E-15
  1.17155556E+00 -3.19867875E-02 -2.16029019E-16 -2.03638632E-15 -3.92072957E-15
 -5.40059739E-16 -5.30988365E-18 -7.53623167E-02 -1.84773927E-14 -6.60017276E-15
 -2.90509956E-13  2.37290951E-15 -1.75728621E-13  7.82744225E-02  9.00076525E-17
 -6.36480399E-16 -2.05982884E-17  1.49591185E-16 -1.84309173E-15 -5.99619633E-17
  9.14219275E-02  8.30726182E-15 -2.38051686E-02  7.47220958E-18  9.07070061E-02
 -4.00371817E-17  1.23194496E-15 -1.38099296E-02 -9.61861475E-15 -4.52495906E-15
  4.73688436E-15 -5.35706864E-13  1.49530567E-14 -3.19987477E+00  1.05021873E-13
 -9.00835128E-15 -2.65642209E-15  4.51917918E-15  1.27529414E+00 -1.28661462E-16
  3.45360447E-16  7.81194883E-16  2.62024270E-15  6.78373548E-03  1.19270355E-01
 -1.06812475E-16  1.27771152E-17  9.14132367E-02  2.11049156E-15 -6.01700407E-16
 -1.39497480E-14 -6.05615771E-14  1.15974820E-01  6.57805784E-14  7.82784434E-02
  5.40976891E-14 -6.41192899E-14 -1.04207762E-14  7.26506796E+00  1.24643568E-13
 -6.72665264E-01 -1.04882400E-16  3.18957087E-02  2.21567515E-15  3.90964504E-17
  1.43452887E+00 -4.22814871E-15 -2.23197993E-01  8.70684618E-14  1.39158157E-15
  2.26456058E-16 -2.93956880E-15  3.02730592E-16 -2.84585358E-15  3.17958307E-16
  1.02496024E-13  5.31824602E-01 -7.10151235E-14 -7.70624080E-17 -1.20578207E-03
 -3.00399126E-16  7.15797133E-15  4.68767526E-17  1.57758203E-01  1.00950062E-14
  9.48297499E+00 -1.19586815E-01 -4.19017209E-14  5.31387433E-14  1.62959893E-13
 -9.87178858E-01  2.42745887E-13 -3.38748087E-14 -6.67137695E-15  3.50122024E-15
  1.42630816E-14  8.05601462E-13  6.54311028E+00 -1.26387384E-12 -1.39497480E-14
  7.82744225E-02  5.83554883E-14 -4.70071605E-15  1.23992238E-14 -3.42485350E-16
  8.89923968E-16  3.09777871E-17 -1.12488347E-13 -1.84773927E-14 -9.92302757E+00
 -2.03241068E-14  7.02973648E-15  1.60852231E+00  2.07876563E-14  2.03294094E-14
  1.24916675E+01  1.01481549E+00 -1.01483131E+00 -6.91926232E-15  1.17167951E-16
  1.45334023E-12  2.40737576E-14 -1.42413850E-14 -1.17623335E-15  1.60335099E-14
 -1.12488347E-13 -3.44018428E-17 -2.23140225E-14 -1.12883209E-15 -4.39591543E-14
  2.23350538E-01  1.97195937E-13 -5.09350493E-15  4.90098457E-16  4.41914170E-15
  6.30883790E-02 -2.65903963E-15 -8.14756392E+00  3.00336375E+00  2.28125104E-13
  1.55286596E-13  1.26229965E-15  5.28329486E-18  9.25004917E-01 -2.98573390E-15
 -2.78408172E-13  2.46318157E-14  4.69486488E-15 -1.24944346E-14  7.66363881E-16
 -3.19912942E-02 -3.77458496E-16 -9.73207673E-01  4.57565111E-15 -3.06634357E-16
  6.50159752E-13 -7.46360689E-15  3.51535964E-02  1.58822378E-16  7.45007131E-14
 -2.03241068E-14  1.87747951E-15 -2.44911478E-16  3.53254968E+00 -1.54455082E-15
 -4.15878439E-15  1.62942301E-14  7.66558861E-15 -8.67773700E-14 -1.13244074E-15
 -4.10518673E-15 -7.60713886E-02 -8.68213614E-16 -3.61516836E-01 -1.84123080E-15
  2.65681255E-14  9.81456605E-17 -6.03284339E-16  1.12134582E-16  4.98884205E-17
 -5.83048289E-01  1.08533983E+00 -2.55401280E-15  4.04806533E-15  3.35855956E-14
 -3.19790402E-05 -9.99583697E-16  2.60976878E-17 -9.62736994E-16  7.71660132E-16
 -1.42038343E-15 -9.73207673E-01  3.29963453E-02  2.56519910E-13 -1.88424515E+01
 -4.40120828E-14  4.31941919E-15  2.41605921E-02  1.28440732E-15 -1.01483131E+00
  1.01619488E-15 -1.30181857E-01  5.99173205E-02  3.32880125E-16  9.63888970E-01
  1.83087902E-15  5.08829300E-15  1.17544807E-13 -6.25229065E-05 -6.89901842E-01
  2.89969059E-01 -6.31666328E-07 -2.49797427E-16 -1.98451006E-02  7.55922851E-01
 -8.49180184E-16 -3.16331236E-16  1.23275029E-16 -2.64751871E-14  1.42179512E-15
  2.09326413E-04  8.80340235E-17 -1.79302641E-02  1.60851057E+00  4.34482181E-15
 -1.02032882E-16 -4.05401068E-14  7.52590435E-16  4.02087498E-13  2.50844576E-16
 -1.51893226E-02 -1.36461078E-06 -3.71163330E-14 -1.29664497E-15  2.69497388E-15
  1.01481549E+00  4.30261886E-16  1.11838453E-01  1.16329831E+00 -2.77945293E-01
  3.09342350E-13 -2.68559081E-16 -5.68292573E-16  1.19530571E-01 -3.11818124E-18
 -3.48914847E-14 -1.32217096E+00 -5.68292573E-16 -1.47284039E-16 -7.53971597E-13
 -1.68840953E+00  7.97749349E-15  6.85462287E-16 -9.05711815E-16 -1.11431954E-12
 -1.20895803E-13  1.62646318E+01  4.20012980E-16 -1.00578879E-01  6.65554374E-15
  3.46010446E-15 -1.55687227E-02 -1.72717168E-01  6.00733178E-15  1.11623731E-15
  5.22963220E-17 -2.78466523E-14  2.52043052E-16 -3.60396408E-15 -1.24086582E-16
 -7.91648860E-14 -1.00527949E-15  4.58575578E-14  5.39685069E-14  1.01931220E-14
 -4.10518673E-15  1.91412147E-14  4.83159849E-14 -9.10207357E+01  4.27722846E-02
  4.75395274E-17  4.34279861E-15 -1.29427561E-01 -8.27288900E-15  5.37362188E-15
 -6.88035700E-17  1.63411390E-15 -6.29202268E-16 -1.67863646E-16  6.09797226E-17
  3.10391394E-15 -3.06634357E-16 -4.09484997E-16  6.78373548E-03  5.88543272E-17
  1.08564995E-15  4.28992989E-01 -3.94721916E-14 -6.12209813E-17 -5.50289804E-01
 -1.22207454E-15  2.19170604E-16 -2.86311557E-16  1.97685501E-16 -1.20069323E-02
  3.92371613E-02  9.59331108E-16  4.84289382E-15 -3.51503134E-16  7.88141582E-16
  3.01642536E-16 -1.02032882E-16 -2.59886709E-01 -1.46474858E-15 -6.52111396E-18
  1.15442372E-14 -7.70947813E-16  4.59642467E-17  1.82734210E-03 -2.55808563E-16
 -8.32731728E-14  7.62803235E-15 -5.28671217E-16 -1.57889134E-01  2.26524312E-01
  3.77569529E-16  8.66873904E-02  6.63577435E-02  3.12906849E+01 -6.33067062E-17
  1.18699457E-13  6.62257975E-16  8.67504449E-16 -1.64336317E-16  2.07116727E-16
  2.50214828E-16  3.64701081E-15 -9.66641376E-18  2.64483220E-17 -6.76808972E-16
 -4.70071605E-15  2.62001321E-16  5.18396112E-03  2.05917216E-15  1.02410073E-01
  1.03492733E-01 -7.52292811E-15 -1.65161262E-15 -4.78231522E-01  1.00452431E-13
Overlap Matrix                             R   N=        2415
  1.00000000E+00  7.06285045E-01  1.00000000E+00  3.73527845E-01  7.88878095E-01
  1.00000000E+00  1.42678975E-01  3.71544888E-01  7.10291289E-01  1.00000000E+00
  0.00000000E+00  0.00000000E+00  0.00000000E+00  0.00000000E+00  1.00000000E+00
  0.00000000E+00  0.00000000E+00  0.00000000E+00  0.00000000E+00  0.00000000E+00
  1.00000000E+00 -5.17399523E-16  0.00000000E+00  0.00000000E+00  0.00000000E+00
  0.00000000E+00  0.00000000E+00  1.00000000E+00  0.00000000E+00  0.00000000E+00
  0.00000000E+00  0.00000000E+00  6.14923564E-01  0.00000000E+00  0.00000000E+00
  1.00000000E+00  0.00000000E+00  0.00000000E+00  0.00000000E+00  0.00000000E+00
  0.00000000E+00  6.14923564E-01  0.00000000E+00  0.00000000E+00  1.00000000E+00
 -2.00271329E-17  0.00000000E+00  0.00000000E+00 -9.17370614E-17  0.00000000E+00
  0.00000000E+00  6.14923564E-01  0.00000000E+00  0.00000000E+00  1.00000000E+00
  0.00000000E+00  0.00000000E+00  0.00000000E+00  0.00000000E+00  1.78636305E-01
  0.00000000E+00  0.00000000E+00  5.94120668E-01  0.00000000E+00  0.00000000E+00
  1.00000000E+00  0.00000000E+00  0.00000000E+00  0.00000000E+00  0.00000000E+00
  0.00000000E+00  1.78636305E-01  0.00000000E+00  0.00000000E+00  5.94120668E-01
  0.00000000E+00  0.00000000E+00  1.00000000E+00  4.85409287E-17  1.11588019E-16
 -1.41829476E-16 -1.01053779E-16  0.00000000E+00  0.00000000E+00  1.78636305E-01
  0.00000000E+00  0.00000000E+00  5.94120668E-01  0.00000000E+00  0.00000000E+00
  1.00000000E+00  0.00000000E+00  0.00000000E+00  0.00000000E+00  0.00000000E+00
  0.00000000E+00  0.00000000E+00 -5.13939112E-16  0.00000000E+00  0.00000000E+00
  0.00000000E+00  0.00000000E+00  0.00000000E+00  1.27405281E-16  1.00000000E+00
  0.00000000E+00  0.00000000E+00  0.00000000E+00  0.00000000E+00 -4.45084327E-16
  0.00000000E+00  0.00000000E+00  0.00000000E+00  0.00000000E+00  0.00000000E+00
  1.10336210E-16  0.00000000E+00  0.00000000E+00  0.00000000E+00  1.00000000E+00
  0.00000000E+00  0.00000000E+00  0.00000000E+00  0.00000000E+00  0.00000000E+00
 -4.45084327E-16  0.00000000E+00  0.00000000E+00  0.00000000E+00  0.00000000E+00
  0.00000000E+00  1.10336210E-16  0.00000000E+00  0.00000000E+00  0.00000000E+00
  1.00000000E+00 -2.14806471E-17  3.34106111E-17 -2.71169641E-17 -7.94154292E-18
  0.00000000E+00  0.00000000E+00 -1.57774974E-32  0.00000000E+00  0.00000000E+00
  0.00000000E+00  0.00000000E+00  0.00000000E+00  3.09761594E-34  1.73531962E-17
  0.00000000E+00  0.00000000E+00  1.00000000E+00  0.00000000E+00  0.00000000E+00
  0.00000000E+00  0.00000000E+00  0.00000000E+00  0.00000000E+00  0.00000000E+00
  0.00000000E+00  0.00000000E+00  0.00000000E+00  0.00000000E+00  0.00000000E+00
  0.00000000E+00  0.00000000E+00  0.00000000E+00  0.00000000E+00  0.00000000E+00
  1.00000000E+00  0.00000000E+00  0.00000000E+00  0.00000000E+00  0.00000000E+00
  0.00000000E+00  0.00000000E+00 -2.18671962E-16  0.00000000E+00  0.00000000E+00
  2.39243193E-16  0.00000000E+00  0.00000000E+00  0.00000000E+00  4.26073291E-01
  0.00000000E+00  0.00000000E+00 -4.68941419E-18  0.00000000E+00  1.00000000E+00
  0.00000000E+00  0.00000000E+00  0.00000000E+00  0.00000000E+00 -1.89375474E-16
  0.00000000E+00  0.00000000E+00  2.07190683E-16  0.00000000E+00  0.00000000E+00
  0.00000000E+00  0.00000000E+00  0.00000000E+00  0.00000000E+00  4.26073291E-01
  0.00000000E+00  0.00000000E+00  0.00000000E+00  0.00000000E+00  1.00000000E+00
  0.00000000E+00  0.00000000E+00  0.00000000E+00  0.00000000E+00  0.00000000E+00
 -1.89375474E-16  0.00000000E+00  0.00000000E+00  2.07190683E-16  0.00000000E+00
  0.00000000E+00  0.00000000E+00  0.00000000E+00  0.00000000E+00  0.00000000E+00
  4.26073291E-01  0.00000000E+00  0.00000000E+00  0.00000000E+00  0.00000000E+00
  1.00000000E+00  1.33656906E-18 -5.94919387E-18 -2.83320046E-17 -1.26821802E-17
  0.00000000E+00  0.00000000E+00  3.85418348E-34  0.00000000E+00  0.00000000E+00
  5.96015979E-34  0.00000000E+00  0.00000000E+00  0.00000000E+00  5.68579452E-18
  0.00000000E+00  0.00000000E+00  4.26073291E-01  0.00000000E+00 -4.95805605E-18
  0.00000000E+00  0.00000000E+00  1.00000000E+00  0.00000000E+00  0.00000000E+00
  0.00000000E+00  0.00000000E+00  0.00000000E+00  0.00000000E+00  0.00000000E+00
  0.00000000E+00  0.00000000E+00  0.00000000E+00  0.00000000E+00  0.00000000E+00
  0.00000000E+00  0.00000000E+00  0.00000000E+00  0.00000000E+00  0.00000000E+00
  4.26073291E-01  0.00000000E+00  0.00000000E+00  0.00000000E+00  0.00000000E+00
  1.00000000E+00  1.19664552E-01  3.03178335E-01  2.73979436E-01  1.31591191E-01
  0.00000000E+00  0.00000000E+00  2.18715244E-01  0.00000000E+00  0.00000000E+00
  4.95472472E-01  0.00000000E+00  0.00000000E+00  2.91576242E-01  3.45227163E-01
  0.00000000E+00  0.00000000E+00 -2.08740505E-18  0.00000000E+00  4.10616204E-01
  0.00000000E+00  0.00000000E+00 -2.10735363E-18  0.00000000E+00  1.00000000E+00
  3.03178335E-01  5.87181857E-01  6.11183825E-01  3.44140708E-01  0.00000000E+00
  0.00000000E+00  2.34638105E-01  0.00000000E+00  0.00000000E+00  5.72965204E-01
  0.00000000E+00  0.00000000E+00  5.36774486E-01  1.53451387E-01  0.00000000E+00
  0.00000000E+00 -2.54384126E-17  0.00000000E+00  3.75651692E-01  0.00000000E+00
  0.00000000E+00 -1.83102695E-17  0.00000000E+00  7.06285045E-01  1.00000000E+00
  2.73979436E-01  6.11183825E-01  8.45496021E-01  6.64751526E-01  0.00000000E+00
  0.00000000E+00  7.62554762E-02  0.00000000E+00  0.00000000E+00  2.65291229E-01
  0.00000000E+00  0.00000000E+00  4.90124732E-01  1.97356351E-02  0.00000000E+00
  0.00000000E+00 -2.88605517E-18  0.00000000E+00  1.10285092E-01  0.00000000E+00
  0.00000000E+00  2.37046407E-17  0.00000000E+00  3.73527845E-01  7.88878095E-01
  1.00000000E+00  1.31591191E-01  3.44140708E-01  6.64751526E-01  9.59560643E-01
  0.00000000E+00  0.00000000E+00  9.42085770E-03  0.00000000E+00  0.00000000E+00
  4.22491476E-02  0.00000000E+00  0.00000000E+00  1.52855994E-01  6.65307200E-04
  0.00000000E+00  0.00000000E+00 -2.94868008E-18  0.00000000E+00  6.58138946E-03
  0.00000000E+00  0.00000000E+00 -1.14491218E-17  0.00000000E+00  1.42678975E-01
  3.71544888E-01  7.10291289E-01  1.00000000E+00  0.00000000E+00  0.00000000E+00
  0.00000000E+00  0.00000000E+00  1.00327822E-01  0.00000000E+00  0.00000000E+00
  2.27574523E-01  0.00000000E+00  0.00000000E+00  1.30910058E-01  0.00000000E+00
  0.00000000E+00  0.00000000E+00  2.87797709E-01  0.00000000E+00  0.00000000E+00
  0.00000000E+00  0.00000000E+00  3.30014986E-01  0.00000000E+00  0.00000000E+00
  0.00000000E+00  0.00000000E+00  0.00000000E+00  0.00000000E+00  0.00000000E+00
  1.00000000E+00  0.00000000E+00  0.00000000E+00  0.00000000E+00  0.00000000E+00
  0.00000000E+00  1.00327822E-01  0.00000000E+00  0.00000000E+00  2.27574523E-01
  0.00000000E+00  0.00000000E+00  1.30910058E-01  0.00000000E+00  0.00000000E+00
  0.00000000E+00  2.87797709E-01  0.00000000E+00  0.00000000E+00  0.00000000E+00
  0.00000000E+00  3.30014986E-01  0.00000000E+00  0.00000000E+00  0.00000000E+00
  0.00000000E+00  0.00000000E+00  0.00000000E+00  0.00000000E+00  1.00000000E+00
 -2.18715244E-01 -2.34638105E-01 -7.62554762E-02 -9.42085770E-03  0.00000000E+00
  0.00000000E+00 -3.61042156E-01  0.00000000E+00  0.00000000E+00 -2.24852830E-01
  0.00000000E+00  0.00000000E+00  4.95255227E-02 -3.23249617E-01  0.00000000E+00
  0.00000000E+00 -5.10995892E-18  0.00000000E+00  1.19375291E-01  0.00000000E+00
  0.00000000E+00 -1.43802895E-19  0.00000000E+00  0.00000000E+00  0.00000000E+00
  0.00000000E+00  0.00000000E+00  0.00000000E+00  0.00000000E+00  1.00000000E+00
  0.00000000E+00  0.00000000E+00  0.00000000E+00  0.00000000E+00  2.27574523E-01
  0.00000000E+00  0.00000000E+00  5.30429819E-01  0.00000000E+00  0.00000000E+00
  4.56278455E-01  0.00000000E+00  0.00000000E+00  0.00000000E+00  2.91994308E-01
  0.00000000E+00  0.00000000E+00  0.00000000E+00  0.00000000E+00  6.29402495E-01
  0.00000000E+00  0.00000000E+00  0.00000000E+00  0.00000000E+00  0.00000000E+00
  0.00000000E+00  0.00000000E+00  6.14923564E-01  0.00000000E+00  0.00000000E+00
  1.00000000E+00  0.00000000E+00  0.00000000E+00  0.00000000E+00  0.00000000E+00
  0.00000000E+00  2.27574523E-01  0.00000000E+00  0.00000000E+00  5.30429819E-01
  0.00000000E+00  0.00000000E+00  4.56278455E-01  0.00000000E+00  0.00000000E+00
  0.00000000E+00  2.91994308E-01  0.00000000E+00  0.00000000E+00  0.00000000E+00
  0.00000000E+00  6.29402495E-01  0.00000000E+00  0.00000000E+00  0.00000000E+00
  0.00000000E+00  0.00000000E+00  0.00000000E+00  0.00000000E+00  6.14923564E-01
  0.00000000E+00  0.00000000E+00  1.00000000E+00 -4.95472472E-01 -5.72965204E-01
 -2.65291229E-01 -4.22491476E-02  0.00000000E+00  0.00000000E+00 -2.24852830E-01
  0.00000000E+00  0.00000000E+00 -1.42226930E-01  0.00000000E+00  0.00000000E+00
  2.15382436E-01  2.44021946E-02  0.00000000E+00  0.00000000E+00  9.93475958E-18
  0.00000000E+00  3.68273489E-01  0.00000000E+00  0.00000000E+00 -6.60174579E-18
  0.00000000E+00  0.00000000E+00  0.00000000E+00  0.00000000E+00  0.00000000E+00
  0.00000000E+00  0.00000000E+00  6.14923564E-01  0.00000000E+00  0.00000000E+00
  1.00000000E+00  0.00000000E+00  0.00000000E+00  0.00000000E+00  0.00000000E+00
  1.30910058E-01  0.00000000E+00  0.00000000E+00  4.56278455E-01  0.00000000E+00
  0.00000000E+00  8.46463768E-01  0.00000000E+00  0.00000000E+00  0.00000000E+00
  5.83337867E-02  0.00000000E+00  0.00000000E+00  0.00000000E+00  0.00000000E+00
  3.27329082E-01  0.00000000E+00  0.00000000E+00  0.00000000E+00  0.00000000E+00
  0.00000000E+00  0.00000000E+00  0.00000000E+00  1.78636305E-01  0.00000000E+00
  0.00000000E+00  5.94120668E-01  0.00000000E+00  0.00000000E+00  1.00000000E+00
  0.00000000E+00  0.00000000E+00  0.00000000E+00  0.00000000E+00  0.00000000E+00
  1.30910058E-01  0.00000000E+00  0.00000000E+00  4.56278455E-01  0.00000000E+00
  0.00000000E+00  8.46463768E-01  0.00000000E+00  0.00000000E+00  0.00000000E+00
  5.83337867E-02  0.00000000E+00  0.00000000E+00  0.00000000E+00  0.00000000E+00
  3.27329082E-01  0.00000000E+00  0.00000000E+00  0.00000000E+00  0.00000000E+00
  0.00000000E+00  0.00000000E+00  0.00000000E+00  1.78636305E-01  0.00000000E+00
  0.00000000E+00  5.94120668E-01  0.00000000E+00  0.00000000E+00  1.00000000E+00
 -2.91576242E-01 -5.36774486E-01 -4.90124732E-01 -1.52855994E-01  0.00000000E+00
  0.00000000E+00  4.95255227E-02  0.00000000E+00  0.00000000E+00  2.15382436E-01
  0.00000000E+00  0.00000000E+00  5.64273266E-01  4.68787549E-02  0.00000000E+00
  0.00000000E+00 -2.19605470E-17  0.00000000E+00  2.88788702E-01  0.00000000E+00
  0.00000000E+00  1.01612242E-17  0.00000000E+00  0.00000000E+00  0.00000000E+00
  0.00000000E+00  0.00000000E+00  0.00000000E+00  0.00000000E+00  1.78636305E-01
  0.00000000E+00  0.00000000E+00  5.94120668E-01  0.00000000E+00  0.00000000E+00
  1.00000000E+00  3.45227163E-01  1.53451387E-01  1.97356351E-02  6.65307200E-04
  0.00000000E+00  0.00000000E+00  3.23249617E-01  0.00000000E+00  0.00000000E+00
 -2.44021946E-02  0.00000000E+00  0.00000000E+00 -4.68787549E-02  6.61321428E-02
  0.00000000E+00  0.00000000E+00  2.04562255E-17  0.00000000E+00 -3.85470005E-02
  0.00000000E+00  0.00000000E+00 -7.48089382E-19  0.00000000E+00  0.00000000E+00
  0.00000000E+00  0.00000000E+00  0.00000000E+00  0.00000000E+00  0.00000000E+00
  0.00000000E+00  0.00000000E+00  0.00000000E+00  0.00000000E+00  0.00000000E+00
  0.00000000E+00  0.00000000E+00  1.00000000E+00  0.00000000E+00  0.00000000E+00
  0.00000000E+00  0.00000000E+00 -2.87797709E-01  0.00000000E+00  0.00000000E+00
 -2.91994308E-01  0.00000000E+00  0.00000000E+00 -5.83337867E-02  0.00000000E+00
  0.00000000E+00  0.00000000E+00 -4.36335281E-01  0.00000000E+00  0.00000000E+00
  0.00000000E+00  0.00000000E+00 -6.83762367E-02  0.00000000E+00  0.00000000E+00
  0.00000000E+00  0.00000000E+00  0.00000000E+00  0.00000000E+00  0.00000000E+00
  0.00000000E+00  0.00000000E+00  0.00000000E+00  0.00000000E+00  0.00000000E+00
  0.00000000E+00  0.00000000E+00  0.00000000E+00  0.00000000E+00  0.00000000E+00
  1.00000000E+00  0.00000000E+00  0.00000000E+00  0.00000000E+00  0.00000000E+00
  0.00000000E+00 -2.87797709E-01  0.00000000E+00  0.00000000E+00 -2.91994308E-01
  0.00000000E+00  0.00000000E+00 -5.83337867E-02  0.00000000E+00  0.00000000E+00
  0.00000000E+00 -4.36335281E-01  0.00000000E+00  0.00000000E+00  0.00000000E+00
  0.00000000E+00 -6.83762367E-02  0.00000000E+00  0.00000000E+00  0.00000000E+00
  0.00000000E+00  0.00000000E+00  0.00000000E+00  0.00000000E+00  0.00000000E+00
  0.00000000E+00  0.00000000E+00  0.00000000E+00  0.00000000E+00  0.00000000E+00
  0.00000000E+00  0.00000000E+00  0.00000000E+00  0.00000000E+00  1.00000000E+00
 -2.08740505E-18 -2.54384126E-17 -2.88605517E-18 -2.94868008E-18  0.00000000E+00
  0.00000000E+00  5.10995892E-18  0.00000000E+00  0.00000000E+00 -1.73718437E-17
  0.00000000E+00  0.00000000E+00  2.19605470E-17  7.37981842E-18  0.00000000E+00
  0.00000000E+00  1.77755901E-01  0.00000000E+00  5.02124513E-18  0.00000000E+00
  0.00000000E+00  2.21458258E-01  0.00000000E+00 -2.14806471E-17  3.34106111E-17
 -2.71169641E-17 -7.94154292E-18  0.00000000E+00  0.00000000E+00  0.00000000E+00
  0.00000000E+00  0.00000000E+00  0.00000000E+00  0.00000000E+00  0.00000000E+00
  0.00000000E+00  1.73531962E-17  0.00000000E+00  0.00000000E+00  1.00000000E+00
  0.00000000E+00  0.00000000E+00  0.00000000E+00  0.00000000E+00  0.00000000E+00
  0.00000000E+00  0.00000000E+00  0.00000000E+00  0.00000000E+00  0.00000000E+00
  0.00000000E+00  0.00000000E+00  0.00000000E+00  0.00000000E+00  0.00000000E+00
  0.00000000E+00  0.00000000E+00  1.77755901E-01  0.00000000E+00  0.00000000E+00
  0.00000000E+00  0.00000000E+00  2.21458258E-01  0.00000000E+00  0.00000000E+00
  0.00000000E+00  0.00000000E+00  0.00000000E+00  0.00000000E+00  0.00000000E+00
  0.00000000E+00  0.00000000E+00  0.00000000E+00  0.00000000E+00  0.00000000E+00
  0.00000000E+00  0.00000000E+00  0.00000000E+00  0.00000000E+00  0.00000000E+00
  1.00000000E+00  4.10616204E-01  3.75651692E-01  1.10285092E-01  6.58138946E-03
  0.00000000E+00  0.00000000E+00 -1.19375291E-01  0.00000000E+00  0.00000000E+00
 -3.68273489E-01  0.00000000E+00  0.00000000E+00 -2.88788702E-01 -3.85470005E-02
  0.00000000E+00  0.00000000E+00 -2.49025207E-17  0.00000000E+00  9.40713347E-02
  0.00000000E+00  0.00000000E+00  3.56417906E-17  0.00000000E+00  0.00000000E+00
  0.00000000E+00  0.00000000E+00  0.00000000E+00  0.00000000E+00  0.00000000E+00
  0.00000000E+00  0.00000000E+00  0.00000000E+00  0.00000000E+00  0.00000000E+00
  0.00000000E+00  0.00000000E+00  4.26073291E-01  0.00000000E+00  0.00000000E+00
 -4.68941419E-18  0.00000000E+00  1.00000000E+00  0.00000000E+00  0.00000000E+00
  0.00000000E+00  0.00000000E+00 -3.30014986E-01  0.00000000E+00  0.00000000E+00
 -6.29402495E-01  0.00000000E+00  0.00000000E+00 -3.27329082E-01  0.00000000E+00
  0.00000000E+00  0.00000000E+00 -6.83762367E-02  0.00000000E+00  0.00000000E+00
  0.00000000E+00  0.00000000E+00  1.28705710E-01  0.00000000E+00  0.00000000E+00
  0.00000000E+00  0.00000000E+00  0.00000000E+00  0.00000000E+00  0.00000000E+00
  0.00000000E+00  0.00000000E+00  0.00000000E+00  0.00000000E+00  0.00000000E+00
  0.00000000E+00  0.00000000E+00  0.00000000E+00  0.00000000E+00  0.00000000E+00
  4.26073291E-01  0.00000000E+00  0.00000000E+00  0.00000000E+00  0.00000000E+00
  1.00000000E+00  0.00000000E+00  0.00000000E+00  0.00000000E+00  0.00000000E+00
  0.00000000E+00 -3.30014986E-01  0.00000000E+00  0.00000000E+00 -6.29402495E-01
  0.00000000E+00  0.00000000E+00 -3.27329082E-01  0.00000000E+00  0.00000000E+00
  0.00000000E+00 -6.83762367E-02  0.00000000E+00  0.00000000E+00  0.00000000E+00
  0.00000000E+00  1.28705710E-01  0.00000000E+00  0.00000000E+00  0.00000000E+00
  0.00000000E+00  0.00000000E+00  0.00000000E+00  0.00000000E+00  0.00000000E+00
  0.00000000E+00  0.00000000E+00  0.00000000E+00  0.00000000E+00  0.00000000E+00
  0.00000000E+00  0.00000000E+00  0.00000000E+00  0.00000000E+00  4.26073291E-01
  0.00000000E+00  0.00000000E+00  0.00000000E+00  0.00000000E+00  1.00000000E+00
 -2.10735363E-18 -1.83102695E-17  2.37046407E-17 -1.14491218E-17  0.00000000E+00
  0.00000000E+00  1.43802895E-19  0.00000000E+00  0.00000000E+00 -8.27242236E-18
  0.00000000E+00  0.00000000E+00 -1.75983083E-17 -1.16857124E-18  0.00000000E+00
  0.00000000E+00  2.21458258E-01  0.00000000E+00 -1.98259315E-18  0.00000000E+00
  0.00000000E+00  6.67880415E-01  0.00000000E+00  1.33656906E-18 -5.94919387E-18
 -2.83320046E-17 -1.26821802E-17  0.00000000E+00  0.00000000E+00  0.00000000E+00
  0.00000000E+00  0.00000000E+00  0.00000000E+00  0.00000000E+00  0.00000000E+00
  0.00000000E+00  5.68579452E-18  0.00000000E+00  0.00000000E+00  4.26073291E-01
  0.00000000E+00 -4.95805605E-18  0.00000000E+00  0.00000000E+00  1.00000000E+00
  0.00000000E+00  0.00000000E+00  0.00000000E+00  0.00000000E+00  0.00000000E+00
  0.00000000E+00  0.00000000E+00  0.00000000E+00  0.00000000E+00  0.00000000E+00
  0.00000000E+00  0.00000000E+00  0.00000000E+00  0.00000000E+00  0.00000000E+00
  0.00000000E+00  0.00000000E+00  2.21458258E-01  0.00000000E+00  0.00000000E+00
  0.00000000E+00  0.00000000E+00  6.67880415E-01  0.00000000E+00  0.00000000E+00
  0.00000000E+00  0.00000000E+00  0.00000000E+00  0.00000000E+00  0.00000000E+00
  0.00000000E+00  0.00000000E+00  0.00000000E+00  0.00000000E+00  0.00000000E+00
  0.00000000E+00  0.00000000E+00  0.00000000E+00  0.00000000E+00  0.00000000E+00
  4.26073291E-01  0.00000000E+00  0.00000000E+00  0.00000000E+00  0.00000000E+00
  1.00000000E+00  3.73066287E-04  2.42575602E-02  1.08133943E-01  1.03233942E-01
  0.00000000E+00  0.00000000E+00  8.08267201E-04  0.00000000E+00  0.00000000E+00
  5.46085511E-02  0.00000000E+00  0.00000000E+00  2.31448267E-01  5.42338632E-03
  0.00000000E+00  0.00000000E+00  1.53910922E-20  0.00000000E+00  2.16853244E-01
  0.00000000E+00  0.00000000E+00  1.53253855E-19  0.00000000E+00  1.19647049E-01
  3.03159600E-01  2.73973223E-01  1.31590412E-01  0.00000000E+00  0.00000000E+00
  2.18688499E-01  0.00000000E+00  0.00000000E+00  4.95455367E-01  0.00000000E+00
  0.00000000E+00  2.91580336E-01  3.45203617E-01  0.00000000E+00  0.00000000E+00
  5.76503872E-18  0.00000000E+00  4.10625928E-01  0.00000000E+00  0.00000000E+00
  1.12684561E-18  0.00000000E+00  1.00000000E+00  2.42575602E-02  1.18865733E-01
  2.84211402E-01  2.73467329E-01  0.00000000E+00  0.00000000E+00  3.50645828E-02
  0.00000000E+00  0.00000000E+00  2.01836796E-01  0.00000000E+00  0.00000000E+00
  5.01216735E-01  5.33956785E-02  0.00000000E+00  0.00000000E+00 -1.00364086E-18
  0.00000000E+00  3.78948038E-01  0.00000000E+00  0.00000000E+00  3.23758873E-18
  0.00000000E+00  3.03159600E-01  5.87158982E-01  6.11172412E-01  3.44138778E-01
  0.00000000E+00  0.00000000E+00  2.34631844E-01  0.00000000E+00  0.00000000E+00
  5.72961899E-01  0.00000000E+00  0.00000000E+00  5.36784152E-01  1.53453476E-01
  0.00000000E+00  0.00000000E+00  2.60294700E-17  0.00000000E+00  3.75666557E-01
  0.00000000E+00  0.00000000E+00  8.24110033E-18  0.00000000E+00  7.06285045E-01
  1.00000000E+00  1.08133943E-01  2.84211402E-01  5.11017304E-01  5.44908640E-01
  0.00000000E+00  0.00000000E+00  5.96634947E-02  0.00000000E+00  0.00000000E+00
  2.39300462E-01  0.00000000E+00  0.00000000E+00  5.93494076E-01  3.15286812E-02
  0.00000000E+00  0.00000000E+00  1.50496194E-18  0.00000000E+00  2.16611948E-01
  0.00000000E+00  0.00000000E+00  4.04517464E-18  0.00000000E+00  2.73973223E-01
  6.11172412E-01  8.45485638E-01  6.64748303E-01  0.00000000E+00  0.00000000E+00
  7.62565204E-02  0.00000000E+00  0.00000000E+00  2.65295783E-01  0.00000000E+00
  0.00000000E+00  4.90136664E-01  1.97366374E-02  0.00000000E+00  0.00000000E+00
 -5.20664732E-19  0.00000000E+00  1.10291248E-01  0.00000000E+00  0.00000000E+00
 -1.87607125E-17  0.00000000E+00  3.73527845E-01  7.88878095E-01  1.00000000E+00
  1.03233942E-01  2.73467329E-01  5.44908640E-01  8.47787644E-01  0.00000000E+00
  0.00000000E+00  1.47725294E-02  0.00000000E+00  0.00000000E+00  6.69669204E-02
  0.00000000E+00  0.00000000E+00  2.50669543E-01  2.08947953E-03  0.00000000E+00
  0.00000000E+00  5.90764258E-18  0.00000000E+00  2.10282475E-02  0.00000000E+00
  0.00000000E+00  5.07624923E-18  0.00000000E+00  1.31590412E-01  3.44138778E-01
  6.64748303E-01  9.59557744E-01  0.00000000E+00  0.00000000E+00  9.42114645E-03
  0.00000000E+00  0.00000000E+00  4.22504537E-02  0.00000000E+00  0.00000000E+00
  1.52860846E-01  6.65351955E-04  0.00000000E+00  0.00000000E+00  4.78520793E-19
  0.00000000E+00  6.58183495E-03  0.00000000E+00  0.00000000E+00 -2.08526242E-17
  0.00000000E+00  1.42678975E-01  3.71544888E-01  7.10291289E-01  1.00000000E+00
  0.00000000E+00  0.00000000E+00  0.00000000E+00  0.00000000E+00  1.01283666E-04
  0.00000000E+00  0.00000000E+00  1.15336822E-02  0.00000000E+00  0.00000000E+00
  5.15184901E-02  0.00000000E+00  0.00000000E+00  0.00000000E+00  1.54808469E-03
  0.00000000E+00  0.00000000E+00  0.00000000E+00  0.00000000E+00  8.40991989E-02
  0.00000000E+00  0.00000000E+00  0.00000000E+00  0.00000000E+00  0.00000000E+00
  0.00000000E+00  0.00000000E+00  1.00310944E-01  0.00000000E+00  0.00000000E+00
  2.27557971E-01  0.00000000E+00  0.00000000E+00  1.30907080E-01  0.00000000E+00
  0.00000000E+00  0.00000000E+00  2.87766698E-01  0.00000000E+00  0.00000000E+00
  0.00000000E+00  0.00000000E+00  3.30010477E-01  0.00000000E+00  0.00000000E+00
  0.00000000E+00  0.00000000E+00  0.00000000E+00  0.00000000E+00  0.00000000E+00
  1.00000000E+00  0.00000000E+00  0.00000000E+00  0.00000000E+00  0.00000000E+00
  0.00000000E+00  1.01283666E-04  0.00000000E+00  0.00000000E+00  1.15336822E-02
  0.00000000E+00  0.00000000E+00  5.15184901E-02  0.00000000E+00  0.00000000E+00
  0.00000000E+00  1.54808469E-03  0.00000000E+00  0.00000000E+00  0.00000000E+00
  0.00000000E+00  8.40991989E-02  0.00000000E+00  0.00000000E+00  0.00000000E+00
  0.00000000E+00  0.00000000E+00  0.00000000E+00  0.00000000E+00  1.00310944E-01
  0.00000000E+00  0.00000000E+00  2.27557971E-01  0.00000000E+00  0.00000000E+00
  1.30907080E-01  0.00000000E+00  0.00000000E+00  0.00000000E+00  2.87766698E-01
  0.00000000E+00  0.00000000E+00  0.00000000E+00  0.00000000E+00  3.30010477E-01
  0.00000000E+00  0.00000000E+00  0.00000000E+00  0.00000000E+00  0.00000000E+00
  0.00000000E+00  0.00000000E+00  1.00000000E+00 -8.08267201E-04 -3.50645828E-02
 -5.96634947E-02 -1.47725294E-02  0.00000000E+00  0.00000000E+00 -1.76184667E-03
  0.00000000E+00  0.00000000E+00 -8.01873794E-02  0.00000000E+00  0.00000000E+00
 -7.65988397E-02 -1.23183710E-02  0.00000000E+00  0.00000000E+00  3.17011798E-21
  0.00000000E+00 -1.69654167E-01  0.00000000E+00  0.00000000E+00 -1.81778194E-20
  0.00000000E+00 -2.18688499E-01 -2.34631844E-01 -7.62565204E-02 -9.42114645E-03
  0.00000000E+00  0.00000000E+00 -3.61015172E-01  0.00000000E+00  0.00000000E+00
 -2.24869579E-01  0.00000000E+00  0.00000000E+00  4.95184414E-02 -3.23262749E-01
  0.00000000E+00  0.00000000E+00  5.99730658E-18  0.00000000E+00  1.19354512E-01
  0.00000000E+00  0.00000000E+00  1.55922254E-18  0.00000000E+00  5.17399523E-16
 -3.63892821E-16  0.00000000E+00  7.11500241E-17  0.00000000E+00  0.00000000E+00
  1.00000000E+00  0.00000000E+00  0.00000000E+00  0.00000000E+00  0.00000000E+00
  1.15336822E-02  0.00000000E+00  0.00000000E+00  7.91537369E-02  0.00000000E+00
  0.00000000E+00  2.06670785E-01  0.00000000E+00  0.00000000E+00  0.00000000E+00
  3.61214659E-02  0.00000000E+00  0.00000000E+00  0.00000000E+00  0.00000000E+00
  2.86586460E-01  0.00000000E+00  0.00000000E+00  0.00000000E+00  0.00000000E+00
  0.00000000E+00  0.00000000E+00  0.00000000E+00  2.27557971E-01  0.00000000E+00
  0.00000000E+00  5.30405210E-01  0.00000000E+00  0.00000000E+00  4.56269642E-01
  0.00000000E+00  0.00000000E+00  0.00000000E+00  2.91985172E-01  0.00000000E+00
  0.00000000E+00  0.00000000E+00  0.00000000E+00  6.29402804E-01  0.00000000E+00
  0.00000000E+00  0.00000000E+00  0.00000000E+00  0.00000000E+00  0.00000000E+00
  0.00000000E+00  6.14923564E-01  0.00000000E+00  0.00000000E+00  1.00000000E+00
  0.00000000E+00  0.00000000E+00  0.00000000E+00  0.00000000E+00  0.00000000E+00
  1.15336822E-02  0.00000000E+00  0.00000000E+00  7.91537369E-02  0.00000000E+00
  0.00000000E+00  2.06670785E-01  0.00000000E+00  0.00000000E+00  0.00000000E+00
  3.61214659E-02  0.00000000E+00  0.00000000E+00  0.00000000E+00  0.00000000E+00
  2.86586460E-01  0.00000000E+00  0.00000000E+00  0.00000000E+00  0.00000000E+00
  0.00000000E+00  0.00000000E+00  0.00000000E+00  2.27557971E-01  0.00000000E+00
  0.00000000E+00  5.30405210E-01  0.00000000E+00  0.00000000E+00  4.56269642E-01
  0.00000000E+00  0.00000000E+00  0.00000000E+00  2.91985172E-01  0.00000000E+00
  0.00000000E+00  0.00000000E+00  0.00000000E+00  6.29402804E-01  0.00000000E+00
  0.00000000E+00  0.00000000E+00  0.00000000E+00  0.00000000E+00  0.00000000E+00
  0.00000000E+00  6.14923564E-01  0.00000000E+00  0.00000000E+00  1.00000000E+00
 -5.46085511E-02 -2.01836796E-01 -2.39300462E-01 -6.69669204E-02  0.00000000E+00
  0.00000000E+00 -8.01873794E-02  0.00000000E+00  0.00000000E+00 -3.22371527E-01
  0.00000000E+00  0.00000000E+00 -2.29799447E-01 -1.13059293E-01  0.00000000E+00
  0.00000000E+00 -1.09888895E-18  0.00000000E+00 -3.22043181E-01  0.00000000E+00
  0.00000000E+00 -1.97306355E-18  0.00000000E+00 -4.95455367E-01 -5.72961899E-01
 -2.65295783E-01 -4.22504537E-02  0.00000000E+00  0.00000000E+00 -2.24869579E-01
  0.00000000E+00  0.00000000E+00 -1.42269548E-01  0.00000000E+00  0.00000000E+00
  2.15360650E-01  2.43785466E-02  0.00000000E+00  0.00000000E+00  2.93237400E-18
  0.00000000E+00  3.68247438E-01  0.00000000E+00  0.00000000E+00 -1.13519841E-17
  0.00000000E+00 -3.61229151E-16 -2.75044754E-16  0.00000000E+00  0.00000000E+00
  0.00000000E+00  0.00000000E+00  6.14923564E-01  0.00000000E+00  0.00000000E+00
  1.00000000E+00  0.00000000E+00  0.00000000E+00  0.00000000E+00  0.00000000E+00
  5.15184901E-02  0.00000000E+00  0.00000000E+00  2.06670785E-01  0.00000000E+00
  0.00000000E+00  5.13361033E-01  0.00000000E+00  0.00000000E+00  0.00000000E+00
  4.68613509E-02  0.00000000E+00  0.00000000E+00  0.00000000E+00  0.00000000E+00
  3.22553981E-01  0.00000000E+00  0.00000000E+00  0.00000000E+00  0.00000000E+00
  0.00000000E+00  0.00000000E+00  0.00000000E+00  1.30907080E-01  0.00000000E+00
  0.00000000E+00  4.56269642E-01  0.00000000E+00  0.00000000E+00  8.46453444E-01
  0.00000000E+00  0.00000000E+00  0.00000000E+00  5.83346231E-02  0.00000000E+00
  0.00000000E+00  0.00000000E+00  0.00000000E+00  3.27335406E-01  0.00000000E+00
  0.00000000E+00  0.00000000E+00  0.00000000E+00  0.00000000E+00  0.00000000E+00
  0.00000000E+00  1.78636305E-01  0.00000000E+00  0.00000000E+00  5.94120668E-01
  0.00000000E+00  0.00000000E+00  1.00000000E+00  0.00000000E+00  0.00000000E+00
  0.00000000E+00  0.00000000E+00  0.00000000E+00  5.15184901E-02  0.00000000E+00
  0.00000000E+00  2.06670785E-01  0.00000000E+00  0.00000000E+00  5.13361033E-01
  0.00000000E+00  0.00000000E+00  0.00000000E+00  4.68613509E-02  0.00000000E+00
  0.00000000E+00  0.00000000E+00  0.00000000E+00  3.22553981E-01  0.00000000E+00
  0.00000000E+00  0.00000000E+00  0.00000000E+00  0.00000000E+00  0.00000000E+00
  0.00000000E+00  1.30907080E-01  0.00000000E+00  0.00000000E+00  4.56269642E-01
  0.00000000E+00  0.00000000E+00  8.46453444E-01  0.00000000E+00  0.00000000E+00
  0.00000000E+00  5.83346231E-02  0.00000000E+00  0.00000000E+00  0.00000000E+00
  0.00000000E+00  3.27335406E-01  0.00000000E+00  0.00000000E+00  0.00000000E+00
  0.00000000E+00  0.00000000E+00  0.00000000E+00  0.00000000E+00  1.78636305E-01
  0.00000000E+00  0.00000000E+00  5.94120668E-01  0.00000000E+00  0.00000000E+00
  1.00000000E+00 -2.31448267E-01 -5.01216735E-01 -5.93494076E-01 -2.50669543E-01
  0.00000000E+00  0.00000000E+00 -7.65988397E-02  0.00000000E+00  0.00000000E+00
 -2.29799447E-01  0.00000000E+00  0.00000000E+00 -1.71232511E-01 -1.16982231E-02
  0.00000000E+00  0.00000000E+00 -5.20834447E-19  0.00000000E+00  2.09306974E-02
  0.00000000E+00  0.00000000E+00  8.01431878E-18  0.00000000E+00 -2.91580336E-01
 -5.36784152E-01 -4.90136664E-01 -1.52860846E-01  0.00000000E+00  0.00000000E+00
  4.95184414E-02  0.00000000E+00  0.00000000E+00  2.15360650E-01  0.00000000E+00
  0.00000000E+00  5.64245736E-01  4.68779285E-02  0.00000000E+00  0.00000000E+00
 -1.13993295E-17  0.00000000E+00  2.88787756E-01  0.00000000E+00  0.00000000E+00
 -9.12943698E-18  0.00000000E+00  3.94526792E-18 -2.23176039E-16  0.00000000E+00
  1.01053779E-16  0.00000000E+00  0.00000000E+00  1.78636305E-01  0.00000000E+00
  0.00000000E+00  5.94120668E-01  0.00000000E+00  0.00000000E+00  1.00000000E+00
  5.42338632E-03  5.33956785E-02  3.15286812E-02  2.08947953E-03  0.00000000E+00
  0.00000000E+00  1.23183710E-02  0.00000000E+00  0.00000000E+00  1.13059293E-01
  0.00000000E+00  0.00000000E+00  1.16982231E-02  4.61450809E-02  0.00000000E+00
  0.00000000E+00 -8.20820544E-20  0.00000000E+00  9.81171436E-02  0.00000000E+00
  0.00000000E+00  2.40602647E-18  0.00000000E+00  3.45203617E-01  1.53453476E-01
  1.97366374E-02  6.65351955E-04  0.00000000E+00  0.00000000E+00  3.23262749E-01
  0.00000000E+00  0.00000000E+00 -2.43785466E-02  0.00000000E+00  0.00000000E+00
 -4.68779285E-02  6.61673593E-02  0.00000000E+00  0.00000000E+00 -1.68867647E-17
  0.00000000E+00 -3.85549268E-02  0.00000000E+00  0.00000000E+00  4.71744525E-18
  0.00000000E+00  0.00000000E+00  0.00000000E+00  0.00000000E+00  0.00000000E+00
  0.00000000E+00  0.00000000E+00  5.13939112E-16  0.00000000E+00  0.00000000E+00
  0.00000000E+00  0.00000000E+00  0.00000000E+00 -1.27405281E-16  1.00000000E+00
  0.00000000E+00  0.00000000E+00  0.00000000E+00  0.00000000E+00 -1.54808469E-03
  0.00000000E+00  0.00000000E+00 -3.61214659E-02  0.00000000E+00  0.00000000E+00
 -4.68613509E-02  0.00000000E+00  0.00000000E+00  0.00000000E+00 -1.27952626E-02
  0.00000000E+00  0.00000000E+00  0.00000000E+00  0.00000000E+00 -1.31688515E-01
  0.00000000E+00  0.00000000E+00  0.00000000E+00  0.00000000E+00  0.00000000E+00
  0.00000000E+00  0.00000000E+00 -2.87766698E-01  0.00000000E+00  0.00000000E+00
 -2.91985172E-01  0.00000000E+00  0.00000000E+00 -5.83346231E-02  0.00000000E+00
  0.00000000E+00  0.00000000E+00 -4.36325064E-01  0.00000000E+00  0.00000000E+00
  0.00000000E+00  0.00000000E+00 -6.83941692E-02  0.00000000E+00  0.00000000E+00
  0.00000000E+00  0.00000000E+00  0.00000000E+00  0.00000000E+00  0.00000000E+00
  4.45084327E-16  0.00000000E+00  0.00000000E+00  0.00000000E+00  0.00000000E+00
  0.00000000E+00 -1.10336210E-16  0.00000000E+00  0.00000000E+00  0.00000000E+00
  1.00000000E+00  0.00000000E+00  0.00000000E+00  0.00000000E+00  0.00000000E+00
  0.00000000E+00 -1.54808469E-03  0.00000000E+00  0.00000000E+00 -3.61214659E-02
  0.00000000E+00  0.00000000E+00 -4.68613509E-02  0.00000000E+00  0.00000000E+00
  0.00000000E+00 -1.27952626E-02  0.00000000E+00  0.00000000E+00  0.00000000E+00
  0.00000000E+00 -1.31688515E-01  0.00000000E+00  0.00000000E+00  0.00000000E+00
  0.00000000E+00  0.00000000E+00  0.00000000E+00  0.00000000E+00 -2.87766698E-01
  0.00000000E+00  0.00000000E+00 -2.91985172E-01  0.00000000E+00  0.00000000E+00
 -5.83346231E-02  0.00000000E+00  0.00000000E+00  0.00000000E+00 -4.36325064E-01
  0.00000000E+00  0.00000000E+00  0.00000000E+00  0.00000000E+00 -6.83941692E-02
  0.00000000E+00  0.00000000E+00  0.00000000E+00  0.00000000E+00  0.00000000E+00
  0.00000000E+00  0.00000000E+00  4.45084327E-16  0.00000000E+00  0.00000000E+00
  0.00000000E+00  0.00000000E+00  0.00000000E+00 -1.10336210E-16  0.00000000E+00
  0.00000000E+00  0.00000000E+00  1.00000000E+00  1.53910922E-20  6.06535078E-19
  1.50496194E-18  5.90764258E-18  0.00000000E+00  0.00000000E+00 -1.76956728E-20
  0.00000000E+00  0.00000000E+00  1.09888895E-18  0.00000000E+00  0.00000000E+00
  5.20834447E-19 -1.31232097E-20  0.00000000E+00  0.00000000E+00  9.98128199E-04
  0.00000000E+00 -1.27111253E-17  0.00000000E+00  0.00000000E+00  3.10937423E-02
  0.00000000E+00  5.76503872E-18  2.60294700E-17 -5.20664732E-19  4.78520793E-19
  0.00000000E+00  0.00000000E+00  1.43977749E-18  0.00000000E+00  0.00000000E+00
 -1.03694581E-17  0.00000000E+00  0.00000000E+00 -3.47483868E-18 -1.38326254E-17
  0.00000000E+00  0.00000000E+00  1.77733435E-01  0.00000000E+00 -8.66538924E-18
  0.00000000E+00  0.00000000E+00  2.21447654E-01  0.00000000E+00 -2.14806471E-17
  3.34106111E-17 -2.71169641E-17 -7.94154292E-18  0.00000000E+00  0.00000000E+00
  1.57774974E-32  0.00000000E+00  0.00000000E+00  0.00000000E+00  0.00000000E+00
  0.00000000E+00 -3.09761594E-34  1.73531962E-17  0.00000000E+00  0.00000000E+00
  1.00000000E+00  0.00000000E+00  0.00000000E+00  0.00000000E+00  0.00000000E+00
  0.00000000E+00  0.00000000E+00  0.00000000E+00  0.00000000E+00  0.00000000E+00
  0.00000000E+00  0.00000000E+00  0.00000000E+00  0.00000000E+00  0.00000000E+00
  0.00000000E+00  0.00000000E+00  0.00000000E+00  9.98128199E-04  0.00000000E+00
  0.00000000E+00  0.00000000E+00  0.00000000E+00  3.10937423E-02  0.00000000E+00
  0.00000000E+00  0.00000000E+00  0.00000000E+00  0.00000000E+00  0.00000000E+00
  0.00000000E+00  0.00000000E+00  0.00000000E+00  0.00000000E+00  0.00000000E+00
  0.00000000E+00  0.00000000E+00  0.00000000E+00  0.00000000E+00  0.00000000E+00
  0.00000000E+00  1.77733435E-01  0.00000000E+00  0.00000000E+00  0.00000000E+00
  0.00000000E+00  2.21447654E-01  0.00000000E+00  0.00000000E+00  0.00000000E+00
  0.00000000E+00  0.00000000E+00  0.00000000E+00  0.00000000E+00  0.00000000E+00
  0.00000000E+00  0.00000000E+00  0.00000000E+00  0.00000000E+00  0.00000000E+00
  0.00000000E+00  0.00000000E+00  0.00000000E+00  0.00000000E+00  1.00000000E+00
  2.16853244E-01  3.78948038E-01  2.16611948E-01  2.10282475E-02  0.00000000E+00
  0.00000000E+00  1.69654167E-01  0.00000000E+00  0.00000000E+00  3.22043181E-01
  0.00000000E+00  0.00000000E+00 -2.09306974E-02  9.81171436E-02  0.00000000E+00
  0.00000000E+00  9.16070845E-18  0.00000000E+00  3.38995477E-02  0.00000000E+00
  0.00000000E+00 -1.96413559E-17  0.00000000E+00  4.10625928E-01  3.75666557E-01
  1.10291248E-01  6.58183495E-03  0.00000000E+00  0.00000000E+00 -1.19354512E-01
  0.00000000E+00  0.00000000E+00 -3.68247438E-01  0.00000000E+00  0.00000000E+00
 -2.88787756E-01 -3.85549268E-02  0.00000000E+00  0.00000000E+00 -3.58293498E-17
  0.00000000E+00  9.40371884E-02  0.00000000E+00  0.00000000E+00  1.71432029E-17
  0.00000000E+00  0.00000000E+00  0.00000000E+00  0.00000000E+00  0.00000000E+00
  0.00000000E+00  0.00000000E+00  0.00000000E+00  0.00000000E+00  0.00000000E+00
 -2.39243193E-16  0.00000000E+00  0.00000000E+00 -2.01104086E-16  4.26073291E-01
  0.00000000E+00  0.00000000E+00 -4.68941419E-18  0.00000000E+00  1.00000000E+00
  0.00000000E+00  0.00000000E+00  0.00000000E+00  0.00000000E+00 -8.40991989E-02
  0.00000000E+00  0.00000000E+00 -2.86586460E-01  0.00000000E+00  0.00000000E+00
 -3.22553981E-01  0.00000000E+00  0.00000000E+00  0.00000000E+00 -1.31688515E-01
  0.00000000E+00  0.00000000E+00  0.00000000E+00  0.00000000E+00 -4.43542475E-01
  0.00000000E+00  0.00000000E+00  0.00000000E+00  0.00000000E+00  0.00000000E+00
  0.00000000E+00  0.00000000E+00 -3.30010477E-01  0.00000000E+00  0.00000000E+00
 -6.29402804E-01  0.00000000E+00  0.00000000E+00 -3.27335406E-01  0.00000000E+00
  0.00000000E+00  0.00000000E+00 -6.83941692E-02  0.00000000E+00  0.00000000E+00
  0.00000000E+00  0.00000000E+00  1.28662458E-01  0.00000000E+00  0.00000000E+00
  0.00000000E+00  0.00000000E+00  0.00000000E+00  0.00000000E+00  0.00000000E+00
  0.00000000E+00  0.00000000E+00  0.00000000E+00 -2.07190683E-16  0.00000000E+00
  0.00000000E+00 -1.74161247E-16  0.00000000E+00  0.00000000E+00  0.00000000E+00
  4.26073291E-01  0.00000000E+00  0.00000000E+00  0.00000000E+00  0.00000000E+00
  1.00000000E+00  0.00000000E+00  0.00000000E+00  0.00000000E+00  0.00000000E+00
  0.00000000E+00 -8.40991989E-02  0.00000000E+00  0.00000000E+00 -2.86586460E-01
  0.00000000E+00  0.00000000E+00 -3.22553981E-01  0.00000000E+00  0.00000000E+00
  0.00000000E+00 -1.31688515E-01  0.00000000E+00  0.00000000E+00  0.00000000E+00
  0.00000000E+00 -4.43542475E-01  0.00000000E+00  0.00000000E+00  0.00000000E+00
  0.00000000E+00  0.00000000E+00  0.00000000E+00  0.00000000E+00 -3.30010477E-01
  0.00000000E+00  0.00000000E+00 -6.29402804E-01  0.00000000E+00  0.00000000E+00
 -3.27335406E-01  0.00000000E+00  0.00000000E+00  0.00000000E+00 -6.83941692E-02
  0.00000000E+00  0.00000000E+00  0.00000000E+00  0.00000000E+00  1.28662458E-01
  0.00000000E+00  0.00000000E+00  0.00000000E+00  0.00000000E+00  0.00000000E+00
  0.00000000E+00  0.00000000E+00  0.00000000E+00  0.00000000E+00  0.00000000E+00
 -2.07190683E-16  0.00000000E+00  0.00000000E+00 -1.74161247E-16  0.00000000E+00
  0.00000000E+00  0.00000000E+00  4.26073291E-01  0.00000000E+00  0.00000000E+00
  0.00000000E+00  0.00000000E+00  1.00000000E+00  1.53253855E-19  3.23758873E-18
  4.04517464E-18  5.07624923E-18  0.00000000E+00  0.00000000E+00  3.12860468E-19
  0.00000000E+00  0.00000000E+00  1.97306355E-18  0.00000000E+00  0.00000000E+00
 -8.01431878E-18  8.09687302E-20  0.00000000E+00  0.00000000E+00  3.10937423E-02
  0.00000000E+00 -4.20467256E-18  0.00000000E+00  0.00000000E+00  1.98961561E-01
  0.00000000E+00  1.12684561E-18  8.24110033E-18 -1.87607125E-17 -2.08526242E-17
  0.00000000E+00  0.00000000E+00  7.98238647E-19  0.00000000E+00  0.00000000E+00
  3.91490007E-18  0.00000000E+00  0.00000000E+00  9.12943698E-18  2.13306953E-18
  0.00000000E+00  0.00000000E+00  2.21447654E-01  0.00000000E+00  6.18546383E-19
  0.00000000E+00  0.00000000E+00  6.67860689E-01  0.00000000E+00  1.33656906E-18
 -5.94919387E-18 -2.83320046E-17 -1.26821802E-17  0.00000000E+00  0.00000000E+00
  0.00000000E+00  0.00000000E+00  0.00000000E+00 -5.96015979E-34  0.00000000E+00
  0.00000000E+00  4.72978868E-34  5.68579452E-18  0.00000000E+00  0.00000000E+00
  4.26073291E-01  0.00000000E+00 -4.95805605E-18  0.00000000E+00  0.00000000E+00
  1.00000000E+00  0.00000000E+00  0.00000000E+00  0.00000000E+00  0.00000000E+00
  0.00000000E+00  0.00000000E+00  0.00000000E+00  0.00000000E+00  0.00000000E+00
  0.00000000E+00  0.00000000E+00  0.00000000E+00  0.00000000E+00  0.00000000E+00
  0.00000000E+00  0.00000000E+00  0.00000000E+00  3.10937423E-02  0.00000000E+00
  0.00000000E+00  0.00000000E+00  0.00000000E+00  1.98961561E-01  0.00000000E+00
  0.00000000E+00  0.00000000E+00  0.00000000E+00  0.00000000E+00  0.00000000E+00
  0.00000000E+00  0.00000000E+00  0.00000000E+00  0.00000000E+00  0.00000000E+00
  0.00000000E+00  0.00000000E+00  0.00000000E+00  0.00000000E+00  0.00000000E+00
  0.00000000E+00  2.21447654E-01  0.00000000E+00  0.00000000E+00  0.00000000E+00
  0.00000000E+00  6.67860689E-01  0.00000000E+00  0.00000000E+00  0.00000000E+00
  0.00000000E+00  0.00000000E+00  0.00000000E+00  0.00000000E+00  0.00000000E+00
  0.00000000E+00  0.00000000E+00  0.00000000E+00  0.00000000E+00  0.00000000E+00
  0.00000000E+00  0.00000000E+00  0.00000000E+00  0.00000000E+00  4.26073291E-01
  0.00000000E+00  0.00000000E+00  0.00000000E+00  0.00000000E+00  1.00000000E+00
Kinetic Energy Matrix                      R   N=        2415
  2.30467957E+00  5.49013001E-01  4.88700000E-01  1.06269592E-01  1.84799950E-01
  1.54050000E-01  1.05945050E-02  2.61297722E-02  4.32003536E-02  3.78900000E-02
  0.00000000E+00  0.00000000E+00  0.00000000E+00  0.00000000E+00  3.51750000E+00
  0.00000000E+00  0.00000000E+00  0.00000000E+00  0.00000000E+00  0.00000000E+00
  3.51750000E+00  0.00000000E+00  0.00000000E+00  0.00000000E+00  0.00000000E+00
  0.00000000E+00  0.00000000E+00  3.51750000E+00  0.00000000E+00  0.00000000E+00
  0.00000000E+00  0.00000000E+00  9.35088057E-01  0.00000000E+00  0.00000000E+00
  9.70000000E-01  0.00000000E+00  0.00000000E+00  0.00000000E+00  0.00000000E+00
  0.00000000E+00  9.35088057E-01  0.00000000E+00  0.00000000E+00  9.70000000E-01
  0.00000000E+00  0.00000000E+00  0.00000000E+00  0.00000000E+00  0.00000000E+00
  0.00000000E+00  9.35088057E-01  0.00000000E+00  0.00000000E+00  9.70000000E-01
  0.00000000E+00  0.00000000E+00  0.00000000E+00  0.00000000E+00  8.49463573E-02
  0.00000000E+00  0.00000000E+00  2.39927751E-01  0.00000000E+00  0.00000000E+00
  2.55000000E-01  0.00000000E+00  0.00000000E+00  0.00000000E+00  0.00000000E+00
  0.00000000E+00  8.49463573E-02  0.00000000E+00  0.00000000E+00  2.39927751E-01
  0.00000000E+00  0.00000000E+00  2.55000000E-01  0.00000000E+00  0.00000000E+00
  0.00000000E+00  0.00000000E+00  0.00000000E+00  0.00000000E+00  8.49463573E-02
  0.00000000E+00  0.00000000E+00  2.39927751E-01  0.00000000E+00  0.00000000E+00
  2.55000000E-01  0.00000000E+00  0.00000000E+00 -4.44089210E-16  0.00000000E+00
  0.00000000E+00  0.00000000E+00  0.00000000E+00  0.00000000E+00  0.00000000E+00
  0.00000000E+00  0.00000000E+00  0.00000000E+00  0.00000000E+00  3.69950000E+00
  0.00000000E+00  0.00000000E+00  0.00000000E+00  0.00000000E+00  0.00000000E+00
  0.00000000E+00  0.00000000E+00  0.00000000E+00  0.00000000E+00  0.00000000E+00
  0.00000000E+00  0.00000000E+00  0.00000000E+00  0.00000000E+00  3.69950000E+00
  0.00000000E+00  0.00000000E+00  0.00000000E+00  0.00000000E+00  0.00000000E+00
  0.00000000E+00  0.00000000E+00  0.00000000E+00  0.00000000E+00  0.00000000E+00
  0.00000000E+00  0.00000000E+00  0.00000000E+00  0.00000000E+00  0.00000000E+00
  3.69950000E+00  3.23694547E-18 -4.77966341E-18  6.77092070E-19 -6.78928523E-19
  0.00000000E+00  0.00000000E+00  0.00000000E+00  0.00000000E+00  0.00000000E+00
  0.00000000E+00  0.00000000E+00  0.00000000E+00  0.00000000E+00 -7.23594526E-17
  0.00000000E+00  0.00000000E+00  3.69950000E+00  0.00000000E+00  0.00000000E+00
  0.00000000E+00  0.00000000E+00  0.00000000E+00  0.00000000E+00  0.00000000E+00
  0.00000000E+00  0.00000000E+00  0.00000000E+00  0.00000000E+00  0.00000000E+00
  0.00000000E+00  0.00000000E+00  0.00000000E+00  0.00000000E+00  0.00000000E+00
  3.69950000E+00  5.55111512E-17  0.00000000E+00  0.00000000E+00  0.00000000E+00
  0.00000000E+00  0.00000000E+00  0.00000000E+00  0.00000000E+00  0.00000000E+00
  0.00000000E+00  0.00000000E+00  0.00000000E+00  0.00000000E+00  5.97140737E-01
  0.00000000E+00  0.00000000E+00 -4.81360961E-18  0.00000000E+00  8.64500000E-01
  0.00000000E+00  0.00000000E+00  0.00000000E+00  0.00000000E+00  0.00000000E+00
  0.00000000E+00  0.00000000E+00  0.00000000E+00  0.00000000E+00  0.00000000E+00
  0.00000000E+00  0.00000000E+00  0.00000000E+00  0.00000000E+00  5.97140737E-01
  0.00000000E+00  0.00000000E+00  0.00000000E+00  0.00000000E+00  8.64500000E-01
  0.00000000E+00  0.00000000E+00  0.00000000E+00  0.00000000E+00  0.00000000E+00
  0.00000000E+00  0.00000000E+00  0.00000000E+00  0.00000000E+00  0.00000000E+00
  0.00000000E+00  0.00000000E+00  0.00000000E+00  0.00000000E+00  0.00000000E+00
  5.97140737E-01  0.00000000E+00  0.00000000E+00  0.00000000E+00  0.00000000E+00
  8.64500000E-01 -4.14016277E-19  1.00155171E-18 -4.33662876E-18  3.70999418E-20
  0.00000000E+00  0.00000000E+00  0.00000000E+00  0.00000000E+00  0.00000000E+00
  0.00000000E+00  0.00000000E+00  0.00000000E+00  0.00000000E+00  9.55397079E-18
  0.00000000E+00  0.00000000E+00  5.97140737E-01  0.00000000E+00 -1.34936179E-17
  0.00000000E+00  0.00000000E+00  8.64500000E-01  0.00000000E+00  0.00000000E+00
  0.00000000E+00  0.00000000E+00  0.00000000E+00  0.00000000E+00  0.00000000E+00
  0.00000000E+00  0.00000000E+00  0.00000000E+00  0.00000000E+00  0.00000000E+00
  0.00000000E+00  0.00000000E+00  0.00000000E+00  0.00000000E+00  0.00000000E+00
  5.97140737E-01  0.00000000E+00  0.00000000E+00  0.00000000E+00  0.00000000E+00
  8.64500000E-01 -8.17714257E-02  1.02302337E-01  6.18312603E-02  9.24419314E-03
  0.00000000E+00  0.00000000E+00  7.71116591E-02  0.00000000E+00  0.00000000E+00
  4.48886538E-01  0.00000000E+00  0.00000000E+00  1.20476414E-01  6.14747703E-01
  0.00000000E+00  0.00000000E+00 -4.09805574E-19  0.00000000E+00  4.79580127E-01
  0.00000000E+00  0.00000000E+00 -1.20021771E-18  0.00000000E+00  2.30467957E+00
  1.02302337E-01  1.85101644E-01  1.18813894E-01  2.29662591E-02  0.00000000E+00
  0.00000000E+00  2.03021088E-01  0.00000000E+00  0.00000000E+00  3.89882366E-01
  0.00000000E+00  0.00000000E+00  1.87311093E-01  2.05296124E-01  0.00000000E+00
  0.00000000E+00  1.80237649E-18  0.00000000E+00  3.20960583E-01  0.00000000E+00
  0.00000000E+00 -1.03388594E-18  0.00000000E+00  5.49013001E-01  4.88700000E-01
  6.18312603E-02  1.18813894E-01  1.15675416E-01  3.86445937E-02  0.00000000E+00
  0.00000000E+00  3.19269590E-02  0.00000000E+00  0.00000000E+00  9.62800999E-02
  0.00000000E+00  0.00000000E+00  1.17018928E-01  1.18011464E-02  0.00000000E+00
  0.00000000E+00  2.50779856E-18  0.00000000E+00  5.22064567E-02  0.00000000E+00
  0.00000000E+00 -2.10151833E-18  0.00000000E+00  1.06269592E-01  1.84799950E-01
  1.54050000E-01  9.24419314E-03  2.29662591E-02  3.86445937E-02  3.53571931E-02
  0.00000000E+00  0.00000000E+00  1.13094976E-03  0.00000000E+00  0.00000000E+00
  4.85457339E-03  0.00000000E+00  0.00000000E+00  1.50641253E-02  1.12246993E-04
  0.00000000E+00  0.00000000E+00  3.28164340E-19  0.00000000E+00  1.03315941E-03
  0.00000000E+00  0.00000000E+00 -1.07740543E-18  0.00000000E+00  1.05945050E-02
  2.61297722E-02  4.32003536E-02  3.78900000E-02  0.00000000E+00  0.00000000E+00
  0.00000000E+00  0.00000000E+00  2.83293357E-02  0.00000000E+00  0.00000000E+00
  2.08465479E-01  0.00000000E+00  0.00000000E+00  5.45111399E-02  0.00000000E+00
  0.00000000E+00  0.00000000E+00  5.30601572E-01  0.00000000E+00  0.00000000E+00
  0.00000000E+00  0.00000000E+00  3.90148368E-01  0.00000000E+00  0.00000000E+00
  0.00000000E+00  0.00000000E+00  0.00000000E+00  0.00000000E+00  0.00000000E+00
  3.51750000E+00  0.00000000E+00  0.00000000E+00  0.00000000E+00  0.00000000E+00
  0.00000000E+00  2.83293357E-02  0.00000000E+00  0.00000000E+00  2.08465479E-01
  0.00000000E+00  0.00000000E+00  5.45111399E-02  0.00000000E+00  0.00000000E+00
  0.00000000E+00  5.30601572E-01  0.00000000E+00  0.00000000E+00  0.00000000E+00
  0.00000000E+00  3.90148368E-01  0.00000000E+00  0.00000000E+00  0.00000000E+00
  0.00000000E+00  0.00000000E+00  0.00000000E+00  0.00000000E+00  3.51750000E+00
 -7.71116591E-02 -2.03021088E-01 -3.19269590E-02 -1.13094976E-03  0.00000000E+00
  0.00000000E+00 -7.51094200E-01  0.00000000E+00  0.00000000E+00 -4.81167120E-01
  0.00000000E+00  0.00000000E+00  5.14228788E-03 -1.38732874E+00  0.00000000E+00
  0.00000000E+00  3.17507833E-18  0.00000000E+00  3.11562047E-02  0.00000000E+00
  0.00000000E+00 -1.34809256E-18  0.00000000E+00  0.00000000E+00  0.00000000E+00
  0.00000000E+00  0.00000000E+00  0.00000000E+00  0.00000000E+00  3.51750000E+00
  0.00000000E+00  0.00000000E+00  0.00000000E+00  0.00000000E+00  2.08465479E-01
  0.00000000E+00  0.00000000E+00  3.84021515E-01  0.00000000E+00  0.00000000E+00
  1.64805469E-01  0.00000000E+00  0.00000000E+00  0.00000000E+00  4.26360959E-01
  0.00000000E+00  0.00000000E+00  0.00000000E+00  0.00000000E+00  5.71224950E-01
  0.00000000E+00  0.00000000E+00  0.00000000E+00  0.00000000E+00  0.00000000E+00
  0.00000000E+00  0.00000000E+00  9.35088057E-01  0.00000000E+00  0.00000000E+00
  9.70000000E-01  0.00000000E+00  0.00000000E+00  0.00000000E+00  0.00000000E+00
  0.00000000E+00  2.08465479E-01  0.00000000E+00  0.00000000E+00  3.84021515E-01
  0.00000000E+00  0.00000000E+00  1.64805469E-01  0.00000000E+00  0.00000000E+00
  0.00000000E+00  4.26360959E-01  0.00000000E+00  0.00000000E+00  0.00000000E+00
  0.00000000E+00  5.71224950E-01  0.00000000E+00  0.00000000E+00  0.00000000E+00
  0.00000000E+00  0.00000000E+00  0.00000000E+00  0.00000000E+00  9.35088057E-01
  0.00000000E+00  0.00000000E+00  9.70000000E-01 -4.48886538E-01 -3.89882366E-01
 -9.62800999E-02 -4.85457339E-03  0.00000000E+00  0.00000000E+00 -4.81167120E-01
  0.00000000E+00  0.00000000E+00 -3.63960521E-01  0.00000000E+00  0.00000000E+00
  3.88819813E-02 -1.41904228E-01  0.00000000E+00  0.00000000E+00 -1.57178205E-17
  0.00000000E+00  2.26021832E-01  0.00000000E+00  0.00000000E+00  1.00883438E-18
  0.00000000E+00  0.00000000E+00  0.00000000E+00  0.00000000E+00  0.00000000E+00
  0.00000000E+00  0.00000000E+00  9.35088057E-01  0.00000000E+00  0.00000000E+00
  9.70000000E-01  0.00000000E+00  0.00000000E+00  0.00000000E+00  0.00000000E+00
  5.45111399E-02  0.00000000E+00  0.00000000E+00  1.64805469E-01  0.00000000E+00
  0.00000000E+00  2.01456545E-01  0.00000000E+00  0.00000000E+00  0.00000000E+00
  3.46851609E-02  0.00000000E+00  0.00000000E+00  0.00000000E+00  0.00000000E+00
  1.54256734E-01  0.00000000E+00  0.00000000E+00  0.00000000E+00  0.00000000E+00
  0.00000000E+00  0.00000000E+00  0.00000000E+00  8.49463573E-02  0.00000000E+00
  0.00000000E+00  2.39927751E-01  0.00000000E+00  0.00000000E+00  2.55000000E-01
  0.00000000E+00  0.00000000E+00  0.00000000E+00  0.00000000E+00  0.00000000E+00
  5.45111399E-02  0.00000000E+00  0.00000000E+00  1.64805469E-01  0.00000000E+00
  0.00000000E+00  2.01456545E-01  0.00000000E+00  0.00000000E+00  0.00000000E+00
  3.46851609E-02  0.00000000E+00  0.00000000E+00  0.00000000E+00  0.00000000E+00
  1.54256734E-01  0.00000000E+00  0.00000000E+00  0.00000000E+00  0.00000000E+00
  0.00000000E+00  0.00000000E+00  0.00000000E+00  8.49463573E-02  0.00000000E+00
  0.00000000E+00  2.39927751E-01  0.00000000E+00  0.00000000E+00  2.55000000E-01
 -1.20476414E-01 -1.87311093E-01 -1.17018928E-01 -1.50641253E-02  0.00000000E+00
  0.00000000E+00  5.14228788E-03  0.00000000E+00  0.00000000E+00  3.88819813E-02
  0.00000000E+00  0.00000000E+00  1.05512385E-01  2.40639164E-02  0.00000000E+00
  0.00000000E+00  6.72009992E-18  0.00000000E+00  1.23218824E-01  0.00000000E+00
  0.00000000E+00  6.37011512E-18  0.00000000E+00  0.00000000E+00  0.00000000E+00
  0.00000000E+00  0.00000000E+00  0.00000000E+00  0.00000000E+00  8.49463573E-02
  0.00000000E+00  0.00000000E+00  2.39927751E-01  0.00000000E+00  0.00000000E+00
  2.55000000E-01  6.14747703E-01  2.05296124E-01  1.18011464E-02  1.12246993E-04
  0.00000000E+00  0.00000000E+00  1.38732874E+00  0.00000000E+00  0.00000000E+00
  1.41904228E-01  0.00000000E+00  0.00000000E+00 -2.40639164E-02  7.53398171E-01
  0.00000000E+00  0.00000000E+00  5.06904572E-19  0.00000000E+00 -9.74059904E-02
  0.00000000E+00  0.00000000E+00 -5.59897182E-18  0.00000000E+00  0.00000000E+00
  0.00000000E+00 -4.44089210E-16  0.00000000E+00  0.00000000E+00  0.00000000E+00
  0.00000000E+00  0.00000000E+00  0.00000000E+00  0.00000000E+00  0.00000000E+00
  0.00000000E+00  0.00000000E+00  3.69950000E+00  0.00000000E+00  0.00000000E+00
  0.00000000E+00  0.00000000E+00 -5.30601572E-01  0.00000000E+00  0.00000000E+00
 -4.26360959E-01  0.00000000E+00  0.00000000E+00 -3.46851609E-02  0.00000000E+00
  0.00000000E+00  0.00000000E+00 -1.46665465E+00  0.00000000E+00  0.00000000E+00
  0.00000000E+00  0.00000000E+00 -1.93970272E-01  0.00000000E+00  0.00000000E+00
  0.00000000E+00  0.00000000E+00  0.00000000E+00  0.00000000E+00  0.00000000E+00
  0.00000000E+00  0.00000000E+00  0.00000000E+00  0.00000000E+00  0.00000000E+00
  0.00000000E+00  0.00000000E+00  0.00000000E+00  0.00000000E+00  0.00000000E+00
  3.69950000E+00  0.00000000E+00  0.00000000E+00  0.00000000E+00  0.00000000E+00
  0.00000000E+00 -5.30601572E-01  0.00000000E+00  0.00000000E+00 -4.26360959E-01
  0.00000000E+00  0.00000000E+00 -3.46851609E-02  0.00000000E+00  0.00000000E+00
  0.00000000E+00 -1.46665465E+00  0.00000000E+00  0.00000000E+00  0.00000000E+00
  0.00000000E+00 -1.93970272E-01  0.00000000E+00  0.00000000E+00  0.00000000E+00
  0.00000000E+00  0.00000000E+00  0.00000000E+00  0.00000000E+00  0.00000000E+00
  0.00000000E+00  0.00000000E+00  0.00000000E+00  0.00000000E+00  0.00000000E+00
  0.00000000E+00  0.00000000E+00  0.00000000E+00  0.00000000E+00  3.69950000E+00
 -4.09805574E-19  1.80237649E-18  2.50779856E-18  3.28164340E-19  0.00000000E+00
  0.00000000E+00 -3.17507833E-18  0.00000000E+00  0.00000000E+00  1.57178205E-17
  0.00000000E+00  0.00000000E+00 -6.72009992E-18 -3.03525010E-18  0.00000000E+00
  0.00000000E+00  3.33060765E-01  0.00000000E+00  2.20921051E-18  0.00000000E+00
  0.00000000E+00  2.52344328E-01  0.00000000E+00  3.23694547E-18 -4.77966341E-18
  6.77092070E-19 -6.78928523E-19  0.00000000E+00  0.00000000E+00  0.00000000E+00
  0.00000000E+00  0.00000000E+00  0.00000000E+00  0.00000000E+00  0.00000000E+00
  0.00000000E+00 -7.23594526E-17  0.00000000E+00  0.00000000E+00  3.69950000E+00
  0.00000000E+00  0.00000000E+00  0.00000000E+00  0.00000000E+00  0.00000000E+00
  0.00000000E+00  0.00000000E+00  0.00000000E+00  0.00000000E+00  0.00000000E+00
  0.00000000E+00  0.00000000E+00  0.00000000E+00  0.00000000E+00  0.00000000E+00
  0.00000000E+00  0.00000000E+00  3.33060765E-01  0.00000000E+00  0.00000000E+00
  0.00000000E+00  0.00000000E+00  2.52344328E-01  0.00000000E+00  0.00000000E+00
  0.00000000E+00  0.00000000E+00  0.00000000E+00  0.00000000E+00  0.00000000E+00
  0.00000000E+00  0.00000000E+00  0.00000000E+00  0.00000000E+00  0.00000000E+00
  0.00000000E+00  0.00000000E+00  0.00000000E+00  0.00000000E+00  0.00000000E+00
  3.69950000E+00  4.79580127E-01  3.20960583E-01  5.22064567E-02  1.03315941E-03
  0.00000000E+00  0.00000000E+00 -3.11562047E-02  0.00000000E+00  0.00000000E+00
 -2.26021832E-01  0.00000000E+00  0.00000000E+00 -1.23218824E-01 -9.74059904E-02
  0.00000000E+00  0.00000000E+00  2.26598650E-17  0.00000000E+00 -3.39477822E-02
  0.00000000E+00  0.00000000E+00 -6.00022941E-19  0.00000000E+00  5.55111512E-17
  0.00000000E+00  0.00000000E+00  0.00000000E+00  0.00000000E+00  0.00000000E+00
  0.00000000E+00  0.00000000E+00  0.00000000E+00  0.00000000E+00  0.00000000E+00
  0.00000000E+00  0.00000000E+00  5.97140737E-01  0.00000000E+00  0.00000000E+00
 -4.81360961E-18  0.00000000E+00  8.64500000E-01  0.00000000E+00  0.00000000E+00
  0.00000000E+00  0.00000000E+00 -3.90148368E-01  0.00000000E+00  0.00000000E+00
 -5.71224950E-01  0.00000000E+00  0.00000000E+00 -1.54256734E-01  0.00000000E+00
  0.00000000E+00  0.00000000E+00 -1.93970272E-01  0.00000000E+00  0.00000000E+00
  0.00000000E+00  0.00000000E+00 -3.47421017E-02  0.00000000E+00  0.00000000E+00
  0.00000000E+00  0.00000000E+00  0.00000000E+00  0.00000000E+00  0.00000000E+00
  0.00000000E+00  0.00000000E+00  0.00000000E+00  0.00000000E+00  0.00000000E+00
  0.00000000E+00  0.00000000E+00  0.00000000E+00  0.00000000E+00  0.00000000E+00
  5.97140737E-01  0.00000000E+00  0.00000000E+00  0.00000000E+00  0.00000000E+00
  8.64500000E-01  0.00000000E+00  0.00000000E+00  0.00000000E+00  0.00000000E+00
  0.00000000E+00 -3.90148368E-01  0.00000000E+00  0.00000000E+00 -5.71224950E-01
  0.00000000E+00  0.00000000E+00 -1.54256734E-01  0.00000000E+00  0.00000000E+00
  0.00000000E+00 -1.93970272E-01  0.00000000E+00  0.00000000E+00  0.00000000E+00
  0.00000000E+00 -3.47421017E-02  0.00000000E+00  0.00000000E+00  0.00000000E+00
  0.00000000E+00  0.00000000E+00  0.00000000E+00  0.00000000E+00  0.00000000E+00
  0.00000000E+00  0.00000000E+00  0.00000000E+00  0.00000000E+00  0.00000000E+00
  0.00000000E+00  0.00000000E+00  0.00000000E+00  0.00000000E+00  5.97140737E-01
  0.00000000E+00  0.00000000E+00  0.00000000E+00  0.00000000E+00  8.64500000E-01
 -1.20021771E-18 -1.03388594E-18 -2.10151833E-18 -1.07740543E-18  0.00000000E+00
  0.00000000E+00  1.34809256E-18  0.00000000E+00  0.00000000E+00 -1.00883438E-18
  0.00000000E+00  0.00000000E+00 -6.37011512E-18 -8.82722787E-19  0.00000000E+00
  0.00000000E+00  2.52344328E-01  0.00000000E+00 -3.52237549E-18  0.00000000E+00
  0.00000000E+00  5.10794543E-01  0.00000000E+00 -4.14016277E-19  1.00155171E-18
 -4.33662876E-18  3.70999418E-20  0.00000000E+00  0.00000000E+00  0.00000000E+00
  0.00000000E+00  0.00000000E+00  0.00000000E+00  0.00000000E+00  0.00000000E+00
  0.00000000E+00  9.55397079E-18  0.00000000E+00  0.00000000E+00  5.97140737E-01
  0.00000000E+00 -1.34936179E-17  0.00000000E+00  0.00000000E+00  8.64500000E-01
  0.00000000E+00  0.00000000E+00  0.00000000E+00  0.00000000E+00  0.00000000E+00
  0.00000000E+00  0.00000000E+00  0.00000000E+00  0.00000000E+00  0.00000000E+00
  0.00000000E+00  0.00000000E+00  0.00000000E+00  0.00000000E+00  0.00000000E+00
  0.00000000E+00  0.00000000E+00  2.52344328E-01  0.00000000E+00  0.00000000E+00
  0.00000000E+00  0.00000000E+00  5.10794543E-01  0.00000000E+00  0.00000000E+00
  0.00000000E+00  0.00000000E+00  0.00000000E+00  0.00000000E+00  0.00000000E+00
  0.00000000E+00  0.00000000E+00  0.00000000E+00  0.00000000E+00  0.00000000E+00
  0.00000000E+00  0.00000000E+00  0.00000000E+00  0.00000000E+00  0.00000000E+00
  5.97140737E-01  0.00000000E+00  0.00000000E+00  0.00000000E+00  0.00000000E+00
  8.64500000E-01 -2.64042934E-03 -2.32308719E-02  5.33537063E-03  6.01177284E-03
  0.00000000E+00  0.00000000E+00 -5.97730700E-03  0.00000000E+00  0.00000000E+00
 -4.35786351E-02  0.00000000E+00  0.00000000E+00  5.52930665E-02 -2.26423830E-02
  0.00000000E+00  0.00000000E+00  1.91663467E-19  0.00000000E+00  7.15818601E-02
  0.00000000E+00  0.00000000E+00  7.36649114E-19  0.00000000E+00 -8.17791956E-02
  1.02286313E-01  6.18286791E-02  9.24409986E-03  0.00000000E+00  0.00000000E+00
  7.70590648E-02  0.00000000E+00  0.00000000E+00  4.48849953E-01  0.00000000E+00
  0.00000000E+00  1.20476866E-01  6.14648450E-01  0.00000000E+00  0.00000000E+00
  4.81082835E-18  0.00000000E+00  4.79583017E-01  0.00000000E+00  0.00000000E+00
 -5.64278308E-18  0.00000000E+00  2.30467957E+00 -2.32308719E-02 -2.43884005E-02
  2.12654356E-02  1.53026091E-02  0.00000000E+00  0.00000000E+00 -1.77850440E-02
  0.00000000E+00  0.00000000E+00  1.32006162E-02  0.00000000E+00  0.00000000E+00
  1.15589579E-01  6.49081157E-03  0.00000000E+00  0.00000000E+00 -1.08388476E-18
  0.00000000E+00  1.77095294E-01  0.00000000E+00  0.00000000E+00 -3.43967248E-18
  0.00000000E+00  1.02286313E-01  1.85086981E-01  1.18809893E-01  2.29660399E-02
  0.00000000E+00  0.00000000E+00  2.03007817E-01  0.00000000E+00  0.00000000E+00
  3.89871522E-01  0.00000000E+00  0.00000000E+00  1.87312917E-01  2.05294366E-01
  0.00000000E+00  0.00000000E+00  1.53458355E-19  0.00000000E+00  3.20969737E-01
  0.00000000E+00  0.00000000E+00 -1.31056850E-18  0.00000000E+00  5.49013001E-01
  4.88700000E-01  5.33537063E-03  2.12654356E-02  4.34886801E-02  2.72853896E-02
  0.00000000E+00  0.00000000E+00  1.42609503E-02  0.00000000E+00  0.00000000E+00
  5.59002227E-02  0.00000000E+00  0.00000000E+00  1.11217776E-01  1.34352732E-02
  0.00000000E+00  0.00000000E+00  1.92315595E-19  0.00000000E+00  8.01863598E-02
  0.00000000E+00  0.00000000E+00 -4.11694256E-19  0.00000000E+00  6.18286791E-02
  1.18809893E-01  1.15672929E-01  3.86442756E-02  0.00000000E+00  0.00000000E+00
  3.19270620E-02  0.00000000E+00  0.00000000E+00  9.62809157E-02  0.00000000E+00
  0.00000000E+00  1.17021163E-01  1.18016630E-02  0.00000000E+00  0.00000000E+00
 -8.47282093E-20  0.00000000E+00  5.22090934E-02  0.00000000E+00  0.00000000E+00
 -2.62203718E-18  0.00000000E+00  1.06269592E-01  1.84799950E-01  1.54050000E-01
  6.01177284E-03  1.53026091E-02  2.72853896E-02  2.85865008E-02  0.00000000E+00
  0.00000000E+00  1.59501345E-03  0.00000000E+00  0.00000000E+00  6.95606185E-03
  0.00000000E+00  0.00000000E+00  2.26886832E-02  3.27585479E-04  0.00000000E+00
  0.00000000E+00 -3.45424410E-19  0.00000000E+00  3.08448350E-03  0.00000000E+00
  0.00000000E+00  6.98251269E-19  0.00000000E+00  9.24409986E-03  2.29660399E-02
  3.86442756E-02  3.53570131E-02  0.00000000E+00  0.00000000E+00  1.13098165E-03
  0.00000000E+00  0.00000000E+00  4.85471209E-03  0.00000000E+00  0.00000000E+00
  1.50645735E-02  1.12254350E-04  0.00000000E+00  0.00000000E+00  7.56260076E-19
  0.00000000E+00  1.03322769E-03  0.00000000E+00  0.00000000E+00 -1.34671201E-18
  0.00000000E+00  1.05945050E-02  2.61297722E-02  4.32003536E-02  3.78900000E-02
  0.00000000E+00  0.00000000E+00  0.00000000E+00  0.00000000E+00 -9.54446898E-04
  0.00000000E+00  0.00000000E+00 -1.03564829E-02  0.00000000E+00  0.00000000E+00
  1.23137790E-02  0.00000000E+00  0.00000000E+00  0.00000000E+00 -8.20592285E-03
  0.00000000E+00  0.00000000E+00  0.00000000E+00  0.00000000E+00  2.66102068E-02
  0.00000000E+00  0.00000000E+00  0.00000000E+00  0.00000000E+00  0.00000000E+00
  0.00000000E+00  0.00000000E+00  2.83008246E-02  0.00000000E+00  0.00000000E+00
  2.08440250E-01  0.00000000E+00  0.00000000E+00  5.45093337E-02  0.00000000E+00
  0.00000000E+00  0.00000000E+00  5.30494255E-01  0.00000000E+00  0.00000000E+00
  0.00000000E+00  0.00000000E+00  3.90136068E-01  0.00000000E+00  0.00000000E+00
  0.00000000E+00  0.00000000E+00  0.00000000E+00  0.00000000E+00  0.00000000E+00
  3.51750000E+00  0.00000000E+00  0.00000000E+00  0.00000000E+00  0.00000000E+00
  0.00000000E+00 -9.54446898E-04  0.00000000E+00  0.00000000E+00 -1.03564829E-02
  0.00000000E+00  0.00000000E+00  1.23137790E-02  0.00000000E+00  0.00000000E+00
  0.00000000E+00 -8.20592285E-03  0.00000000E+00  0.00000000E+00  0.00000000E+00
  0.00000000E+00  2.66102068E-02  0.00000000E+00  0.00000000E+00  0.00000000E+00
  0.00000000E+00  0.00000000E+00  0.00000000E+00  0.00000000E+00  2.83008246E-02
  0.00000000E+00  0.00000000E+00  2.08440250E-01  0.00000000E+00  0.00000000E+00
  5.45093337E-02  0.00000000E+00  0.00000000E+00  0.00000000E+00  5.30494255E-01
  0.00000000E+00  0.00000000E+00  0.00000000E+00  0.00000000E+00  3.90136068E-01
  0.00000000E+00  0.00000000E+00  0.00000000E+00  0.00000000E+00  0.00000000E+00
  0.00000000E+00  0.00000000E+00  3.51750000E+00  5.97730700E-03  1.77850440E-02
 -1.42609503E-02 -1.59501345E-03  0.00000000E+00  0.00000000E+00  1.39813424E-02
  0.00000000E+00  0.00000000E+00  1.62124337E-02  0.00000000E+00  0.00000000E+00
 -4.26776926E-02  4.82680326E-02  0.00000000E+00  0.00000000E+00  7.76918563E-20
  0.00000000E+00 -1.65782699E-01  0.00000000E+00  0.00000000E+00  1.71843474E-18
  0.00000000E+00 -7.70590648E-02 -2.03007817E-01 -3.19270620E-02 -1.13098165E-03
  0.00000000E+00  0.00000000E+00 -7.50939408E-01  0.00000000E+00  0.00000000E+00
 -4.81172633E-01  0.00000000E+00  0.00000000E+00  5.13834442E-03 -1.38726925E+00
  0.00000000E+00  0.00000000E+00  4.65789199E-18  0.00000000E+00  3.11225750E-02
  0.00000000E+00  0.00000000E+00  2.30445286E-18  0.00000000E+00  0.00000000E+00
  0.00000000E+00  0.00000000E+00  0.00000000E+00  0.00000000E+00  0.00000000E+00
  3.51750000E+00  0.00000000E+00  0.00000000E+00  0.00000000E+00  0.00000000E+00
 -1.03564829E-02  0.00000000E+00  0.00000000E+00 -1.11677635E-03  0.00000000E+00
  0.00000000E+00  4.82087124E-02  0.00000000E+00  0.00000000E+00  0.00000000E+00
 -4.31887907E-03  0.00000000E+00  0.00000000E+00  0.00000000E+00  0.00000000E+00
  1.32078179E-01  0.00000000E+00  0.00000000E+00  0.00000000E+00  0.00000000E+00
  0.00000000E+00  0.00000000E+00  0.00000000E+00  2.08440250E-01  0.00000000E+00
  0.00000000E+00  3.83994150E-01  0.00000000E+00  0.00000000E+00  1.64800862E-01
  0.00000000E+00  0.00000000E+00  0.00000000E+00  4.26336369E-01  0.00000000E+00
  0.00000000E+00  0.00000000E+00  0.00000000E+00  5.71218373E-01  0.00000000E+00
  0.00000000E+00  0.00000000E+00  0.00000000E+00  0.00000000E+00  0.00000000E+00
  0.00000000E+00  9.35088057E-01  0.00000000E+00  0.00000000E+00  9.70000000E-01
  0.00000000E+00  0.00000000E+00  0.00000000E+00  0.00000000E+00  0.00000000E+00
 -1.03564829E-02  0.00000000E+00  0.00000000E+00 -1.11677635E-03  0.00000000E+00
  0.00000000E+00  4.82087124E-02  0.00000000E+00  0.00000000E+00  0.00000000E+00
 -4.31887907E-03  0.00000000E+00  0.00000000E+00  0.00000000E+00  0.00000000E+00
  1.32078179E-01  0.00000000E+00  0.00000000E+00  0.00000000E+00  0.00000000E+00
  0.00000000E+00  0.00000000E+00  0.00000000E+00  2.08440250E-01  0.00000000E+00
  0.00000000E+00  3.83994150E-01  0.00000000E+00  0.00000000E+00  1.64800862E-01
  0.00000000E+00  0.00000000E+00  0.00000000E+00  4.26336369E-01  0.00000000E+00
  0.00000000E+00  0.00000000E+00  0.00000000E+00  5.71218373E-01  0.00000000E+00
  0.00000000E+00  0.00000000E+00  0.00000000E+00  0.00000000E+00  0.00000000E+00
  0.00000000E+00  9.35088057E-01  0.00000000E+00  0.00000000E+00  9.70000000E-01
  4.35786351E-02 -1.32006162E-02 -5.59002227E-02 -6.95606185E-03  0.00000000E+00
  0.00000000E+00  1.62124337E-02  0.00000000E+00  0.00000000E+00 -1.51243478E-01
  0.00000000E+00  0.00000000E+00 -1.24108866E-01 -7.43341241E-02  0.00000000E+00
  0.00000000E+00 -1.38424044E-18  0.00000000E+00 -3.45513578E-01  0.00000000E+00
  0.00000000E+00  3.59997495E-19  0.00000000E+00 -4.48849953E-01 -3.89871522E-01
 -9.62809157E-02 -4.85471209E-03  0.00000000E+00  0.00000000E+00 -4.81172633E-01
  0.00000000E+00  0.00000000E+00 -3.63995803E-01  0.00000000E+00  0.00000000E+00
  3.88713446E-02 -1.41947132E-01  0.00000000E+00  0.00000000E+00 -2.27300270E-17
  0.00000000E+00  2.25986207E-01  0.00000000E+00  0.00000000E+00 -1.44459554E-18
  0.00000000E+00  0.00000000E+00  0.00000000E+00  0.00000000E+00  0.00000000E+00
  0.00000000E+00  0.00000000E+00  9.35088057E-01  0.00000000E+00  0.00000000E+00
  9.70000000E-01  0.00000000E+00  0.00000000E+00  0.00000000E+00  0.00000000E+00
  1.23137790E-02  0.00000000E+00  0.00000000E+00  4.82087124E-02  0.00000000E+00
  0.00000000E+00  9.59927926E-02  0.00000000E+00  0.00000000E+00  0.00000000E+00
  1.99111563E-02  0.00000000E+00  0.00000000E+00  0.00000000E+00  0.00000000E+00
  1.19041501E-01  0.00000000E+00  0.00000000E+00  0.00000000E+00  0.00000000E+00
  0.00000000E+00  0.00000000E+00  0.00000000E+00  5.45093337E-02  0.00000000E+00
  0.00000000E+00  1.64800862E-01  0.00000000E+00  0.00000000E+00  2.01453035E-01
  0.00000000E+00  0.00000000E+00  0.00000000E+00  3.46854168E-02  0.00000000E+00
  0.00000000E+00  0.00000000E+00  0.00000000E+00  1.54258898E-01  0.00000000E+00
  0.00000000E+00  0.00000000E+00  0.00000000E+00  0.00000000E+00  0.00000000E+00
  0.00000000E+00  8.49463573E-02  0.00000000E+00  0.00000000E+00  2.39927751E-01
  0.00000000E+00  0.00000000E+00  2.55000000E-01  0.00000000E+00  0.00000000E+00
  0.00000000E+00  0.00000000E+00  0.00000000E+00  1.23137790E-02  0.00000000E+00
  0.00000000E+00  4.82087124E-02  0.00000000E+00  0.00000000E+00  9.59927926E-02
  0.00000000E+00  0.00000000E+00  0.00000000E+00  1.99111563E-02  0.00000000E+00
  0.00000000E+00  0.00000000E+00  0.00000000E+00  1.19041501E-01  0.00000000E+00
  0.00000000E+00  0.00000000E+00  0.00000000E+00  0.00000000E+00  0.00000000E+00
  0.00000000E+00  5.45093337E-02  0.00000000E+00  0.00000000E+00  1.64800862E-01
  0.00000000E+00  0.00000000E+00  2.01453035E-01  0.00000000E+00  0.00000000E+00
  0.00000000E+00  3.46854168E-02  0.00000000E+00  0.00000000E+00  0.00000000E+00
  0.00000000E+00  1.54258898E-01  0.00000000E+00  0.00000000E+00  0.00000000E+00
  0.00000000E+00  0.00000000E+00  0.00000000E+00  0.00000000E+00  8.49463573E-02
  0.00000000E+00  0.00000000E+00  2.39927751E-01  0.00000000E+00  0.00000000E+00
  2.55000000E-01 -5.52930665E-02 -1.15589579E-01 -1.11217776E-01 -2.26886832E-02
  0.00000000E+00  0.00000000E+00 -4.26776926E-02  0.00000000E+00  0.00000000E+00
 -1.24108866E-01  0.00000000E+00  0.00000000E+00 -1.01847113E-01 -1.72140666E-02
  0.00000000E+00  0.00000000E+00  8.56454807E-19  0.00000000E+00 -4.30275368E-02
  0.00000000E+00  0.00000000E+00 -1.09253643E-18  0.00000000E+00 -1.20476866E-01
 -1.87312917E-01 -1.17021163E-01 -1.50645735E-02  0.00000000E+00  0.00000000E+00
  5.13834442E-03  0.00000000E+00  0.00000000E+00  3.88713446E-02  0.00000000E+00
  0.00000000E+00  1.05503376E-01  2.40628976E-02  0.00000000E+00  0.00000000E+00
  2.52866334E-18  0.00000000E+00  1.23216468E-01  0.00000000E+00  0.00000000E+00
  1.27674649E-18  0.00000000E+00  0.00000000E+00  0.00000000E+00  0.00000000E+00
  0.00000000E+00  0.00000000E+00  0.00000000E+00  8.49463573E-02  0.00000000E+00
  0.00000000E+00  2.39927751E-01  0.00000000E+00  0.00000000E+00  2.55000000E-01
 -2.26423830E-02  6.49081157E-03  1.34352732E-02  3.27585479E-04  0.00000000E+00
  0.00000000E+00 -4.82680326E-02  0.00000000E+00  0.00000000E+00  7.43341241E-02
  0.00000000E+00  0.00000000E+00  1.72140666E-02 -5.14256981E-02  0.00000000E+00
  0.00000000E+00 -9.12304354E-20  0.00000000E+00  1.75254448E-01  0.00000000E+00
  0.00000000E+00 -1.57154677E-18  0.00000000E+00  6.14648450E-01  2.05294366E-01
  1.18016630E-02  1.12254350E-04  0.00000000E+00  0.00000000E+00  1.38726925E+00
  0.00000000E+00  0.00000000E+00  1.41947132E-01  0.00000000E+00  0.00000000E+00
 -2.40628976E-02  7.53531195E-01  0.00000000E+00  0.00000000E+00 -1.70732146E-18
  0.00000000E+00 -9.74082258E-02  0.00000000E+00  0.00000000E+00  1.33890034E-17
  0.00000000E+00  0.00000000E+00  0.00000000E+00 -4.44089210E-16  0.00000000E+00
  0.00000000E+00  0.00000000E+00  0.00000000E+00  0.00000000E+00  0.00000000E+00
  0.00000000E+00  0.00000000E+00  0.00000000E+00  0.00000000E+00  3.69950000E+00
  0.00000000E+00  0.00000000E+00  0.00000000E+00  0.00000000E+00  8.20592285E-03
  0.00000000E+00  0.00000000E+00  4.31887907E-03  0.00000000E+00  0.00000000E+00
 -1.99111563E-02  0.00000000E+00  0.00000000E+00  0.00000000E+00  3.15342266E-02
  0.00000000E+00  0.00000000E+00  0.00000000E+00  0.00000000E+00 -1.11712810E-01
  0.00000000E+00  0.00000000E+00  0.00000000E+00  0.00000000E+00  0.00000000E+00
  0.00000000E+00  0.00000000E+00 -5.30494255E-01  0.00000000E+00  0.00000000E+00
 -4.26336369E-01  0.00000000E+00  0.00000000E+00 -3.46854168E-02  0.00000000E+00
  0.00000000E+00  0.00000000E+00 -1.46654267E+00  0.00000000E+00  0.00000000E+00
  0.00000000E+00  0.00000000E+00 -1.93992329E-01  0.00000000E+00  0.00000000E+00
  0.00000000E+00  0.00000000E+00  0.00000000E+00  0.00000000E+00  0.00000000E+00
  0.00000000E+00  0.00000000E+00  0.00000000E+00  0.00000000E+00  0.00000000E+00
  0.00000000E+00  0.00000000E+00  0.00000000E+00  0.00000000E+00  0.00000000E+00
  3.69950000E+00  0.00000000E+00  0.00000000E+00  0.00000000E+00  0.00000000E+00
  0.00000000E+00  8.20592285E-03  0.00000000E+00  0.00000000E+00  4.31887907E-03
  0.00000000E+00  0.00000000E+00 -1.99111563E-02  0.00000000E+00  0.00000000E+00
  0.00000000E+00  3.15342266E-02  0.00000000E+00  0.00000000E+00  0.00000000E+00
  0.00000000E+00 -1.11712810E-01  0.00000000E+00  0.00000000E+00  0.00000000E+00
  0.00000000E+00  0.00000000E+00  0.00000000E+00  0.00000000E+00 -5.30494255E-01
  0.00000000E+00  0.00000000E+00 -4.26336369E-01  0.00000000E+00  0.00000000E+00
 -3.46854168E-02  0.00000000E+00  0.00000000E+00  0.00000000E+00 -1.46654267E+00
  0.00000000E+00  0.00000000E+00  0.00000000E+00  0.00000000E+00 -1.93992329E-01
  0.00000000E+00  0.00000000E+00  0.00000000E+00  0.00000000E+00  0.00000000E+00
  0.00000000E+00  0.00000000E+00  0.00000000E+00  0.00000000E+00  0.00000000E+00
  0.00000000E+00  0.00000000E+00  0.00000000E+00  0.00000000E+00  0.00000000E+00
  0.00000000E+00  0.00000000E+00  3.69950000E+00  1.91663467E-19 -1.08388476E-18
  1.92315595E-19 -3.45424410E-19  0.00000000E+00  0.00000000E+00 -7.76918563E-20
  0.00000000E+00  0.00000000E+00  1.38424044E-18  0.00000000E+00  0.00000000E+00
 -8.56454807E-19 -9.05949193E-19  0.00000000E+00  0.00000000E+00 -3.59723175E-03
  0.00000000E+00 -9.88784596E-19  0.00000000E+00  0.00000000E+00  1.09865284E-02
  0.00000000E+00  4.81082835E-18  1.53458355E-19 -8.47282093E-20  7.56260076E-19
  0.00000000E+00  0.00000000E+00 -4.65789199E-18  0.00000000E+00  0.00000000E+00
  2.27300270E-17  0.00000000E+00  0.00000000E+00 -2.52866334E-18 -1.70892907E-18
  0.00000000E+00  0.00000000E+00  3.32994928E-01  0.00000000E+00 -2.45341027E-17
  0.00000000E+00  0.00000000E+00  2.52328000E-01  0.00000000E+00  3.23694547E-18
 -4.77966341E-18  6.77092070E-19 -6.78928523E-19  0.00000000E+00  0.00000000E+00
  0.00000000E+00  0.00000000E+00  0.00000000E+00  0.00000000E+00  0.00000000E+00
  0.00000000E+00  0.00000000E+00 -1.28627800E-17  0.00000000E+00  0.00000000E+00
  3.69950000E+00  0.00000000E+00  0.00000000E+00  0.00000000E+00  0.00000000E+00
  0.00000000E+00  0.00000000E+00  0.00000000E+00  0.00000000E+00  0.00000000E+00
  0.00000000E+00  0.00000000E+00  0.00000000E+00  0.00000000E+00  0.00000000E+00
  0.00000000E+00  0.00000000E+00  0.00000000E+00 -3.59723175E-03  0.00000000E+00
  0.00000000E+00  0.00000000E+00  0.00000000E+00  1.09865284E-02  0.00000000E+00
  0.00000000E+00  0.00000000E+00  0.00000000E+00  0.00000000E+00  0.00000000E+00
  0.00000000E+00  0.00000000E+00  0.00000000E+00  0.00000000E+00  0.00000000E+00
  0.00000000E+00  0.00000000E+00  0.00000000E+00  0.00000000E+00  0.00000000E+00
  0.00000000E+00  3.32994928E-01  0.00000000E+00  0.00000000E+00  0.00000000E+00
  0.00000000E+00  2.52328000E-01  0.00000000E+00  0.00000000E+00  0.00000000E+00
  0.00000000E+00  0.00000000E+00  0.00000000E+00  0.00000000E+00  0.00000000E+00
  0.00000000E+00  0.00000000E+00  0.00000000E+00  0.00000000E+00  0.00000000E+00
  0.00000000E+00  0.00000000E+00  0.00000000E+00  0.00000000E+00  3.69950000E+00
  7.15818601E-02  1.77095294E-01  8.01863598E-02  3.08448350E-03  0.00000000E+00
  0.00000000E+00  1.65782699E-01  0.00000000E+00  0.00000000E+00  3.45513578E-01
  0.00000000E+00  0.00000000E+00  4.30275368E-02  1.75254448E-01  0.00000000E+00
  0.00000000E+00 -1.70752191E-18  0.00000000E+00  1.45843805E-01  0.00000000E+00
  0.00000000E+00 -3.80913742E-18  0.00000000E+00  4.79583017E-01  3.20969737E-01
  5.22090934E-02  1.03322769E-03  0.00000000E+00  0.00000000E+00 -3.11225750E-02
  0.00000000E+00  0.00000000E+00 -2.25986207E-01  0.00000000E+00  0.00000000E+00
 -1.23216468E-01 -9.74082258E-02  0.00000000E+00  0.00000000E+00  1.36432846E-17
  0.00000000E+00 -3.39739592E-02  0.00000000E+00  0.00000000E+00 -2.53694567E-17
  0.00000000E+00  5.55111512E-17  0.00000000E+00  0.00000000E+00  0.00000000E+00
  0.00000000E+00  0.00000000E+00  0.00000000E+00  0.00000000E+00  0.00000000E+00
  0.00000000E+00  0.00000000E+00  0.00000000E+00  0.00000000E+00  5.97140737E-01
  0.00000000E+00  0.00000000E+00 -4.81360961E-18  0.00000000E+00  8.64500000E-01
  0.00000000E+00  0.00000000E+00  0.00000000E+00  0.00000000E+00 -2.66102068E-02
  0.00000000E+00  0.00000000E+00 -1.32078179E-01  0.00000000E+00  0.00000000E+00
 -1.19041501E-01  0.00000000E+00  0.00000000E+00  0.00000000E+00 -1.11712810E-01
  0.00000000E+00  0.00000000E+00  0.00000000E+00  0.00000000E+00 -3.65248697E-01
  0.00000000E+00  0.00000000E+00  0.00000000E+00  0.00000000E+00  0.00000000E+00
  0.00000000E+00  0.00000000E+00 -3.90136068E-01  0.00000000E+00  0.00000000E+00
 -5.71218373E-01  0.00000000E+00  0.00000000E+00 -1.54258898E-01  0.00000000E+00
  0.00000000E+00  0.00000000E+00 -1.93992329E-01  0.00000000E+00  0.00000000E+00
  0.00000000E+00  0.00000000E+00 -3.47819304E-02  0.00000000E+00  0.00000000E+00
  0.00000000E+00  0.00000000E+00  0.00000000E+00  0.00000000E+00  0.00000000E+00
  0.00000000E+00  0.00000000E+00  0.00000000E+00  0.00000000E+00  0.00000000E+00
  0.00000000E+00  0.00000000E+00  0.00000000E+00  0.00000000E+00  0.00000000E+00
  5.97140737E-01  0.00000000E+00  0.00000000E+00  0.00000000E+00  0.00000000E+00
  8.64500000E-01  0.00000000E+00  0.00000000E+00  0.00000000E+00  0.00000000E+00
  0.00000000E+00 -2.66102068E-02  0.00000000E+00  0.00000000E+00 -1.32078179E-01
  0.00000000E+00  0.00000000E+00 -1.19041501E-01  0.00000000E+00  0.00000000E+00
  0.00000000E+00 -1.11712810E-01  0.00000000E+00  0.00000000E+00  0.00000000E+00
  0.00000000E+00 -3.65248697E-01  0.00000000E+00  0.00000000E+00  0.00000000E+00
  0.00000000E+00  0.00000000E+00  0.00000000E+00  0.00000000E+00 -3.90136068E-01
  0.00000000E+00  0.00000000E+00 -5.71218373E-01  0.00000000E+00  0.00000000E+00
 -1.54258898E-01  0.00000000E+00  0.00000000E+00  0.00000000E+00 -1.93992329E-01
  0.00000000E+00  0.00000000E+00  0.00000000E+00  0.00000000E+00 -3.47819304E-02
  0.00000000E+00  0.00000000E+00  0.00000000E+00  0.00000000E+00  0.00000000E+00
  0.00000000E+00  0.00000000E+00  0.00000000E+00  0.00000000E+00  0.00000000E+00
  0.00000000E+00  0.00000000E+00  0.00000000E+00  0.00000000E+00  0.00000000E+00
  0.00000000E+00  0.00000000E+00  5.97140737E-01  0.00000000E+00  0.00000000E+00
  0.00000000E+00  0.00000000E+00  8.64500000E-01  7.36649114E-19 -3.43967248E-18
 -4.11694256E-19  6.98251269E-19  0.00000000E+00  0.00000000E+00 -1.71843474E-18
  0.00000000E+00  0.00000000E+00 -3.59997495E-19  0.00000000E+00  0.00000000E+00
  1.09253643E-18 -4.10186476E-19  0.00000000E+00  0.00000000E+00  1.09865284E-02
  0.00000000E+00  1.77973412E-19  0.00000000E+00  0.00000000E+00  9.26530209E-02
  0.00000000E+00 -5.64278308E-18 -1.31056850E-18 -2.62203718E-18 -1.34671201E-18
  0.00000000E+00  0.00000000E+00 -2.30445286E-18  0.00000000E+00  0.00000000E+00
  1.44459554E-18  0.00000000E+00  0.00000000E+00 -1.27674649E-18  5.12009365E-19
  0.00000000E+00  0.00000000E+00  2.52328000E-01  0.00000000E+00  2.02084286E-18
  0.00000000E+00  0.00000000E+00  5.10774584E-01  0.00000000E+00 -4.14016277E-19
  1.00155171E-18 -4.33662876E-18  3.70999418E-20  0.00000000E+00  0.00000000E+00
  0.00000000E+00  0.00000000E+00  0.00000000E+00  0.00000000E+00  0.00000000E+00
  0.00000000E+00  0.00000000E+00  9.55397079E-18  0.00000000E+00  0.00000000E+00
  5.97140737E-01  0.00000000E+00 -1.34936179E-17  0.00000000E+00  0.00000000E+00
  8.64500000E-01  0.00000000E+00  0.00000000E+00  0.00000000E+00  0.00000000E+00
  0.00000000E+00  0.00000000E+00  0.00000000E+00  0.00000000E+00  0.00000000E+00
  0.00000000E+00  0.00000000E+00  0.00000000E+00  0.00000000E+00  0.00000000E+00
  0.00000000E+00  0.00000000E+00  0.00000000E+00  1.09865284E-02  0.00000000E+00
  0.00000000E+00  0.00000000E+00  0.00000000E+00  9.26530209E-02  0.00000000E+00
  0.00000000E+00  0.00000000E+00  0.00000000E+00  0.00000000E+00  0.00000000E+00
  0.00000000E+00  0.00000000E+00  0.00000000E+00  0.00000000E+00  0.00000000E+00
  0.00000000E+00  0.00000000E+00  0.00000000E+00  0.00000000E+00  0.00000000E+00
  0.00000000E+00  2.52328000E-01  0.00000000E+00  0.00000000E+00  0.00000000E+00
  0.00000000E+00  5.10774584E-01  0.00000000E+00  0.00000000E+00  0.00000000E+00
  0.00000000E+00  0.00000000E+00  0.00000000E+00  0.00000000E+00  0.00000000E+00
  0.00000000E+00  0.00000000E+00  0.00000000E+00  0.00000000E+00  0.00000000E+00
  0.00000000E+00  0.00000000E+00  0.00000000E+00  0.00000000E+00  5.97140737E-01
  0.00000000E+00  0.00000000E+00  0.00000000E+00  0.00000000E+00  8.64500000E-01
Nuclear Attraction Matrix                  R   N=        2415
 -2.94089916E+00 -1.64599229E+00 -1.71894691E+00 -8.23975903E-01 -1.19594170E+00
 -1.19904660E+00 -3.08158230E-01 -5.29745348E-01 -7.21192434E-01 -7.01258319E-01
  0.00000000E+00  0.00000000E+00  0.00000000E+00  0.00000000E+00 -2.05777535E+00
  0.00000000E+00  0.00000000E+00  0.00000000E+00  0.00000000E+00  0.00000000E+00
 -2.05777535E+00 -1.59511902E-01 -1.79394990E-01 -1.05689482E-01 -4.19312823E-02
  0.00000000E+00  0.00000000E+00 -2.15903904E+00  0.00000000E+00  0.00000000E+00
  0.00000000E+00  0.00000000E+00 -1.09737518E+00  0.00000000E+00  0.00000000E+00
 -1.37440919E+00  0.00000000E+00  0.00000000E+00  0.00000000E+00  0.00000000E+00
  0.00000000E+00 -1.09737518E+00  0.00000000E+00  0.00000000E+00 -1.37440919E+00
 -1.07490015E-01 -2.79266904E-01 -2.53112523E-01 -1.23390033E-01  0.00000000E+00
  0.00000000E+00 -1.19185156E+00  0.00000000E+00  0.00000000E+00 -1.60921581E+00
  0.00000000E+00  0.00000000E+00  0.00000000E+00  0.00000000E+00 -3.02050561E-01
  0.00000000E+00  0.00000000E+00 -7.03298225E-01  0.00000000E+00  0.00000000E+00
 -8.66627472E-01  0.00000000E+00  0.00000000E+00  0.00000000E+00  0.00000000E+00
  0.00000000E+00 -3.02050561E-01  0.00000000E+00  0.00000000E+00 -7.03298225E-01
  0.00000000E+00  0.00000000E+00 -8.66627472E-01 -3.28004731E-02 -1.47939867E-01
 -2.35312912E-01 -1.76276657E-01  0.00000000E+00  0.00000000E+00 -3.33479110E-01
  0.00000000E+00  0.00000000E+00 -8.42770193E-01  0.00000000E+00  0.00000000E+00
 -1.04892029E+00 -6.08546685E-02 -1.28918742E-01 -9.31567757E-02 -3.99356659E-02
  0.00000000E+00  0.00000000E+00 -2.20689616E-01  0.00000000E+00  0.00000000E+00
 -2.94733346E-01  0.00000000E+00  0.00000000E+00 -1.15835798E-01 -1.83592154E+00
  0.00000000E+00  0.00000000E+00  0.00000000E+00  0.00000000E+00 -1.30951157E-01
  0.00000000E+00  0.00000000E+00 -1.47816960E-01  0.00000000E+00  0.00000000E+00
 -5.54474871E-02  0.00000000E+00  0.00000000E+00  0.00000000E+00 -1.71422904E+00
  0.00000000E+00  0.00000000E+00  0.00000000E+00  0.00000000E+00  0.00000000E+00
 -1.30951157E-01  0.00000000E+00  0.00000000E+00 -1.47816960E-01  0.00000000E+00
  0.00000000E+00 -5.54474871E-02  0.00000000E+00  0.00000000E+00  0.00000000E+00
 -1.71422904E+00  4.18820109E-17 -2.01362872E-17 -4.90151606E-17  4.55101124E-18
  0.00000000E+00  0.00000000E+00  6.71586907E-19  0.00000000E+00  0.00000000E+00
  5.11527340E-18  0.00000000E+00  0.00000000E+00  1.44950707E-20  1.04457281E-17
  0.00000000E+00  0.00000000E+00 -1.62359232E+00  0.00000000E+00  0.00000000E+00
  0.00000000E+00  0.00000000E+00  0.00000000E+00  0.00000000E+00  0.00000000E+00
  0.00000000E+00  0.00000000E+00  0.00000000E+00  0.00000000E+00  0.00000000E+00
  0.00000000E+00  0.00000000E+00  0.00000000E+00  0.00000000E+00  0.00000000E+00
 -1.62359232E+00 -2.13542190E-02 -1.16793085E-01 -1.56333596E-01 -9.48900735E-02
  0.00000000E+00  0.00000000E+00 -7.25390777E-02  0.00000000E+00  0.00000000E+00
 -3.00652403E-01  0.00000000E+00  0.00000000E+00 -2.96209453E-01 -7.18291912E-01
  0.00000000E+00  0.00000000E+00 -1.12619736E-19  0.00000000E+00 -1.27821394E+00
  0.00000000E+00  0.00000000E+00  0.00000000E+00  0.00000000E+00 -3.77738237E-02
  0.00000000E+00  0.00000000E+00 -1.38929605E-01  0.00000000E+00  0.00000000E+00
 -1.38275579E-01  0.00000000E+00  0.00000000E+00  0.00000000E+00 -6.40496795E-01
  0.00000000E+00  0.00000000E+00  0.00000000E+00  0.00000000E+00 -1.11107511E+00
  0.00000000E+00  0.00000000E+00  0.00000000E+00  0.00000000E+00  0.00000000E+00
 -3.77738237E-02  0.00000000E+00  0.00000000E+00 -1.38929605E-01  0.00000000E+00
  0.00000000E+00 -1.38275579E-01  0.00000000E+00  0.00000000E+00  0.00000000E+00
 -6.40496795E-01  0.00000000E+00  0.00000000E+00  0.00000000E+00  0.00000000E+00
 -1.11107511E+00  1.38181087E-17  3.11010289E-17  3.12935562E-17  2.68112436E-17
  0.00000000E+00  0.00000000E+00 -4.50063233E-19  0.00000000E+00  0.00000000E+00
 -1.49856934E-18  0.00000000E+00  0.00000000E+00  1.22621821E-18 -1.24981711E-17
  0.00000000E+00  0.00000000E+00 -5.94065025E-01  0.00000000E+00  8.89113401E-19
  0.00000000E+00  0.00000000E+00 -1.00810157E+00  0.00000000E+00  0.00000000E+00
  0.00000000E+00  0.00000000E+00  0.00000000E+00  0.00000000E+00  0.00000000E+00
  0.00000000E+00  0.00000000E+00  0.00000000E+00  0.00000000E+00  0.00000000E+00
  0.00000000E+00  0.00000000E+00  0.00000000E+00  0.00000000E+00  0.00000000E+00
 -5.94065025E-01  0.00000000E+00  0.00000000E+00  0.00000000E+00  0.00000000E+00
 -1.00810157E+00 -3.05311025E-01 -7.68456094E-01 -6.77471668E-01 -3.20176950E-01
  0.00000000E+00  0.00000000E+00 -5.56536008E-01  0.00000000E+00  0.00000000E+00
 -1.30198677E+00  0.00000000E+00  0.00000000E+00 -7.27983905E-01 -9.93518328E-01
  0.00000000E+00  0.00000000E+00  8.82357955E-19  0.00000000E+00 -1.10852519E+00
  0.00000000E+00  0.00000000E+00 -4.30567272E-18  0.00000000E+00 -3.21741290E+00
 -7.22890951E-01 -1.12277044E+00 -1.05624683E+00 -5.61008231E-01  0.00000000E+00
  0.00000000E+00 -5.59486341E-01  0.00000000E+00  0.00000000E+00 -1.18774360E+00
  0.00000000E+00  0.00000000E+00 -9.53419364E-01 -4.90703906E-01  0.00000000E+00
  0.00000000E+00 -5.24229195E-18  0.00000000E+00 -8.78992843E-01  0.00000000E+00
  0.00000000E+00  1.56681865E-17  0.00000000E+00 -1.84066620E+00 -1.97392391E+00
 -6.15732121E-01 -9.85337809E-01 -1.10487808E+00 -7.36022753E-01  0.00000000E+00
  0.00000000E+00 -2.23695488E-01  0.00000000E+00  0.00000000E+00 -5.93134595E-01
  0.00000000E+00  0.00000000E+00 -7.48926791E-01 -1.54157321E-01  0.00000000E+00
  0.00000000E+00 -2.51773287E-17  0.00000000E+00 -3.96341703E-01  0.00000000E+00
  0.00000000E+00  9.03275572E-18  0.00000000E+00 -9.26498672E-01 -1.37318645E+00
 -1.34489263E+00 -2.85887324E-01 -5.00356218E-01 -6.96661046E-01 -6.96424250E-01
  0.00000000E+00  0.00000000E+00 -5.61883848E-02  0.00000000E+00  0.00000000E+00
 -1.72017158E-01  0.00000000E+00  0.00000000E+00 -2.98608085E-01 -4.46884984E-02
  0.00000000E+00  0.00000000E+00  1.13531624E-18  0.00000000E+00 -1.21702615E-01
  0.00000000E+00  0.00000000E+00 -2.10154709E-17  0.00000000E+00 -3.47221564E-01
 -6.06075252E-01 -7.89269737E-01 -7.34276493E-01  0.00000000E+00  0.00000000E+00
  0.00000000E+00  0.00000000E+00 -2.12539301E-01  0.00000000E+00  0.00000000E+00
 -4.53641186E-01  0.00000000E+00  0.00000000E+00 -2.50890878E-01  0.00000000E+00
  0.00000000E+00  0.00000000E+00 -6.09913112E-01  0.00000000E+00  0.00000000E+00
  0.00000000E+00  0.00000000E+00 -6.52127210E-01  0.00000000E+00  0.00000000E+00
  0.00000000E+00  0.00000000E+00  0.00000000E+00  0.00000000E+00  0.00000000E+00
 -2.30802107E+00  0.00000000E+00  0.00000000E+00  0.00000000E+00  0.00000000E+00
  0.00000000E+00 -2.12539301E-01  0.00000000E+00  0.00000000E+00 -4.53641186E-01
  0.00000000E+00  0.00000000E+00 -2.50890878E-01  0.00000000E+00  0.00000000E+00
  0.00000000E+00 -6.09913112E-01  0.00000000E+00  0.00000000E+00  0.00000000E+00
  0.00000000E+00 -6.52127210E-01  0.00000000E+00  0.00000000E+00  0.00000000E+00
  0.00000000E+00  0.00000000E+00  0.00000000E+00  0.00000000E+00 -2.30802107E+00
  5.45875413E-01  5.35409478E-01  1.69987047E-01  2.08177507E-02  0.00000000E+00
  0.00000000E+00  8.65835090E-01  0.00000000E+00  0.00000000E+00  5.13344291E-01
  0.00000000E+00  0.00000000E+00 -1.10547672E-01  8.16800354E-01  0.00000000E+00
  0.00000000E+00  4.86716297E-20  0.00000000E+00 -2.56417300E-01  0.00000000E+00
  0.00000000E+00  1.75391565E-18  0.00000000E+00  9.28063046E-06  9.92053035E-06
  5.60224388E-06  2.17671974E-06  0.00000000E+00  0.00000000E+00 -2.48798684E+00
  0.00000000E+00  0.00000000E+00  0.00000000E+00  0.00000000E+00 -4.24776661E-01
  0.00000000E+00  0.00000000E+00 -8.03150817E-01  0.00000000E+00  0.00000000E+00
 -6.04348453E-01  0.00000000E+00  0.00000000E+00  0.00000000E+00 -5.46815214E-01
  0.00000000E+00  0.00000000E+00  0.00000000E+00  0.00000000E+00 -9.34482780E-01
  0.00000000E+00  0.00000000E+00  0.00000000E+00  0.00000000E+00  0.00000000E+00
  0.00000000E+00  0.00000000E+00 -1.24210588E+00  0.00000000E+00  0.00000000E+00
 -1.56027481E+00  0.00000000E+00  0.00000000E+00  0.00000000E+00  0.00000000E+00
  0.00000000E+00 -4.24776661E-01  0.00000000E+00  0.00000000E+00 -8.03150817E-01
  0.00000000E+00  0.00000000E+00 -6.04348453E-01  0.00000000E+00  0.00000000E+00
  0.00000000E+00 -5.46815214E-01  0.00000000E+00  0.00000000E+00  0.00000000E+00
  0.00000000E+00 -9.34482780E-01  0.00000000E+00  0.00000000E+00  0.00000000E+00
  0.00000000E+00  0.00000000E+00  0.00000000E+00  0.00000000E+00 -1.24210588E+00
  0.00000000E+00  0.00000000E+00 -1.56027481E+00  1.20218358E+00  1.06929279E+00
  4.41721103E-01  6.59486837E-02  0.00000000E+00  0.00000000E+00  5.59625421E-01
  0.00000000E+00  0.00000000E+00  3.25062255E-01  0.00000000E+00  0.00000000E+00
 -3.49235133E-01  9.53482323E-02  0.00000000E+00  0.00000000E+00 -3.74445652E-17
  0.00000000E+00 -5.92413853E-01  0.00000000E+00  0.00000000E+00  9.76210215E-18
  0.00000000E+00  5.76323554E-06  8.00285915E-06  3.71938652E-06  1.13186290E-06
  0.00000000E+00  0.00000000E+00 -1.40931040E+00  0.00000000E+00  0.00000000E+00
 -1.94819191E+00  0.00000000E+00  0.00000000E+00  0.00000000E+00  0.00000000E+00
 -2.25544118E-01  0.00000000E+00  0.00000000E+00 -5.64903498E-01  0.00000000E+00
  0.00000000E+00 -7.79543028E-01  0.00000000E+00  0.00000000E+00  0.00000000E+00
 -1.28085026E-01  0.00000000E+00  0.00000000E+00  0.00000000E+00  0.00000000E+00
 -4.45192200E-01  0.00000000E+00  0.00000000E+00  0.00000000E+00  0.00000000E+00
  0.00000000E+00  0.00000000E+00  0.00000000E+00 -3.42720348E-01  0.00000000E+00
  0.00000000E+00 -7.90749850E-01  0.00000000E+00  0.00000000E+00 -9.40180737E-01
  0.00000000E+00  0.00000000E+00  0.00000000E+00  0.00000000E+00  0.00000000E+00
 -2.25544118E-01  0.00000000E+00  0.00000000E+00 -5.64903498E-01  0.00000000E+00
  0.00000000E+00 -7.79543028E-01  0.00000000E+00  0.00000000E+00  0.00000000E+00
 -1.28085026E-01  0.00000000E+00  0.00000000E+00  0.00000000E+00  0.00000000E+00
 -4.45192200E-01  0.00000000E+00  0.00000000E+00  0.00000000E+00  0.00000000E+00
  0.00000000E+00  0.00000000E+00  0.00000000E+00 -3.42720348E-01  0.00000000E+00
  0.00000000E+00 -7.90749850E-01  0.00000000E+00  0.00000000E+00 -9.40180737E-01
  6.39976950E-01  7.77655869E-01  5.29702706E-01  1.31650016E-01  0.00000000E+00
  0.00000000E+00 -1.87049334E-02  0.00000000E+00  0.00000000E+00 -1.81785027E-01
  0.00000000E+00  0.00000000E+00 -5.56480236E-01 -4.85595282E-02  0.00000000E+00
  0.00000000E+00 -1.84882758E-18  0.00000000E+00 -3.90955540E-01  0.00000000E+00
  0.00000000E+00 -1.33751959E-17  0.00000000E+00  1.60592057E-06  1.51284039E-06
 -1.27096088E-06 -1.66195606E-06  0.00000000E+00  0.00000000E+00 -3.98062510E-01
  0.00000000E+00  0.00000000E+00 -9.94686863E-01  0.00000000E+00  0.00000000E+00
 -1.11079952E+00 -9.41906047E-01 -4.52666164E-01 -1.62656688E-01 -6.50043764E-02
  0.00000000E+00  0.00000000E+00 -8.02874114E-01  0.00000000E+00  0.00000000E+00
 -8.52803616E-02  0.00000000E+00  0.00000000E+00 -2.16011715E-02 -2.35618348E-01
  0.00000000E+00  0.00000000E+00 -9.55381769E-17  0.00000000E+00 -2.60105752E-02
  0.00000000E+00  0.00000000E+00 -6.64744491E-18  0.00000000E+00 -1.08028390E-01
 -2.26154046E-01 -1.61641202E-01 -6.88967749E-02  0.00000000E+00  0.00000000E+00
  1.54724087E-05  0.00000000E+00  0.00000000E+00  1.56248366E-05  0.00000000E+00
  0.00000000E+00  4.58250357E-06 -2.22041533E+00  0.00000000E+00  0.00000000E+00
  0.00000000E+00  0.00000000E+00  5.86492898E-01  0.00000000E+00  0.00000000E+00
  5.25015764E-01  0.00000000E+00  0.00000000E+00  9.88819650E-02  0.00000000E+00
  0.00000000E+00  0.00000000E+00  8.61593328E-01  0.00000000E+00  0.00000000E+00
  0.00000000E+00  0.00000000E+00  1.21728360E-01  0.00000000E+00  0.00000000E+00
  0.00000000E+00  0.00000000E+00  0.00000000E+00  0.00000000E+00  0.00000000E+00
  5.72604649E-06  0.00000000E+00  0.00000000E+00  4.70861318E-06  0.00000000E+00
  0.00000000E+00  1.42007809E-06  0.00000000E+00  0.00000000E+00  0.00000000E+00
 -1.99248166E+00  0.00000000E+00  0.00000000E+00  0.00000000E+00  0.00000000E+00
  0.00000000E+00  5.86492898E-01  0.00000000E+00  0.00000000E+00  5.25015764E-01
  0.00000000E+00  0.00000000E+00  9.88819650E-02  0.00000000E+00  0.00000000E+00
  0.00000000E+00  8.61593328E-01  0.00000000E+00  0.00000000E+00  0.00000000E+00
  0.00000000E+00  1.21728360E-01  0.00000000E+00  0.00000000E+00  0.00000000E+00
  0.00000000E+00  0.00000000E+00  0.00000000E+00  0.00000000E+00  5.72604649E-06
  0.00000000E+00  0.00000000E+00  4.70861318E-06  0.00000000E+00  0.00000000E+00
  1.42007809E-06  0.00000000E+00  0.00000000E+00  0.00000000E+00 -1.99248166E+00
  9.41587589E-18 -2.32431687E-17  4.08604383E-17 -2.69173336E-17  0.00000000E+00
  0.00000000E+00  3.73151799E-18  0.00000000E+00  0.00000000E+00  3.74600416E-17
  0.00000000E+00  0.00000000E+00  4.01848793E-17 -2.02852795E-17  0.00000000E+00
  0.00000000E+00 -3.13270680E-01  0.00000000E+00 -2.96012044E-17  0.00000000E+00
  0.00000000E+00 -3.48019704E-01  0.00000000E+00  5.48435903E-17  1.10888618E-16
  2.68274641E-17 -2.41281716E-18  0.00000000E+00  0.00000000E+00  1.10177792E-23
  0.00000000E+00  0.00000000E+00 -1.65088434E-22  0.00000000E+00  0.00000000E+00
  3.46933636E-23 -7.05698362E-18  0.00000000E+00  0.00000000E+00 -1.83851769E+00
  0.00000000E+00  0.00000000E+00  0.00000000E+00  0.00000000E+00  0.00000000E+00
  0.00000000E+00  0.00000000E+00  0.00000000E+00  0.00000000E+00  0.00000000E+00
  0.00000000E+00  0.00000000E+00  0.00000000E+00  0.00000000E+00  0.00000000E+00
  0.00000000E+00  0.00000000E+00 -3.13270680E-01  0.00000000E+00  0.00000000E+00
  0.00000000E+00  0.00000000E+00 -3.48019704E-01  0.00000000E+00  0.00000000E+00
  0.00000000E+00  0.00000000E+00  0.00000000E+00  0.00000000E+00  0.00000000E+00
  0.00000000E+00  0.00000000E+00  0.00000000E+00  0.00000000E+00  0.00000000E+00
  0.00000000E+00  0.00000000E+00  0.00000000E+00  0.00000000E+00  0.00000000E+00
 -1.83851769E+00 -9.75412478E-01 -6.92756746E-01 -2.88691715E-01 -1.04050673E-01
  0.00000000E+00  0.00000000E+00  1.27341648E-01  0.00000000E+00  0.00000000E+00
  4.11825995E-01  0.00000000E+00  0.00000000E+00  2.14438175E-01  6.40921387E-02
  0.00000000E+00  0.00000000E+00  6.48068722E-17  0.00000000E+00 -1.23540457E-01
  0.00000000E+00  0.00000000E+00 -4.76528209E-17  0.00000000E+00 -3.74934526E-02
 -1.79773335E-01 -1.97309089E-01 -1.04729640E-01  0.00000000E+00  0.00000000E+00
  4.33877709E-06  0.00000000E+00  0.00000000E+00  9.95053025E-07  0.00000000E+00
  0.00000000E+00 -4.13802219E-06 -8.90624996E-01  0.00000000E+00  0.00000000E+00
 -1.28175231E-17  0.00000000E+00 -1.45354791E+00  0.00000000E+00  0.00000000E+00
  0.00000000E+00  0.00000000E+00  5.83194900E-01  0.00000000E+00  0.00000000E+00
  8.27265582E-01  0.00000000E+00  0.00000000E+00  3.45204997E-01  0.00000000E+00
  0.00000000E+00  0.00000000E+00  1.78841757E-01  0.00000000E+00  0.00000000E+00
  0.00000000E+00  0.00000000E+00 -1.05634667E-01  0.00000000E+00  0.00000000E+00
  0.00000000E+00  0.00000000E+00  0.00000000E+00  0.00000000E+00  0.00000000E+00
  1.33592580E-06  0.00000000E+00  0.00000000E+00  1.18385588E-06  0.00000000E+00
  0.00000000E+00 -4.63605881E-07  0.00000000E+00  0.00000000E+00  0.00000000E+00
 -7.48031689E-01  0.00000000E+00  0.00000000E+00  0.00000000E+00  0.00000000E+00
 -1.24242666E+00  0.00000000E+00  0.00000000E+00  0.00000000E+00  0.00000000E+00
  0.00000000E+00  5.83194900E-01  0.00000000E+00  0.00000000E+00  8.27265582E-01
  0.00000000E+00  0.00000000E+00  3.45204997E-01  0.00000000E+00  0.00000000E+00
  0.00000000E+00  1.78841757E-01  0.00000000E+00  0.00000000E+00  0.00000000E+00
  0.00000000E+00 -1.05634667E-01  0.00000000E+00  0.00000000E+00  0.00000000E+00
  0.00000000E+00  0.00000000E+00  0.00000000E+00  0.00000000E+00  1.33592580E-06
  0.00000000E+00  0.00000000E+00  1.18385588E-06  0.00000000E+00  0.00000000E+00
 -4.63605881E-07  0.00000000E+00  0.00000000E+00  0.00000000E+00 -7.48031689E-01
  0.00000000E+00  0.00000000E+00  0.00000000E+00  0.00000000E+00 -1.24242666E+00
 -1.07804270E-18 -1.18788643E-17  3.34803466E-17  2.95498399E-18  0.00000000E+00
  0.00000000E+00  4.87903636E-19  0.00000000E+00  0.00000000E+00 -2.34272053E-17
  0.00000000E+00  0.00000000E+00 -4.40811561E-19  4.72825899E-17  0.00000000E+00
  0.00000000E+00 -3.23063970E-01  0.00000000E+00  2.44309399E-18  0.00000000E+00
  0.00000000E+00 -7.26745632E-01  0.00000000E+00  2.28956876E-18  1.39730348E-17
 -1.21696872E-17  2.33745683E-17  0.00000000E+00  0.00000000E+00 -2.43261326E-23
  0.00000000E+00  0.00000000E+00 -2.82207131E-23  0.00000000E+00  0.00000000E+00
 -1.12670427E-23  3.05192868E-20  0.00000000E+00  0.00000000E+00 -6.72864545E-01
  0.00000000E+00  6.99617356E-17  0.00000000E+00  0.00000000E+00 -1.11579877E+00
  0.00000000E+00  0.00000000E+00  0.00000000E+00  0.00000000E+00  0.00000000E+00
  0.00000000E+00  0.00000000E+00  0.00000000E+00  0.00000000E+00  0.00000000E+00
  0.00000000E+00  0.00000000E+00  0.00000000E+00  0.00000000E+00  0.00000000E+00
  0.00000000E+00  0.00000000E+00 -3.23063970E-01  0.00000000E+00  0.00000000E+00
  0.00000000E+00  0.00000000E+00 -7.26745632E-01  0.00000000E+00  0.00000000E+00
  0.00000000E+00  0.00000000E+00  0.00000000E+00  0.00000000E+00  0.00000000E+00
  0.00000000E+00  0.00000000E+00  0.00000000E+00  0.00000000E+00  0.00000000E+00
  0.00000000E+00  0.00000000E+00  0.00000000E+00  0.00000000E+00  0.00000000E+00
 -6.72864545E-01  0.00000000E+00  0.00000000E+00  0.00000000E+00  0.00000000E+00
 -1.11579877E+00 -1.05345621E-03 -5.72543192E-02 -2.45584159E-01 -2.25467760E-01
  0.00000000E+00  0.00000000E+00 -2.36421969E-03  0.00000000E+00  0.00000000E+00
 -1.29625064E-01  0.00000000E+00  0.00000000E+00 -5.22438275E-01 -1.49658382E-02
  0.00000000E+00  0.00000000E+00  4.77110307E-21  0.00000000E+00 -5.14749509E-01
  0.00000000E+00  0.00000000E+00  6.93306429E-19  0.00000000E+00 -3.05259164E-01
 -7.22837400E-01 -6.15712415E-01 -2.85883070E-01  0.00000000E+00  0.00000000E+00
 -5.45794780E-01  0.00000000E+00  0.00000000E+00 -1.20212981E+00  0.00000000E+00
  0.00000000E+00 -6.39982013E-01 -9.41816805E-01  0.00000000E+00  0.00000000E+00
  4.18668738E-18  0.00000000E+00 -9.75429501E-01  0.00000000E+00  0.00000000E+00
  5.47856592E-18  0.00000000E+00 -2.94087895E+00 -5.72552650E-02 -2.34631913E-01
 -4.77808837E-01 -4.04778612E-01  0.00000000E+00  0.00000000E+00 -8.27508537E-02
  0.00000000E+00  0.00000000E+00 -4.10732376E-01  0.00000000E+00  0.00000000E+00
 -8.14555794E-01 -1.43166554E-01  0.00000000E+00  0.00000000E+00 -2.49241204E-18
  0.00000000E+00 -7.35860481E-01  0.00000000E+00  0.00000000E+00  9.13464398E-19
  0.00000000E+00 -7.68402666E-01 -1.12271909E+00 -9.85313878E-01 -5.00350338E-01
  0.00000000E+00  0.00000000E+00 -5.35382993E-01  0.00000000E+00  0.00000000E+00
 -1.06927800E+00  0.00000000E+00  0.00000000E+00 -7.77668773E-01 -4.52651631E-01
  0.00000000E+00  0.00000000E+00 -1.29886518E-17  0.00000000E+00 -6.92779720E-01
  0.00000000E+00  0.00000000E+00 -1.25982979E-17  0.00000000E+00 -1.64597827E+00
 -1.71893143E+00 -2.45586871E-01 -4.77811825E-01 -6.87263407E-01 -5.85561279E-01
  0.00000000E+00  0.00000000E+00 -1.47801687E-01  0.00000000E+00  0.00000000E+00
 -4.64139328E-01  0.00000000E+00  0.00000000E+00 -7.96669748E-01 -1.26358633E-01
  0.00000000E+00  0.00000000E+00 -9.28477918E-18  0.00000000E+00 -4.71781446E-01
  0.00000000E+00  0.00000000E+00  1.99721131E-17  0.00000000E+00 -6.77454779E-01
 -1.05622535E+00 -1.10486364E+00 -6.96656519E-01  0.00000000E+00  0.00000000E+00
 -1.69980779E-01  0.00000000E+00  0.00000000E+00 -4.41723575E-01  0.00000000E+00
  0.00000000E+00 -5.29718461E-01 -1.62652306E-01  0.00000000E+00  0.00000000E+00
 -3.94118849E-17  0.00000000E+00 -2.88700497E-01  0.00000000E+00  0.00000000E+00
  1.52221307E-17  0.00000000E+00 -8.23968632E-01 -1.19593249E+00 -1.19904091E+00
 -2.25469883E-01 -4.04781323E-01 -5.85562518E-01 -6.22510539E-01  0.00000000E+00
  0.00000000E+00 -5.79944081E-02  0.00000000E+00  0.00000000E+00 -1.83607082E-01
  0.00000000E+00  0.00000000E+00 -3.57644775E-01 -4.30967839E-02  0.00000000E+00
  0.00000000E+00  2.18104368E-18  0.00000000E+00 -1.35756875E-01  0.00000000E+00
  0.00000000E+00  1.77722327E-17  0.00000000E+00 -3.20174885E-01 -5.61004968E-01
 -7.36019434E-01 -6.96422259E-01  0.00000000E+00  0.00000000E+00 -2.08143624E-02
  0.00000000E+00  0.00000000E+00 -6.59486632E-02  0.00000000E+00  0.00000000E+00
 -1.31657382E-01 -6.50036294E-02  0.00000000E+00  0.00000000E+00 -1.80717502E-17
  0.00000000E+00 -1.04051450E-01  0.00000000E+00  0.00000000E+00 -6.00944569E-18
  0.00000000E+00 -3.08155481E-01 -5.29741691E-01 -7.21190144E-01 -7.01257394E-01
  0.00000000E+00  0.00000000E+00  0.00000000E+00  0.00000000E+00 -2.33764836E-04
  0.00000000E+00  0.00000000E+00 -2.20326869E-02  0.00000000E+00  0.00000000E+00
 -9.01386749E-02  0.00000000E+00  0.00000000E+00  0.00000000E+00 -3.37294399E-03
  0.00000000E+00  0.00000000E+00  0.00000000E+00  0.00000000E+00 -1.54032539E-01
  0.00000000E+00  0.00000000E+00  0.00000000E+00  0.00000000E+00  0.00000000E+00
  0.00000000E+00  0.00000000E+00 -2.12500322E-01  0.00000000E+00  0.00000000E+00
 -4.24741687E-01  0.00000000E+00  0.00000000E+00 -2.25537120E-01  0.00000000E+00
  0.00000000E+00  0.00000000E+00 -5.86421996E-01  0.00000000E+00  0.00000000E+00
  0.00000000E+00  0.00000000E+00 -5.83183096E-01  0.00000000E+00  0.00000000E+00
  0.00000000E+00  0.00000000E+00  0.00000000E+00  0.00000000E+00  0.00000000E+00
 -2.05775842E+00  0.00000000E+00  0.00000000E+00  0.00000000E+00  0.00000000E+00
  0.00000000E+00 -2.33764836E-04  0.00000000E+00  0.00000000E+00 -2.20326869E-02
  0.00000000E+00  0.00000000E+00 -9.01386749E-02  0.00000000E+00  0.00000000E+00
  0.00000000E+00 -3.37294399E-03  0.00000000E+00  0.00000000E+00  0.00000000E+00
  0.00000000E+00 -1.54032539E-01  0.00000000E+00  0.00000000E+00  0.00000000E+00
  0.00000000E+00  0.00000000E+00  0.00000000E+00  0.00000000E+00 -2.12500322E-01
  0.00000000E+00  0.00000000E+00 -4.24741687E-01  0.00000000E+00  0.00000000E+00
 -2.25537120E-01  0.00000000E+00  0.00000000E+00  0.00000000E+00 -5.86421996E-01
  0.00000000E+00  0.00000000E+00  0.00000000E+00  0.00000000E+00 -5.83183096E-01
  0.00000000E+00  0.00000000E+00  0.00000000E+00  0.00000000E+00  0.00000000E+00
  0.00000000E+00  0.00000000E+00 -2.05775842E+00  2.36420923E-03  8.27489225E-02
  1.47798110E-01  5.79924138E-02  0.00000000E+00  0.00000000E+00  5.33570088E-03
  0.00000000E+00  0.00000000E+00  1.89302749E-01  0.00000000E+00  0.00000000E+00
  2.11142821E-01  3.48710040E-02  0.00000000E+00  0.00000000E+00  7.31335729E-20
  0.00000000E+00  4.03354716E-01  0.00000000E+00  0.00000000E+00  7.53004567E-23
  0.00000000E+00  5.56453566E-01  5.59456779E-01  2.23689459E-01  5.61864279E-02
  0.00000000E+00  0.00000000E+00  8.65751695E-01  0.00000000E+00  0.00000000E+00
  5.59645534E-01  0.00000000E+00  0.00000000E+00 -1.86929081E-02  8.02881444E-01
  0.00000000E+00  0.00000000E+00 -8.43095257E-18  0.00000000E+00 -1.27302321E-01
  0.00000000E+00  0.00000000E+00 -2.45691651E-18  0.00000000E+00  1.59502621E-01
  1.79385069E-01  1.05683880E-01  4.19291056E-02  0.00000000E+00  0.00000000E+00
 -2.15901236E+00  0.00000000E+00  0.00000000E+00  0.00000000E+00  0.00000000E+00
 -2.20329634E-02  0.00000000E+00  0.00000000E+00 -1.23501582E-01  0.00000000E+00
  0.00000000E+00 -2.64613188E-01  0.00000000E+00  0.00000000E+00  0.00000000E+00
 -6.75528551E-02  0.00000000E+00  0.00000000E+00  0.00000000E+00  0.00000000E+00
 -4.11402017E-01  0.00000000E+00  0.00000000E+00  0.00000000E+00  0.00000000E+00
  0.00000000E+00  0.00000000E+00  0.00000000E+00 -4.53605844E-01  0.00000000E+00
  0.00000000E+00 -8.03110293E-01  0.00000000E+00  0.00000000E+00 -5.64890418E-01
  0.00000000E+00  0.00000000E+00  0.00000000E+00 -5.24993843E-01  0.00000000E+00
  0.00000000E+00  0.00000000E+00  0.00000000E+00 -8.27264512E-01  0.00000000E+00
  0.00000000E+00  0.00000000E+00  0.00000000E+00  0.00000000E+00  0.00000000E+00
  0.00000000E+00 -1.09736590E+00  0.00000000E+00  0.00000000E+00 -1.37439942E+00
  0.00000000E+00  0.00000000E+00  0.00000000E+00  0.00000000E+00  0.00000000E+00
 -2.20329634E-02  0.00000000E+00  0.00000000E+00 -1.23501582E-01  0.00000000E+00
  0.00000000E+00 -2.64613188E-01  0.00000000E+00  0.00000000E+00  0.00000000E+00
 -6.75528551E-02  0.00000000E+00  0.00000000E+00  0.00000000E+00  0.00000000E+00
 -4.11402017E-01  0.00000000E+00  0.00000000E+00  0.00000000E+00  0.00000000E+00
  0.00000000E+00  0.00000000E+00  0.00000000E+00 -4.53605844E-01  0.00000000E+00
  0.00000000E+00 -8.03110293E-01  0.00000000E+00  0.00000000E+00 -5.64890418E-01
  0.00000000E+00  0.00000000E+00  0.00000000E+00 -5.24993843E-01  0.00000000E+00
  0.00000000E+00  0.00000000E+00  0.00000000E+00 -8.27264512E-01  0.00000000E+00
  0.00000000E+00  0.00000000E+00  0.00000000E+00  0.00000000E+00  0.00000000E+00
  0.00000000E+00 -1.09736590E+00  0.00000000E+00  0.00000000E+00 -1.37439942E+00
  1.29627279E-01  4.10733921E-01  4.64137760E-01  1.83606043E-01  0.00000000E+00
  0.00000000E+00  1.89307290E-01  0.00000000E+00  0.00000000E+00  6.78302150E-01
  0.00000000E+00  0.00000000E+00  4.96987230E-01  3.04356706E-01  0.00000000E+00
  0.00000000E+00 -4.09408536E-18  0.00000000E+00  7.05730009E-01  0.00000000E+00
  0.00000000E+00  1.14853804E-17  0.00000000E+00  1.30193374E+00  1.18772560E+00
  5.93134327E-01  1.72017129E-01  0.00000000E+00  0.00000000E+00  5.13368843E-01
  0.00000000E+00  0.00000000E+00  3.25129135E-01  0.00000000E+00  0.00000000E+00
 -1.81753058E-01  8.53202230E-02  0.00000000E+00  0.00000000E+00  1.29204170E-17
  0.00000000E+00 -4.11787193E-01  0.00000000E+00  0.00000000E+00 -4.39097622E-18
  0.00000000E+00  1.07484252E-01  2.79258902E-01  2.53108803E-01  1.23388901E-01
  0.00000000E+00  0.00000000E+00 -1.19183423E+00  0.00000000E+00  0.00000000E+00
 -1.60919936E+00  0.00000000E+00  0.00000000E+00  0.00000000E+00  0.00000000E+00
 -9.01395272E-02  0.00000000E+00  0.00000000E+00 -2.64614376E-01  0.00000000E+00
  0.00000000E+00 -4.82652154E-01  0.00000000E+00  0.00000000E+00  0.00000000E+00
 -8.82134444E-02  0.00000000E+00  0.00000000E+00  0.00000000E+00  0.00000000E+00
 -3.95219054E-01  0.00000000E+00  0.00000000E+00  0.00000000E+00  0.00000000E+00
  0.00000000E+00  0.00000000E+00  0.00000000E+00 -2.50884853E-01  0.00000000E+00
  0.00000000E+00 -6.04336460E-01  0.00000000E+00  0.00000000E+00 -7.79533386E-01
  0.00000000E+00  0.00000000E+00  0.00000000E+00 -9.88812232E-02  0.00000000E+00
  0.00000000E+00  0.00000000E+00  0.00000000E+00 -3.45212696E-01  0.00000000E+00
  0.00000000E+00  0.00000000E+00  0.00000000E+00  0.00000000E+00  0.00000000E+00
  0.00000000E+00 -3.02048030E-01  0.00000000E+00  0.00000000E+00 -7.03294278E-01
  0.00000000E+00  0.00000000E+00 -8.66624951E-01  0.00000000E+00  0.00000000E+00
  0.00000000E+00  0.00000000E+00  0.00000000E+00 -9.01395272E-02  0.00000000E+00
  0.00000000E+00 -2.64614376E-01  0.00000000E+00  0.00000000E+00 -4.82652154E-01
  0.00000000E+00  0.00000000E+00  0.00000000E+00 -8.82134444E-02  0.00000000E+00
  0.00000000E+00  0.00000000E+00  0.00000000E+00 -3.95219054E-01  0.00000000E+00
  0.00000000E+00  0.00000000E+00  0.00000000E+00  0.00000000E+00  0.00000000E+00
  0.00000000E+00 -2.50884853E-01  0.00000000E+00  0.00000000E+00 -6.04336460E-01
  0.00000000E+00  0.00000000E+00 -7.79533386E-01  0.00000000E+00  0.00000000E+00
  0.00000000E+00 -9.88812232E-02  0.00000000E+00  0.00000000E+00  0.00000000E+00
  0.00000000E+00 -3.45212696E-01  0.00000000E+00  0.00000000E+00  0.00000000E+00
  0.00000000E+00  0.00000000E+00  0.00000000E+00  0.00000000E+00 -3.02048030E-01
  0.00000000E+00  0.00000000E+00 -7.03294278E-01  0.00000000E+00  0.00000000E+00
 -8.66624951E-01  5.22443502E-01  8.14562394E-01  7.96673447E-01  3.57646538E-01
  0.00000000E+00  0.00000000E+00  2.11148534E-01  0.00000000E+00  0.00000000E+00
  4.96991570E-01  0.00000000E+00  0.00000000E+00  3.48044158E-01  1.25726376E-01
  0.00000000E+00  0.00000000E+00 -5.39196743E-18  0.00000000E+00  1.64948763E-01
  0.00000000E+00  0.00000000E+00  2.27562050E-17  0.00000000E+00  7.27994856E-01
  9.53436443E-01  7.48941174E-01  2.98613410E-01  0.00000000E+00  0.00000000E+00
 -1.10539759E-01  0.00000000E+00  0.00000000E+00 -3.49205488E-01  0.00000000E+00
  0.00000000E+00 -5.56449893E-01  2.16074086E-02  0.00000000E+00  0.00000000E+00
 -4.39683020E-17  0.00000000E+00 -2.14438793E-01  0.00000000E+00  0.00000000E+00
 -7.57206467E-19  0.00000000E+00  3.27988671E-02  1.47938354E-01  2.35314183E-01
  1.76278319E-01  0.00000000E+00  0.00000000E+00 -3.33474187E-01  0.00000000E+00
  0.00000000E+00 -8.42766139E-01  0.00000000E+00  0.00000000E+00 -1.04892117E+00
 -1.49661125E-02 -1.43164165E-01 -1.26354856E-01 -4.30948383E-02  0.00000000E+00
  0.00000000E+00 -3.48717705E-02  0.00000000E+00  0.00000000E+00 -3.04350627E-01
  0.00000000E+00  0.00000000E+00 -1.25720714E-01 -1.35573113E-01  0.00000000E+00
  0.00000000E+00 -8.52893524E-19  0.00000000E+00 -3.28287026E-01  0.00000000E+00
  0.00000000E+00  1.09053288E-17  0.00000000E+00 -9.93425581E-01 -4.90687976E-01
 -1.54151974E-01 -4.46863559E-02  0.00000000E+00  0.00000000E+00 -8.16810109E-01
  0.00000000E+00  0.00000000E+00 -9.53913536E-02  0.00000000E+00  0.00000000E+00
  4.85546177E-02 -2.35686699E-01  0.00000000E+00  0.00000000E+00 -1.48146092E-17
  0.00000000E+00  6.40969118E-02  0.00000000E+00  0.00000000E+00  3.35182135E-17
  0.00000000E+00 -6.08490387E-02 -1.28909630E-01 -9.31513364E-02 -3.99335390E-02
  0.00000000E+00  0.00000000E+00  2.20674144E-01  0.00000000E+00  0.00000000E+00
  2.94717722E-01  0.00000000E+00  0.00000000E+00  1.15831215E-01 -1.83588891E+00
  0.00000000E+00  0.00000000E+00  0.00000000E+00  0.00000000E+00  3.37298200E-03
  0.00000000E+00  0.00000000E+00  6.75522303E-02  0.00000000E+00  0.00000000E+00
  8.82124151E-02  0.00000000E+00  0.00000000E+00  0.00000000E+00  2.72529468E-02
  0.00000000E+00  0.00000000E+00  0.00000000E+00  0.00000000E+00  2.39812834E-01
  0.00000000E+00  0.00000000E+00  0.00000000E+00  0.00000000E+00  0.00000000E+00
  0.00000000E+00  0.00000000E+00  6.09840033E-01  0.00000000E+00  0.00000000E+00
  5.46790274E-01  0.00000000E+00  0.00000000E+00  1.28083654E-01  0.00000000E+00
  0.00000000E+00  0.00000000E+00  8.61561127E-01  0.00000000E+00  0.00000000E+00
  0.00000000E+00  0.00000000E+00  1.78866363E-01  0.00000000E+00  0.00000000E+00
  0.00000000E+00  0.00000000E+00  0.00000000E+00  0.00000000E+00  0.00000000E+00
  1.30945431E-01  0.00000000E+00  0.00000000E+00  1.47812251E-01  0.00000000E+00
  0.00000000E+00  5.54460670E-02  0.00000000E+00  0.00000000E+00  0.00000000E+00
 -1.71421056E+00  0.00000000E+00  0.00000000E+00  0.00000000E+00  0.00000000E+00
  0.00000000E+00  3.37298200E-03  0.00000000E+00  0.00000000E+00  6.75522303E-02
  0.00000000E+00  0.00000000E+00  8.82124151E-02  0.00000000E+00  0.00000000E+00
  0.00000000E+00  2.72529468E-02  0.00000000E+00  0.00000000E+00  0.00000000E+00
  0.00000000E+00  2.39812834E-01  0.00000000E+00  0.00000000E+00  0.00000000E+00
  0.00000000E+00  0.00000000E+00  0.00000000E+00  0.00000000E+00  6.09840033E-01
  0.00000000E+00  0.00000000E+00  5.46790274E-01  0.00000000E+00  0.00000000E+00
  1.28083654E-01  0.00000000E+00  0.00000000E+00  0.00000000E+00  8.61561127E-01
  0.00000000E+00  0.00000000E+00  0.00000000E+00  0.00000000E+00  1.78866363E-01
  0.00000000E+00  0.00000000E+00  0.00000000E+00  0.00000000E+00  0.00000000E+00
  0.00000000E+00  0.00000000E+00  1.30945431E-01  0.00000000E+00  0.00000000E+00
  1.47812251E-01  0.00000000E+00  0.00000000E+00  5.54460670E-02  0.00000000E+00
  0.00000000E+00  0.00000000E+00 -1.71421056E+00  2.88585609E-20  3.37918013E-18
 -6.82462085E-18  5.63679475E-18  0.00000000E+00  0.00000000E+00  6.71369623E-20
  0.00000000E+00  0.00000000E+00 -9.76354484E-20  0.00000000E+00  0.00000000E+00
 -6.38318715E-18 -1.87342004E-18  0.00000000E+00  0.00000000E+00 -1.83507635E-03
  0.00000000E+00  9.98824530E-18  0.00000000E+00  0.00000000E+00 -4.68443132E-02
  0.00000000E+00 -5.31056802E-20  1.47795947E-17  2.41747273E-17 -5.06915800E-18
  0.00000000E+00  0.00000000E+00 -1.34158562E-17  0.00000000E+00  0.00000000E+00
 -5.35814937E-17  0.00000000E+00  0.00000000E+00  2.46618397E-17  9.30567098E-17
  0.00000000E+00  0.00000000E+00 -3.13228404E-01  0.00000000E+00  9.22822938E-17
  0.00000000E+00  0.00000000E+00 -3.23046459E-01  0.00000000E+00  3.96826473E-17
 -2.57753883E-17  2.07594410E-17  9.13751655E-18  0.00000000E+00  0.00000000E+00
  6.93601164E-18  0.00000000E+00  0.00000000E+00 -2.47324625E-18  0.00000000E+00
  0.00000000E+00  3.73949146E-19 -1.36974193E-17  0.00000000E+00  0.00000000E+00
 -1.62357929E+00  0.00000000E+00  0.00000000E+00  0.00000000E+00  0.00000000E+00
  0.00000000E+00  0.00000000E+00  0.00000000E+00  0.00000000E+00  0.00000000E+00
  0.00000000E+00  0.00000000E+00  0.00000000E+00  0.00000000E+00  0.00000000E+00
  0.00000000E+00  0.00000000E+00  0.00000000E+00 -1.83507635E-03  0.00000000E+00
  0.00000000E+00  0.00000000E+00  0.00000000E+00 -4.68443132E-02  0.00000000E+00
  0.00000000E+00  0.00000000E+00  0.00000000E+00  0.00000000E+00  0.00000000E+00
  0.00000000E+00  0.00000000E+00  0.00000000E+00  0.00000000E+00  0.00000000E+00
  0.00000000E+00  0.00000000E+00  0.00000000E+00  0.00000000E+00  0.00000000E+00
  0.00000000E+00 -3.13228404E-01  0.00000000E+00  0.00000000E+00  0.00000000E+00
  0.00000000E+00 -3.23046459E-01  0.00000000E+00  0.00000000E+00  0.00000000E+00
  0.00000000E+00  0.00000000E+00  0.00000000E+00  0.00000000E+00  0.00000000E+00
  0.00000000E+00  0.00000000E+00  0.00000000E+00  0.00000000E+00  0.00000000E+00
  0.00000000E+00  0.00000000E+00  0.00000000E+00  0.00000000E+00 -1.62357929E+00
 -5.14755791E-01 -7.35868498E-01 -4.71785992E-01 -1.35758799E-01  0.00000000E+00
  0.00000000E+00 -4.03364094E-01  0.00000000E+00  0.00000000E+00 -7.05737994E-01
  0.00000000E+00  0.00000000E+00 -1.64950658E-01 -3.28297872E-01  0.00000000E+00
  0.00000000E+00  3.41216348E-17  0.00000000E+00 -2.56285579E-01  0.00000000E+00
  0.00000000E+00  1.36490998E-17  0.00000000E+00 -1.10855029E+00 -8.79021097E-01
 -3.96354177E-01 -1.21705328E-01  0.00000000E+00  0.00000000E+00  2.56380745E-01
  0.00000000E+00  0.00000000E+00  5.92370319E-01  0.00000000E+00  0.00000000E+00
  3.90946209E-01 -2.60037030E-02  0.00000000E+00  0.00000000E+00 -1.20690615E-17
  0.00000000E+00 -1.23499731E-01  0.00000000E+00  0.00000000E+00  2.43953810E-17
  0.00000000E+00 -2.13526829E-02 -1.16792050E-01 -1.56335386E-01 -9.48916164E-02
  0.00000000E+00  0.00000000E+00  7.25347389E-02  0.00000000E+00  0.00000000E+00
  3.00651408E-01  0.00000000E+00  0.00000000E+00  2.96213591E-01 -7.18281601E-01
  0.00000000E+00  0.00000000E+00  1.50187618E-17  0.00000000E+00 -1.27821555E+00
  0.00000000E+00  0.00000000E+00  0.00000000E+00  0.00000000E+00  1.54034187E-01
  0.00000000E+00  0.00000000E+00  4.11404026E-01  0.00000000E+00  0.00000000E+00
  3.95219519E-01  0.00000000E+00  0.00000000E+00  0.00000000E+00  2.39815573E-01
  0.00000000E+00  0.00000000E+00  0.00000000E+00  0.00000000E+00  6.10479923E-01
  0.00000000E+00  0.00000000E+00  0.00000000E+00  0.00000000E+00  0.00000000E+00
  0.00000000E+00  0.00000000E+00  6.52117470E-01  0.00000000E+00  0.00000000E+00
  9.34481059E-01  0.00000000E+00  0.00000000E+00  4.45197495E-01  0.00000000E+00
  0.00000000E+00  0.00000000E+00  1.21755029E-01  0.00000000E+00  0.00000000E+00
  0.00000000E+00  0.00000000E+00 -1.05583646E-01  0.00000000E+00  0.00000000E+00
  0.00000000E+00  0.00000000E+00  0.00000000E+00  0.00000000E+00  0.00000000E+00
  3.77724878E-02  0.00000000E+00  0.00000000E+00  1.38928422E-01  0.00000000E+00
  0.00000000E+00  1.38276042E-01  0.00000000E+00  0.00000000E+00  0.00000000E+00
 -6.40490910E-01  0.00000000E+00  0.00000000E+00  0.00000000E+00  0.00000000E+00
 -1.11107175E+00  0.00000000E+00  0.00000000E+00  0.00000000E+00  0.00000000E+00
  0.00000000E+00  1.54034187E-01  0.00000000E+00  0.00000000E+00  4.11404026E-01
  0.00000000E+00  0.00000000E+00  3.95219519E-01  0.00000000E+00  0.00000000E+00
  0.00000000E+00  2.39815573E-01  0.00000000E+00  0.00000000E+00  0.00000000E+00
  0.00000000E+00  6.10479923E-01  0.00000000E+00  0.00000000E+00  0.00000000E+00
  0.00000000E+00  0.00000000E+00  0.00000000E+00  0.00000000E+00  6.52117470E-01
  0.00000000E+00  0.00000000E+00  9.34481059E-01  0.00000000E+00  0.00000000E+00
  4.45197495E-01  0.00000000E+00  0.00000000E+00  0.00000000E+00  1.21755029E-01
  0.00000000E+00  0.00000000E+00  0.00000000E+00  0.00000000E+00 -1.05583646E-01
  0.00000000E+00  0.00000000E+00  0.00000000E+00  0.00000000E+00  0.00000000E+00
  0.00000000E+00  0.00000000E+00  3.77724878E-02  0.00000000E+00  0.00000000E+00
  1.38928422E-01  0.00000000E+00  0.00000000E+00  1.38276042E-01  0.00000000E+00
  0.00000000E+00  0.00000000E+00 -6.40490910E-01  0.00000000E+00  0.00000000E+00
  0.00000000E+00  0.00000000E+00 -1.11107175E+00 -3.78456130E-19 -4.78068757E-18
  7.76378001E-19 -5.16770519E-18  0.00000000E+00  0.00000000E+00 -3.80844069E-19
  0.00000000E+00  0.00000000E+00  1.11265522E-17  0.00000000E+00  0.00000000E+00
  2.15919903E-17  4.79168380E-17  0.00000000E+00  0.00000000E+00 -4.68446730E-02
  0.00000000E+00  4.56554950E-17  0.00000000E+00  0.00000000E+00 -2.22001064E-01
  0.00000000E+00  1.79551786E-18  5.17783327E-18 -3.89736559E-17 -2.35301417E-17
  0.00000000E+00  0.00000000E+00 -1.88333198E-18  0.00000000E+00  0.00000000E+00
  1.71844116E-17  0.00000000E+00  0.00000000E+00  5.77441022E-18  2.52250406E-17
  0.00000000E+00  0.00000000E+00 -3.48002344E-01  0.00000000E+00  2.31766225E-19
  0.00000000E+00  0.00000000E+00 -7.26723419E-01  0.00000000E+00 -1.35260598E-17
  2.23718327E-17 -2.16647890E-17  1.54629506E-17  0.00000000E+00  0.00000000E+00
  3.57125693E-19  0.00000000E+00  0.00000000E+00 -3.37489553E-18  0.00000000E+00
  0.00000000E+00  2.93279461E-18 -2.71058790E-18  0.00000000E+00  0.00000000E+00
 -5.94060733E-01  0.00000000E+00  1.35282131E-17  0.00000000E+00  0.00000000E+00
 -1.00809719E+00  0.00000000E+00  0.00000000E+00  0.00000000E+00  0.00000000E+00
  0.00000000E+00  0.00000000E+00  0.00000000E+00  0.00000000E+00  0.00000000E+00
  0.00000000E+00  0.00000000E+00  0.00000000E+00  0.00000000E+00  0.00000000E+00
  0.00000000E+00  0.00000000E+00  0.00000000E+00 -4.68446730E-02  0.00000000E+00
  0.00000000E+00  0.00000000E+00  0.00000000E+00 -2.22001064E-01  0.00000000E+00
  0.00000000E+00  0.00000000E+00  0.00000000E+00  0.00000000E+00  0.00000000E+00
  0.00000000E+00  0.00000000E+00  0.00000000E+00  0.00000000E+00  0.00000000E+00
  0.00000000E+00  0.00000000E+00  0.00000000E+00  0.00000000E+00  0.00000000E+00
  0.00000000E+00 -3.48002344E-01  0.00000000E+00  0.00000000E+00  0.00000000E+00
  0.00000000E+00 -7.26723419E-01  0.00000000E+00  0.00000000E+00  0.00000000E+00
  0.00000000E+00  0.00000000E+00  0.00000000E+00  0.00000000E+00  0.00000000E+00
  0.00000000E+00  0.00000000E+00  0.00000000E+00  0.00000000E+00  0.00000000E+00
  0.00000000E+00  0.00000000E+00  0.00000000E+00  0.00000000E+00 -5.94060733E-01
  0.00000000E+00  0.00000000E+00  0.00000000E+00  0.00000000E+00 -1.00809719E+00
Core Hamiltonian Matrix                    R   N=        2415
 -6.36219587E-01 -1.09697928E+00 -1.23024691E+00 -7.17706311E-01 -1.01114175E+00
 -1.04499660E+00 -2.97563725E-01 -5.03615576E-01 -6.77992080E-01 -6.63368319E-01
  0.00000000E+00  0.00000000E+00  0.00000000E+00  0.00000000E+00  1.45972465E+00
  0.00000000E+00  0.00000000E+00  0.00000000E+00  0.00000000E+00  0.00000000E+00
  1.45972465E+00 -1.59511902E-01 -1.79394990E-01 -1.05689482E-01 -4.19312823E-02
  0.00000000E+00  0.00000000E+00  1.35846096E+00  0.00000000E+00  0.00000000E+00
  0.00000000E+00  0.00000000E+00 -1.62287124E-01  0.00000000E+00  0.00000000E+00
 -4.04409185E-01  0.00000000E+00  0.00000000E+00  0.00000000E+00  0.00000000E+00
  0.00000000E+00 -1.62287124E-01  0.00000000E+00  0.00000000E+00 -4.04409185E-01
 -1.07490015E-01 -2.79266904E-01 -2.53112523E-01 -1.23390033E-01  0.00000000E+00
  0.00000000E+00 -2.56763505E-01  0.00000000E+00  0.00000000E+00 -6.39215814E-01
  0.00000000E+00  0.00000000E+00  0.00000000E+00  0.00000000E+00 -2.17104203E-01
  0.00000000E+00  0.00000000E+00 -4.63370475E-01  0.00000000E+00  0.00000000E+00
 -6.11627472E-01  0.00000000E+00  0.00000000E+00  0.00000000E+00  0.00000000E+00
  0.00000000E+00 -2.17104203E-01  0.00000000E+00  0.00000000E+00 -4.63370475E-01
  0.00000000E+00  0.00000000E+00 -6.11627472E-01 -3.28004731E-02 -1.47939867E-01
 -2.35312912E-01 -1.76276657E-01  0.00000000E+00  0.00000000E+00 -2.48532753E-01
  0.00000000E+00  0.00000000E+00 -6.02842442E-01  0.00000000E+00  0.00000000E+00
 -7.93920287E-01 -6.08546685E-02 -1.28918742E-01 -9.31567757E-02 -3.99356659E-02
  0.00000000E+00  0.00000000E+00 -2.20689616E-01  0.00000000E+00  0.00000000E+00
 -2.94733346E-01  0.00000000E+00  0.00000000E+00 -1.15835798E-01  1.86357846E+00
  0.00000000E+00  0.00000000E+00  0.00000000E+00  0.00000000E+00 -1.30951157E-01
  0.00000000E+00  0.00000000E+00 -1.47816960E-01  0.00000000E+00  0.00000000E+00
 -5.54474871E-02  0.00000000E+00  0.00000000E+00  0.00000000E+00  1.98527096E+00
  0.00000000E+00  0.00000000E+00  0.00000000E+00  0.00000000E+00  0.00000000E+00
 -1.30951157E-01  0.00000000E+00  0.00000000E+00 -1.47816960E-01  0.00000000E+00
  0.00000000E+00 -5.54474871E-02  0.00000000E+00  0.00000000E+00  0.00000000E+00
  1.98527096E+00  4.51189563E-17 -2.49159506E-17 -4.83380686E-17  3.87208272E-18
  0.00000000E+00  0.00000000E+00  6.71586907E-19  0.00000000E+00  0.00000000E+00
  5.11527340E-18  0.00000000E+00  0.00000000E+00  1.44950707E-20 -6.19137245E-17
  0.00000000E+00  0.00000000E+00  2.07590768E+00  0.00000000E+00  0.00000000E+00
  0.00000000E+00  0.00000000E+00  0.00000000E+00  0.00000000E+00  0.00000000E+00
  0.00000000E+00  0.00000000E+00  0.00000000E+00  0.00000000E+00  0.00000000E+00
  0.00000000E+00  0.00000000E+00  0.00000000E+00  0.00000000E+00  0.00000000E+00
  2.07590768E+00 -2.13542190E-02 -1.16793085E-01 -1.56333596E-01 -9.48900735E-02
  0.00000000E+00  0.00000000E+00 -7.25390777E-02  0.00000000E+00  0.00000000E+00
 -3.00652403E-01  0.00000000E+00  0.00000000E+00 -2.96209453E-01 -1.21151175E-01
  0.00000000E+00  0.00000000E+00 -4.92622935E-18  0.00000000E+00 -4.13713939E-01
  0.00000000E+00  0.00000000E+00  0.00000000E+00  0.00000000E+00 -3.77738237E-02
  0.00000000E+00  0.00000000E+00 -1.38929605E-01  0.00000000E+00  0.00000000E+00
 -1.38275579E-01  0.00000000E+00  0.00000000E+00  0.00000000E+00 -4.33560574E-02
  0.00000000E+00  0.00000000E+00  0.00000000E+00  0.00000000E+00 -2.46575107E-01
  0.00000000E+00  0.00000000E+00  0.00000000E+00  0.00000000E+00  0.00000000E+00
 -3.77738237E-02  0.00000000E+00  0.00000000E+00 -1.38929605E-01  0.00000000E+00
  0.00000000E+00 -1.38275579E-01  0.00000000E+00  0.00000000E+00  0.00000000E+00
 -4.33560574E-02  0.00000000E+00  0.00000000E+00  0.00000000E+00  0.00000000E+00
 -2.46575107E-01  1.34040925E-17  3.21025806E-17  2.69569274E-17  2.68483436E-17
  0.00000000E+00  0.00000000E+00 -4.50063233E-19  0.00000000E+00  0.00000000E+00
 -1.49856934E-18  0.00000000E+00  0.00000000E+00  1.22621821E-18 -2.94420034E-18
  0.00000000E+00  0.00000000E+00  3.07571204E-03  0.00000000E+00 -1.26045045E-17
  0.00000000E+00  0.00000000E+00 -1.43601572E-01  0.00000000E+00  0.00000000E+00
  0.00000000E+00  0.00000000E+00  0.00000000E+00  0.00000000E+00  0.00000000E+00
  0.00000000E+00  0.00000000E+00  0.00000000E+00  0.00000000E+00  0.00000000E+00
  0.00000000E+00  0.00000000E+00  0.00000000E+00  0.00000000E+00  0.00000000E+00
  3.07571204E-03  0.00000000E+00  0.00000000E+00  0.00000000E+00  0.00000000E+00
 -1.43601572E-01 -3.87082451E-01 -6.66153757E-01 -6.15640408E-01 -3.10932757E-01
  0.00000000E+00  0.00000000E+00 -4.79424348E-01  0.00000000E+00  0.00000000E+00
 -8.53100232E-01  0.00000000E+00  0.00000000E+00 -6.07507490E-01 -3.78770625E-01
  0.00000000E+00  0.00000000E+00  4.72552381E-19  0.00000000E+00 -6.28945061E-01
  0.00000000E+00  0.00000000E+00 -5.50589043E-18  0.00000000E+00 -9.12733330E-01
 -6.20588615E-01 -9.37668800E-01 -9.37432931E-01 -5.38041972E-01  0.00000000E+00
  0.00000000E+00 -3.56465253E-01  0.00000000E+00  0.00000000E+00 -7.97861232E-01
  0.00000000E+00  0.00000000E+00 -7.66108271E-01 -2.85407782E-01  0.00000000E+00
  0.00000000E+00 -3.43991546E-18  0.00000000E+00 -5.58032260E-01  0.00000000E+00
  0.00000000E+00  1.46343005E-17  0.00000000E+00 -1.29165320E+00 -1.48522391E+00
 -5.53900861E-01 -8.66523915E-01 -9.89202669E-01 -6.97378160E-01  0.00000000E+00
  0.00000000E+00 -1.91768529E-01  0.00000000E+00  0.00000000E+00 -4.96854495E-01
  0.00000000E+00  0.00000000E+00 -6.31907863E-01 -1.42356174E-01  0.00000000E+00
  0.00000000E+00 -2.26695301E-17  0.00000000E+00 -3.44135246E-01  0.00000000E+00
  0.00000000E+00  6.93123739E-18  0.00000000E+00 -8.20229080E-01 -1.18838650E+00
 -1.19084263E+00 -2.76643131E-01 -4.77389959E-01 -6.58016453E-01 -6.61067057E-01
  0.00000000E+00  0.00000000E+00 -5.50574350E-02  0.00000000E+00  0.00000000E+00
 -1.67162585E-01  0.00000000E+00  0.00000000E+00 -2.83543960E-01 -4.45762515E-02
  0.00000000E+00  0.00000000E+00  1.46348058E-18  0.00000000E+00 -1.20669456E-01
  0.00000000E+00  0.00000000E+00 -2.20928764E-17  0.00000000E+00 -3.36627059E-01
 -5.79945480E-01 -7.46069383E-01 -6.96386493E-01  0.00000000E+00  0.00000000E+00
  0.00000000E+00  0.00000000E+00 -1.84209965E-01  0.00000000E+00  0.00000000E+00
 -2.45175707E-01  0.00000000E+00  0.00000000E+00 -1.96379738E-01  0.00000000E+00
  0.00000000E+00  0.00000000E+00 -7.93115400E-02  0.00000000E+00  0.00000000E+00
  0.00000000E+00  0.00000000E+00 -2.61978842E-01  0.00000000E+00  0.00000000E+00
  0.00000000E+00  0.00000000E+00  0.00000000E+00  0.00000000E+00  0.00000000E+00
  1.20947893E+00  0.00000000E+00  0.00000000E+00  0.00000000E+00  0.00000000E+00
  0.00000000E+00 -1.84209965E-01  0.00000000E+00  0.00000000E+00 -2.45175707E-01
  0.00000000E+00  0.00000000E+00 -1.96379738E-01  0.00000000E+00  0.00000000E+00
  0.00000000E+00 -7.93115400E-02  0.00000000E+00  0.00000000E+00  0.00000000E+00
  0.00000000E+00 -2.61978842E-01  0.00000000E+00  0.00000000E+00  0.00000000E+00
  0.00000000E+00  0.00000000E+00  0.00000000E+00  0.00000000E+00  1.20947893E+00
  4.68763754E-01  3.32388390E-01  1.38060088E-01  1.96868010E-02  0.00000000E+00
  0.00000000E+00  1.14740890E-01  0.00000000E+00  0.00000000E+00  3.21771715E-02
  0.00000000E+00  0.00000000E+00 -1.05405384E-01 -5.70528390E-01  0.00000000E+00
  0.00000000E+00  3.22374996E-18  0.00000000E+00 -2.25261095E-01  0.00000000E+00
  0.00000000E+00  4.05823088E-19  0.00000000E+00  9.28063046E-06  9.92053035E-06
  5.60224388E-06  2.17671974E-06  0.00000000E+00  0.00000000E+00  1.02951316E+00
  0.00000000E+00  0.00000000E+00  0.00000000E+00  0.00000000E+00 -2.16311182E-01
  0.00000000E+00  0.00000000E+00 -4.19129302E-01  0.00000000E+00  0.00000000E+00
 -4.39542984E-01  0.00000000E+00  0.00000000E+00  0.00000000E+00 -1.20454255E-01
  0.00000000E+00  0.00000000E+00  0.00000000E+00  0.00000000E+00 -3.63257830E-01
  0.00000000E+00  0.00000000E+00  0.00000000E+00  0.00000000E+00  0.00000000E+00
  0.00000000E+00  0.00000000E+00 -3.07017819E-01  0.00000000E+00  0.00000000E+00
 -5.90274810E-01  0.00000000E+00  0.00000000E+00  0.00000000E+00  0.00000000E+00
  0.00000000E+00 -2.16311182E-01  0.00000000E+00  0.00000000E+00 -4.19129302E-01
  0.00000000E+00  0.00000000E+00 -4.39542984E-01  0.00000000E+00  0.00000000E+00
  0.00000000E+00 -1.20454255E-01  0.00000000E+00  0.00000000E+00  0.00000000E+00
  0.00000000E+00 -3.63257830E-01  0.00000000E+00  0.00000000E+00  0.00000000E+00
  0.00000000E+00  0.00000000E+00  0.00000000E+00  0.00000000E+00 -3.07017819E-01
  0.00000000E+00  0.00000000E+00 -5.90274810E-01  7.53297042E-01  6.79410426E-01
  3.45441003E-01  6.10941103E-02  0.00000000E+00  0.00000000E+00  7.84583006E-02
  0.00000000E+00  0.00000000E+00 -3.88982666E-02  0.00000000E+00  0.00000000E+00
 -3.10353152E-01 -4.65559958E-02  0.00000000E+00  0.00000000E+00 -5.31623856E-17
  0.00000000E+00 -3.66392021E-01  0.00000000E+00  0.00000000E+00  1.07709365E-17
  0.00000000E+00  5.76323554E-06  8.00285915E-06  3.71938652E-06  1.13186290E-06
  0.00000000E+00  0.00000000E+00 -4.74222344E-01  0.00000000E+00  0.00000000E+00
 -9.78191908E-01  0.00000000E+00  0.00000000E+00  0.00000000E+00  0.00000000E+00
 -1.71032978E-01  0.00000000E+00  0.00000000E+00 -4.00098029E-01  0.00000000E+00
  0.00000000E+00 -5.78086482E-01  0.00000000E+00  0.00000000E+00  0.00000000E+00
 -9.33998650E-02  0.00000000E+00  0.00000000E+00  0.00000000E+00  0.00000000E+00
 -2.90935466E-01  0.00000000E+00  0.00000000E+00  0.00000000E+00  0.00000000E+00
  0.00000000E+00  0.00000000E+00  0.00000000E+00 -2.57773991E-01  0.00000000E+00
  0.00000000E+00 -5.50822099E-01  0.00000000E+00  0.00000000E+00 -6.85180737E-01
  0.00000000E+00  0.00000000E+00  0.00000000E+00  0.00000000E+00  0.00000000E+00
 -1.71032978E-01  0.00000000E+00  0.00000000E+00 -4.00098029E-01  0.00000000E+00
  0.00000000E+00 -5.78086482E-01  0.00000000E+00  0.00000000E+00  0.00000000E+00
 -9.33998650E-02  0.00000000E+00  0.00000000E+00  0.00000000E+00  0.00000000E+00
 -2.90935466E-01  0.00000000E+00  0.00000000E+00  0.00000000E+00  0.00000000E+00
  0.00000000E+00  0.00000000E+00  0.00000000E+00 -2.57773991E-01  0.00000000E+00
  0.00000000E+00 -5.50822099E-01  0.00000000E+00  0.00000000E+00 -6.85180737E-01
  5.19500536E-01  5.90344776E-01  4.12683778E-01  1.16585890E-01  0.00000000E+00
  0.00000000E+00 -1.35626455E-02  0.00000000E+00  0.00000000E+00 -1.42903046E-01
  0.00000000E+00  0.00000000E+00 -4.50967851E-01 -2.44956118E-02  0.00000000E+00
  0.00000000E+00  4.87127235E-18  0.00000000E+00 -2.67736716E-01  0.00000000E+00
  0.00000000E+00 -7.00508074E-18  0.00000000E+00  1.60592057E-06  1.51284039E-06
 -1.27096088E-06 -1.66195606E-06  0.00000000E+00  0.00000000E+00 -3.13116153E-01
  0.00000000E+00  0.00000000E+00 -7.54759113E-01  0.00000000E+00  0.00000000E+00
 -8.55799524E-01 -3.27158344E-01 -2.47370040E-01 -1.50855542E-01 -6.48921294E-02
  0.00000000E+00  0.00000000E+00  5.84454629E-01  0.00000000E+00  0.00000000E+00
  5.66238665E-02  0.00000000E+00  0.00000000E+00 -4.56650879E-02  5.17779823E-01
  0.00000000E+00  0.00000000E+00 -9.50312723E-17  0.00000000E+00 -1.23416566E-01
  0.00000000E+00  0.00000000E+00 -1.22464167E-17  0.00000000E+00 -1.08028390E-01
 -2.26154046E-01 -1.61641202E-01 -6.88967749E-02  0.00000000E+00  0.00000000E+00
  1.54724087E-05  0.00000000E+00  0.00000000E+00  1.56248366E-05  0.00000000E+00
  0.00000000E+00  4.58250357E-06  1.47908467E+00  0.00000000E+00  0.00000000E+00
  0.00000000E+00  0.00000000E+00  5.58913262E-02  0.00000000E+00  0.00000000E+00
  9.86548049E-02  0.00000000E+00  0.00000000E+00  6.41968041E-02  0.00000000E+00
  0.00000000E+00  0.00000000E+00 -6.05061324E-01  0.00000000E+00  0.00000000E+00
  0.00000000E+00  0.00000000E+00 -7.22419121E-02  0.00000000E+00  0.00000000E+00
  0.00000000E+00  0.00000000E+00  0.00000000E+00  0.00000000E+00  0.00000000E+00
  5.72604649E-06  0.00000000E+00  0.00000000E+00  4.70861318E-06  0.00000000E+00
  0.00000000E+00  1.42007809E-06  0.00000000E+00  0.00000000E+00  0.00000000E+00
  1.70701834E+00  0.00000000E+00  0.00000000E+00  0.00000000E+00  0.00000000E+00
  0.00000000E+00  5.58913262E-02  0.00000000E+00  0.00000000E+00  9.86548049E-02
  0.00000000E+00  0.00000000E+00  6.41968041E-02  0.00000000E+00  0.00000000E+00
  0.00000000E+00 -6.05061324E-01  0.00000000E+00  0.00000000E+00  0.00000000E+00
  0.00000000E+00 -7.22419121E-02  0.00000000E+00  0.00000000E+00  0.00000000E+00
  0.00000000E+00  0.00000000E+00  0.00000000E+00  0.00000000E+00  5.72604649E-06
  0.00000000E+00  0.00000000E+00  4.70861318E-06  0.00000000E+00  0.00000000E+00
  1.42007809E-06  0.00000000E+00  0.00000000E+00  0.00000000E+00  1.70701834E+00
  9.00607032E-18 -2.14407922E-17  4.33682369E-17 -2.65891692E-17  0.00000000E+00
  0.00000000E+00  5.56439661E-19  0.00000000E+00  0.00000000E+00  5.31778620E-17
  0.00000000E+00  0.00000000E+00  3.34647794E-17 -2.33205296E-17  0.00000000E+00
  0.00000000E+00  1.97900849E-02  0.00000000E+00 -2.73919939E-17  0.00000000E+00
  0.00000000E+00 -9.56753761E-02  0.00000000E+00  5.80805357E-17  1.06108955E-16
  2.75045562E-17 -3.09174568E-18  0.00000000E+00  0.00000000E+00  1.10177792E-23
  0.00000000E+00  0.00000000E+00 -1.65088434E-22  0.00000000E+00  0.00000000E+00
  3.46933636E-23 -7.94164362E-17  0.00000000E+00  0.00000000E+00  1.86098231E+00
  0.00000000E+00  0.00000000E+00  0.00000000E+00  0.00000000E+00  0.00000000E+00
  0.00000000E+00  0.00000000E+00  0.00000000E+00  0.00000000E+00  0.00000000E+00
  0.00000000E+00  0.00000000E+00  0.00000000E+00  0.00000000E+00  0.00000000E+00
  0.00000000E+00  0.00000000E+00  1.97900849E-02  0.00000000E+00  0.00000000E+00
  0.00000000E+00  0.00000000E+00 -9.56753761E-02  0.00000000E+00  0.00000000E+00
  0.00000000E+00  0.00000000E+00  0.00000000E+00  0.00000000E+00  0.00000000E+00
  0.00000000E+00  0.00000000E+00  0.00000000E+00  0.00000000E+00  0.00000000E+00
  0.00000000E+00  0.00000000E+00  0.00000000E+00  0.00000000E+00  0.00000000E+00
  1.86098231E+00 -4.95832351E-01 -3.71796163E-01 -2.36485258E-01 -1.03017513E-01
  0.00000000E+00  0.00000000E+00  9.61854428E-02  0.00000000E+00  0.00000000E+00
  1.85804163E-01  0.00000000E+00  0.00000000E+00  9.12193504E-02 -3.33138517E-02
  0.00000000E+00  0.00000000E+00  8.74667372E-17  0.00000000E+00 -1.57488240E-01
  0.00000000E+00  0.00000000E+00 -4.82528438E-17  0.00000000E+00 -3.74934526E-02
 -1.79773335E-01 -1.97309089E-01 -1.04729640E-01  0.00000000E+00  0.00000000E+00
  4.33877709E-06  0.00000000E+00  0.00000000E+00  9.95053025E-07  0.00000000E+00
  0.00000000E+00 -4.13802219E-06 -2.93484259E-01  0.00000000E+00  0.00000000E+00
 -1.76311327E-17  0.00000000E+00 -5.89047907E-01  0.00000000E+00  0.00000000E+00
  0.00000000E+00  0.00000000E+00  1.93046532E-01  0.00000000E+00  0.00000000E+00
  2.56040633E-01  0.00000000E+00  0.00000000E+00  1.90948263E-01  0.00000000E+00
  0.00000000E+00  0.00000000E+00 -1.51285153E-02  0.00000000E+00  0.00000000E+00
  0.00000000E+00  0.00000000E+00 -1.40376769E-01  0.00000000E+00  0.00000000E+00
  0.00000000E+00  0.00000000E+00  0.00000000E+00  0.00000000E+00  0.00000000E+00
  1.33592580E-06  0.00000000E+00  0.00000000E+00  1.18385588E-06  0.00000000E+00
  0.00000000E+00 -4.63605881E-07  0.00000000E+00  0.00000000E+00  0.00000000E+00
 -1.50890952E-01  0.00000000E+00  0.00000000E+00  0.00000000E+00  0.00000000E+00
 -3.77926657E-01  0.00000000E+00  0.00000000E+00  0.00000000E+00  0.00000000E+00
  0.00000000E+00  1.93046532E-01  0.00000000E+00  0.00000000E+00  2.56040633E-01
  0.00000000E+00  0.00000000E+00  1.90948263E-01  0.00000000E+00  0.00000000E+00
  0.00000000E+00 -1.51285153E-02  0.00000000E+00  0.00000000E+00  0.00000000E+00
  0.00000000E+00 -1.40376769E-01  0.00000000E+00  0.00000000E+00  0.00000000E+00
  0.00000000E+00  0.00000000E+00  0.00000000E+00  0.00000000E+00  1.33592580E-06
  0.00000000E+00  0.00000000E+00  1.18385588E-06  0.00000000E+00  0.00000000E+00
 -4.63605881E-07  0.00000000E+00  0.00000000E+00  0.00000000E+00 -1.50890952E-01
  0.00000000E+00  0.00000000E+00  0.00000000E+00  0.00000000E+00 -3.77926657E-01
 -2.27826040E-18 -1.29127502E-17  3.13788283E-17  1.87757856E-18  0.00000000E+00
  0.00000000E+00  1.83599619E-18  0.00000000E+00  0.00000000E+00 -2.44360397E-17
  0.00000000E+00  0.00000000E+00 -6.81092668E-18  4.63998671E-17  0.00000000E+00
  0.00000000E+00 -7.07196418E-02  0.00000000E+00 -1.07928151E-18  0.00000000E+00
  0.00000000E+00 -2.15951090E-01  0.00000000E+00  1.87555248E-18  1.49745865E-17
 -1.65063160E-17  2.34116682E-17  0.00000000E+00  0.00000000E+00 -2.43261326E-23
  0.00000000E+00  0.00000000E+00 -2.82207131E-23  0.00000000E+00  0.00000000E+00
 -1.12670427E-23  9.58449008E-18  0.00000000E+00  0.00000000E+00 -7.57238073E-02
  0.00000000E+00  5.64681178E-17  0.00000000E+00  0.00000000E+00 -2.51298768E-01
  0.00000000E+00  0.00000000E+00  0.00000000E+00  0.00000000E+00  0.00000000E+00
  0.00000000E+00  0.00000000E+00  0.00000000E+00  0.00000000E+00  0.00000000E+00
  0.00000000E+00  0.00000000E+00  0.00000000E+00  0.00000000E+00  0.00000000E+00
  0.00000000E+00  0.00000000E+00 -7.07196418E-02  0.00000000E+00  0.00000000E+00
  0.00000000E+00  0.00000000E+00 -2.15951090E-01  0.00000000E+00  0.00000000E+00
  0.00000000E+00  0.00000000E+00  0.00000000E+00  0.00000000E+00  0.00000000E+00
  0.00000000E+00  0.00000000E+00  0.00000000E+00  0.00000000E+00  0.00000000E+00
  0.00000000E+00  0.00000000E+00  0.00000000E+00  0.00000000E+00  0.00000000E+00
 -7.57238073E-02  0.00000000E+00  0.00000000E+00  0.00000000E+00  0.00000000E+00
 -2.51298768E-01 -3.69388556E-03 -8.04851911E-02 -2.40248789E-01 -2.19455987E-01
  0.00000000E+00  0.00000000E+00 -8.34152669E-03  0.00000000E+00  0.00000000E+00
 -1.73203699E-01  0.00000000E+00  0.00000000E+00 -4.67145209E-01 -3.76082213E-02
  0.00000000E+00  0.00000000E+00  1.96434570E-19  0.00000000E+00 -4.43167649E-01
  0.00000000E+00  0.00000000E+00  1.42995554E-18  0.00000000E+00 -3.87038359E-01
 -6.20551087E-01 -5.53883736E-01 -2.76638971E-01  0.00000000E+00  0.00000000E+00
 -4.68735715E-01  0.00000000E+00  0.00000000E+00 -7.53279854E-01  0.00000000E+00
  0.00000000E+00 -5.19505147E-01 -3.27168355E-01  0.00000000E+00  0.00000000E+00
  8.99751574E-18  0.00000000E+00 -4.95846484E-01  0.00000000E+00  0.00000000E+00
 -1.64217164E-19  0.00000000E+00 -6.36199376E-01 -8.04861369E-02 -2.59020314E-01
 -4.56543401E-01 -3.89476003E-01  0.00000000E+00  0.00000000E+00 -1.00535898E-01
  0.00000000E+00  0.00000000E+00 -3.97531760E-01  0.00000000E+00  0.00000000E+00
 -6.98966215E-01 -1.36675743E-01  0.00000000E+00  0.00000000E+00 -3.57629680E-18
  0.00000000E+00 -5.58765187E-01  0.00000000E+00  0.00000000E+00 -2.52620808E-18
  0.00000000E+00 -6.66116353E-01 -9.37632113E-01 -8.66503985E-01 -4.77384298E-01
  0.00000000E+00  0.00000000E+00 -3.32375176E-01  0.00000000E+00  0.00000000E+00
 -6.79406476E-01  0.00000000E+00  0.00000000E+00 -5.90355857E-01 -2.47357265E-01
  0.00000000E+00  0.00000000E+00 -1.28351934E-17  0.00000000E+00 -3.71809983E-01
  0.00000000E+00  0.00000000E+00 -1.39088664E-17  0.00000000E+00 -1.09696527E+00
 -1.23023143E+00 -2.40251501E-01 -4.56546389E-01 -6.43774727E-01 -5.58275889E-01
  0.00000000E+00  0.00000000E+00 -1.33540737E-01  0.00000000E+00  0.00000000E+00
 -4.08239106E-01  0.00000000E+00  0.00000000E+00 -6.85451972E-01 -1.12923360E-01
  0.00000000E+00  0.00000000E+00 -9.09246359E-18  0.00000000E+00 -3.91595086E-01
  0.00000000E+00  0.00000000E+00  1.95604188E-17  0.00000000E+00 -6.15626100E-01
 -9.37415461E-01 -9.89190709E-01 -6.58012244E-01  0.00000000E+00  0.00000000E+00
 -1.38053717E-01  0.00000000E+00  0.00000000E+00 -3.45442659E-01  0.00000000E+00
  0.00000000E+00 -4.12697298E-01 -1.50850643E-01  0.00000000E+00  0.00000000E+00
 -3.94966131E-17  0.00000000E+00 -2.36491404E-01  0.00000000E+00  0.00000000E+00
  1.26000935E-17  0.00000000E+00 -7.17699040E-01 -1.01113254E+00 -1.04499091E+00
 -2.19458110E-01 -3.89478714E-01 -5.58277129E-01 -5.93924038E-01  0.00000000E+00
  0.00000000E+00 -5.63993946E-02  0.00000000E+00  0.00000000E+00 -1.76651020E-01
  0.00000000E+00  0.00000000E+00 -3.34956092E-01 -4.27691984E-02  0.00000000E+00
  0.00000000E+00  1.83561927E-18  0.00000000E+00 -1.32672391E-01  0.00000000E+00
  0.00000000E+00  1.84704840E-17  0.00000000E+00 -3.10930785E-01 -5.38038928E-01
 -6.97375158E-01 -6.61065246E-01  0.00000000E+00  0.00000000E+00 -1.96833807E-02
  0.00000000E+00  0.00000000E+00 -6.10939511E-02  0.00000000E+00  0.00000000E+00
 -1.16592809E-01 -6.48913750E-02  0.00000000E+00  0.00000000E+00 -1.73154901E-17
  0.00000000E+00 -1.03018222E-01  0.00000000E+00  0.00000000E+00 -7.35615770E-18
  0.00000000E+00 -2.97560976E-01 -5.03611919E-01 -6.77989791E-01 -6.63367394E-01
  0.00000000E+00  0.00000000E+00  0.00000000E+00  0.00000000E+00 -1.18821173E-03
  0.00000000E+00  0.00000000E+00 -3.23891699E-02  0.00000000E+00  0.00000000E+00
 -7.78248959E-02  0.00000000E+00  0.00000000E+00  0.00000000E+00 -1.15788668E-02
  0.00000000E+00  0.00000000E+00  0.00000000E+00  0.00000000E+00 -1.27422333E-01
  0.00000000E+00  0.00000000E+00  0.00000000E+00  0.00000000E+00  0.00000000E+00
  0.00000000E+00  0.00000000E+00 -1.84199498E-01  0.00000000E+00  0.00000000E+00
 -2.16301437E-01  0.00000000E+00  0.00000000E+00 -1.71027786E-01  0.00000000E+00
  0.00000000E+00  0.00000000E+00 -5.59277411E-02  0.00000000E+00  0.00000000E+00
  0.00000000E+00  0.00000000E+00 -1.93047028E-01  0.00000000E+00  0.00000000E+00
  0.00000000E+00  0.00000000E+00  0.00000000E+00  0.00000000E+00  0.00000000E+00
  1.45974158E+00  0.00000000E+00  0.00000000E+00  0.00000000E+00  0.00000000E+00
  0.00000000E+00 -1.18821173E-03  0.00000000E+00  0.00000000E+00 -3.23891699E-02
  0.00000000E+00  0.00000000E+00 -7.78248959E-02  0.00000000E+00  0.00000000E+00
  0.00000000E+00 -1.15788668E-02  0.00000000E+00  0.00000000E+00  0.00000000E+00
  0.00000000E+00 -1.27422333E-01  0.00000000E+00  0.00000000E+00  0.00000000E+00
  0.00000000E+00  0.00000000E+00  0.00000000E+00  0.00000000E+00 -1.84199498E-01
  0.00000000E+00  0.00000000E+00 -2.16301437E-01  0.00000000E+00  0.00000000E+00
 -1.71027786E-01  0.00000000E+00  0.00000000E+00  0.00000000E+00 -5.59277411E-02
  0.00000000E+00  0.00000000E+00  0.00000000E+00  0.00000000E+00 -1.93047028E-01
  0.00000000E+00  0.00000000E+00  0.00000000E+00  0.00000000E+00  0.00000000E+00
  0.00000000E+00  0.00000000E+00  1.45974158E+00  8.34151623E-03  1.00533967E-01
  1.33537159E-01  5.63974004E-02  0.00000000E+00  0.00000000E+00  1.93170433E-02
  0.00000000E+00  0.00000000E+00  2.05515183E-01  0.00000000E+00  0.00000000E+00
  1.68465129E-01  8.31390366E-02  0.00000000E+00  0.00000000E+00  1.50825429E-19
  0.00000000E+00  2.37572017E-01  0.00000000E+00  0.00000000E+00  1.71851004E-18
  0.00000000E+00  4.79394502E-01  3.56448962E-01  1.91762397E-01  5.50554463E-02
  0.00000000E+00  0.00000000E+00  1.14812288E-01  0.00000000E+00  0.00000000E+00
  7.84729004E-02  0.00000000E+00  0.00000000E+00 -1.35545636E-02 -5.84387809E-01
  0.00000000E+00  0.00000000E+00 -3.77306058E-18  0.00000000E+00 -9.61797455E-02
  0.00000000E+00  0.00000000E+00 -1.52463654E-19  0.00000000E+00  1.59502621E-01
  1.79385069E-01  1.05683880E-01  4.19291056E-02  0.00000000E+00  0.00000000E+00
  1.35848764E+00  0.00000000E+00  0.00000000E+00  0.00000000E+00  0.00000000E+00
 -3.23894464E-02  0.00000000E+00  0.00000000E+00 -1.24618358E-01  0.00000000E+00
  0.00000000E+00 -2.16404475E-01  0.00000000E+00  0.00000000E+00  0.00000000E+00
 -7.18717342E-02  0.00000000E+00  0.00000000E+00  0.00000000E+00  0.00000000E+00
 -2.79323838E-01  0.00000000E+00  0.00000000E+00  0.00000000E+00  0.00000000E+00
  0.00000000E+00  0.00000000E+00  0.00000000E+00 -2.45165594E-01  0.00000000E+00
  0.00000000E+00 -4.19116143E-01  0.00000000E+00  0.00000000E+00 -4.00089556E-01
  0.00000000E+00  0.00000000E+00  0.00000000E+00 -9.86574740E-02  0.00000000E+00
  0.00000000E+00  0.00000000E+00  0.00000000E+00 -2.56046139E-01  0.00000000E+00
  0.00000000E+00  0.00000000E+00  0.00000000E+00  0.00000000E+00  0.00000000E+00
  0.00000000E+00 -1.62277843E-01  0.00000000E+00  0.00000000E+00 -4.04399416E-01
  0.00000000E+00  0.00000000E+00  0.00000000E+00  0.00000000E+00  0.00000000E+00
 -3.23894464E-02  0.00000000E+00  0.00000000E+00 -1.24618358E-01  0.00000000E+00
  0.00000000E+00 -2.16404475E-01  0.00000000E+00  0.00000000E+00  0.00000000E+00
 -7.18717342E-02  0.00000000E+00  0.00000000E+00  0.00000000E+00  0.00000000E+00
 -2.79323838E-01  0.00000000E+00  0.00000000E+00  0.00000000E+00  0.00000000E+00
  0.00000000E+00  0.00000000E+00  0.00000000E+00 -2.45165594E-01  0.00000000E+00
  0.00000000E+00 -4.19116143E-01  0.00000000E+00  0.00000000E+00 -4.00089556E-01
  0.00000000E+00  0.00000000E+00  0.00000000E+00 -9.86574740E-02  0.00000000E+00
  0.00000000E+00  0.00000000E+00  0.00000000E+00 -2.56046139E-01  0.00000000E+00
  0.00000000E+00  0.00000000E+00  0.00000000E+00  0.00000000E+00  0.00000000E+00
  0.00000000E+00 -1.62277843E-01  0.00000000E+00  0.00000000E+00 -4.04399416E-01
  1.73205915E-01  3.97533305E-01  4.08237537E-01  1.76649981E-01  0.00000000E+00
  0.00000000E+00  2.05519724E-01  0.00000000E+00  0.00000000E+00  5.27058673E-01
  0.00000000E+00  0.00000000E+00  3.72878363E-01  2.30022582E-01  0.00000000E+00
  0.00000000E+00 -5.47832580E-18  0.00000000E+00  3.60216431E-01  0.00000000E+00
  0.00000000E+00  1.18453779E-17  0.00000000E+00  8.53083787E-01  7.97854074E-01
  4.96853412E-01  1.67162417E-01  0.00000000E+00  0.00000000E+00  3.21962101E-02
  0.00000000E+00  0.00000000E+00 -3.88666681E-02  0.00000000E+00  0.00000000E+00
 -1.42881714E-01 -5.66269093E-02  0.00000000E+00  0.00000000E+00 -9.80961002E-18
  0.00000000E+00 -1.85800986E-01  0.00000000E+00  0.00000000E+00 -5.83557176E-18
  0.00000000E+00  1.07484252E-01  2.79258902E-01  2.53108803E-01  1.23388901E-01
  0.00000000E+00  0.00000000E+00 -2.56746178E-01  0.00000000E+00  0.00000000E+00
 -6.39199358E-01  0.00000000E+00  0.00000000E+00  0.00000000E+00  0.00000000E+00
 -7.78257483E-02  0.00000000E+00  0.00000000E+00 -2.16405663E-01  0.00000000E+00
  0.00000000E+00 -3.86659361E-01  0.00000000E+00  0.00000000E+00  0.00000000E+00
 -6.83022881E-02  0.00000000E+00  0.00000000E+00  0.00000000E+00  0.00000000E+00
 -2.76177553E-01  0.00000000E+00  0.00000000E+00  0.00000000E+00  0.00000000E+00
  0.00000000E+00  0.00000000E+00  0.00000000E+00 -1.96375519E-01  0.00000000E+00
  0.00000000E+00 -4.39535597E-01  0.00000000E+00  0.00000000E+00 -5.78080351E-01
  0.00000000E+00  0.00000000E+00  0.00000000E+00 -6.41958064E-02  0.00000000E+00
  0.00000000E+00  0.00000000E+00  0.00000000E+00 -1.90953798E-01  0.00000000E+00
  0.00000000E+00  0.00000000E+00  0.00000000E+00  0.00000000E+00  0.00000000E+00
  0.00000000E+00 -2.17101672E-01  0.00000000E+00  0.00000000E+00 -4.63366527E-01
  0.00000000E+00  0.00000000E+00 -6.11624951E-01  0.00000000E+00  0.00000000E+00
  0.00000000E+00  0.00000000E+00  0.00000000E+00 -7.78257483E-02  0.00000000E+00
  0.00000000E+00 -2.16405663E-01  0.00000000E+00  0.00000000E+00 -3.86659361E-01
  0.00000000E+00  0.00000000E+00  0.00000000E+00 -6.83022881E-02  0.00000000E+00
  0.00000000E+00  0.00000000E+00  0.00000000E+00 -2.76177553E-01  0.00000000E+00
  0.00000000E+00  0.00000000E+00  0.00000000E+00  0.00000000E+00  0.00000000E+00
  0.00000000E+00 -1.96375519E-01  0.00000000E+00  0.00000000E+00 -4.39535597E-01
  0.00000000E+00  0.00000000E+00 -5.78080351E-01  0.00000000E+00  0.00000000E+00
  0.00000000E+00 -6.41958064E-02  0.00000000E+00  0.00000000E+00  0.00000000E+00
  0.00000000E+00 -1.90953798E-01  0.00000000E+00  0.00000000E+00  0.00000000E+00
  0.00000000E+00  0.00000000E+00  0.00000000E+00  0.00000000E+00 -2.17101672E-01
  0.00000000E+00  0.00000000E+00 -4.63366527E-01  0.00000000E+00  0.00000000E+00
 -6.11624951E-01  4.67150435E-01  6.98972815E-01  6.85455671E-01  3.34957855E-01
  0.00000000E+00  0.00000000E+00  1.68470841E-01  0.00000000E+00  0.00000000E+00
  3.72882704E-01  0.00000000E+00  0.00000000E+00  2.46197045E-01  1.08512309E-01
  0.00000000E+00  0.00000000E+00 -4.53551262E-18  0.00000000E+00  1.21921227E-01
  0.00000000E+00  0.00000000E+00  2.16636686E-17  0.00000000E+00  6.07517990E-01
  7.66123526E-01  6.31920011E-01  2.83548837E-01  0.00000000E+00  0.00000000E+00
 -1.05401415E-01  0.00000000E+00  0.00000000E+00 -3.10334144E-01  0.00000000E+00
  0.00000000E+00 -4.50946517E-01  4.56703061E-02  0.00000000E+00  0.00000000E+00
 -4.14396386E-17  0.00000000E+00 -9.12223250E-02  0.00000000E+00  0.00000000E+00
  5.19540027E-19  0.00000000E+00  3.27988671E-02  1.47938354E-01  2.35314183E-01
  1.76278319E-01  0.00000000E+00  0.00000000E+00 -2.48527829E-01  0.00000000E+00
  0.00000000E+00 -6.02838389E-01  0.00000000E+00  0.00000000E+00 -7.93921167E-01
 -3.76084955E-02 -1.36673354E-01 -1.12919583E-01 -4.27672528E-02  0.00000000E+00
  0.00000000E+00 -8.31398031E-02  0.00000000E+00  0.00000000E+00 -2.30016502E-01
  0.00000000E+00  0.00000000E+00 -1.08506647E-01 -1.86998811E-01  0.00000000E+00
  0.00000000E+00 -9.44123960E-19  0.00000000E+00 -1.53032578E-01  0.00000000E+00
  0.00000000E+00  9.33378205E-18  0.00000000E+00 -3.78777131E-01 -2.85393610E-01
 -1.42350311E-01 -4.45741016E-02  0.00000000E+00  0.00000000E+00  5.70459143E-01
  0.00000000E+00  0.00000000E+00  4.65557787E-02  0.00000000E+00  0.00000000E+00
  2.44917202E-02  5.17844496E-01  0.00000000E+00  0.00000000E+00 -1.65219307E-17
  0.00000000E+00 -3.33113140E-02  0.00000000E+00  0.00000000E+00  4.69072170E-17
  0.00000000E+00 -6.08490387E-02 -1.28909630E-01 -9.31513364E-02 -3.99335390E-02
  0.00000000E+00  0.00000000E+00  2.20674144E-01  0.00000000E+00  0.00000000E+00
  2.94717722E-01  0.00000000E+00  0.00000000E+00  1.15831215E-01  1.86361109E+00
  0.00000000E+00  0.00000000E+00  0.00000000E+00  0.00000000E+00  1.15789048E-02
  0.00000000E+00  0.00000000E+00  7.18711093E-02  0.00000000E+00  0.00000000E+00
  6.83012589E-02  0.00000000E+00  0.00000000E+00  0.00000000E+00  5.87871734E-02
  0.00000000E+00  0.00000000E+00  0.00000000E+00  0.00000000E+00  1.28100023E-01
  0.00000000E+00  0.00000000E+00  0.00000000E+00  0.00000000E+00  0.00000000E+00
  0.00000000E+00  0.00000000E+00  7.93457780E-02  0.00000000E+00  0.00000000E+00
  1.20453905E-01  0.00000000E+00  0.00000000E+00  9.33982371E-02  0.00000000E+00
  0.00000000E+00  0.00000000E+00 -6.04981544E-01  0.00000000E+00  0.00000000E+00
  0.00000000E+00  0.00000000E+00 -1.51259660E-02  0.00000000E+00  0.00000000E+00
  0.00000000E+00  0.00000000E+00  0.00000000E+00  0.00000000E+00  0.00000000E+00
  1.30945431E-01  0.00000000E+00  0.00000000E+00  1.47812251E-01  0.00000000E+00
  0.00000000E+00  5.54460670E-02  0.00000000E+00  0.00000000E+00  0.00000000E+00
  1.98528944E+00  0.00000000E+00  0.00000000E+00  0.00000000E+00  0.00000000E+00
  0.00000000E+00  1.15789048E-02  0.00000000E+00  0.00000000E+00  7.18711093E-02
  0.00000000E+00  0.00000000E+00  6.83012589E-02  0.00000000E+00  0.00000000E+00
  0.00000000E+00  5.87871734E-02  0.00000000E+00  0.00000000E+00  0.00000000E+00
  0.00000000E+00  1.28100023E-01  0.00000000E+00  0.00000000E+00  0.00000000E+00
  0.00000000E+00  0.00000000E+00  0.00000000E+00  0.00000000E+00  7.93457780E-02
  0.00000000E+00  0.00000000E+00  1.20453905E-01  0.00000000E+00  0.00000000E+00
  9.33982371E-02  0.00000000E+00  0.00000000E+00  0.00000000E+00 -6.04981544E-01
  0.00000000E+00  0.00000000E+00  0.00000000E+00  0.00000000E+00 -1.51259660E-02
  0.00000000E+00  0.00000000E+00  0.00000000E+00  0.00000000E+00  0.00000000E+00
  0.00000000E+00  0.00000000E+00  1.30945431E-01  0.00000000E+00  0.00000000E+00
  1.47812251E-01  0.00000000E+00  0.00000000E+00  5.54460670E-02  0.00000000E+00
  0.00000000E+00  0.00000000E+00  1.98528944E+00  2.20522028E-19  2.29529537E-18
 -6.63230525E-18  5.29137034E-18  0.00000000E+00  0.00000000E+00 -1.05548940E-20
  0.00000000E+00  0.00000000E+00  1.28660499E-18  0.00000000E+00  0.00000000E+00
 -7.23964196E-18 -2.77936923E-18  0.00000000E+00  0.00000000E+00 -5.43230809E-03
  0.00000000E+00  8.99946071E-18  0.00000000E+00  0.00000000E+00 -3.58577848E-02
  0.00000000E+00  4.75772267E-18  1.49330531E-17  2.40899991E-17 -4.31289793E-18
  0.00000000E+00  0.00000000E+00 -1.80737482E-17  0.00000000E+00  0.00000000E+00
 -3.08514667E-17  0.00000000E+00  0.00000000E+00  2.21331763E-17  9.13477807E-17
  0.00000000E+00  0.00000000E+00  1.97665232E-02  0.00000000E+00  6.77481911E-17
  0.00000000E+00  0.00000000E+00 -7.07184596E-02  0.00000000E+00  4.29195928E-17
 -3.05550517E-17  2.14365330E-17  8.45858802E-18  0.00000000E+00  0.00000000E+00
  6.93601164E-18  0.00000000E+00  0.00000000E+00 -2.47324625E-18  0.00000000E+00
  0.00000000E+00  3.73949146E-19 -2.65601993E-17  0.00000000E+00  0.00000000E+00
  2.07592071E+00  0.00000000E+00  0.00000000E+00  0.00000000E+00  0.00000000E+00
  0.00000000E+00  0.00000000E+00  0.00000000E+00  0.00000000E+00  0.00000000E+00
  0.00000000E+00  0.00000000E+00  0.00000000E+00  0.00000000E+00  0.00000000E+00
  0.00000000E+00  0.00000000E+00  0.00000000E+00 -5.43230809E-03  0.00000000E+00
  0.00000000E+00  0.00000000E+00  0.00000000E+00 -3.58577848E-02  0.00000000E+00
  0.00000000E+00  0.00000000E+00  0.00000000E+00  0.00000000E+00  0.00000000E+00
  0.00000000E+00  0.00000000E+00  0.00000000E+00  0.00000000E+00  0.00000000E+00
  0.00000000E+00  0.00000000E+00  0.00000000E+00  0.00000000E+00  0.00000000E+00
  0.00000000E+00  1.97665232E-02  0.00000000E+00  0.00000000E+00  0.00000000E+00
  0.00000000E+00 -7.07184596E-02  0.00000000E+00  0.00000000E+00  0.00000000E+00
  0.00000000E+00  0.00000000E+00  0.00000000E+00  0.00000000E+00  0.00000000E+00
  0.00000000E+00  0.00000000E+00  0.00000000E+00  0.00000000E+00  0.00000000E+00
  0.00000000E+00  0.00000000E+00  0.00000000E+00  0.00000000E+00  2.07592071E+00
 -4.43173931E-01 -5.58773204E-01 -3.91599632E-01 -1.32674315E-01  0.00000000E+00
  0.00000000E+00 -2.37581395E-01  0.00000000E+00  0.00000000E+00 -3.60224416E-01
  0.00000000E+00  0.00000000E+00 -1.21923121E-01 -1.53043424E-01  0.00000000E+00
  0.00000000E+00  3.24141129E-17  0.00000000E+00 -1.10441774E-01  0.00000000E+00
  0.00000000E+00  9.83996236E-18  0.00000000E+00 -6.28967270E-01 -5.58051360E-01
 -3.44145084E-01 -1.20672100E-01  0.00000000E+00  0.00000000E+00  2.25258170E-01
  0.00000000E+00  0.00000000E+00  3.66384112E-01  0.00000000E+00  0.00000000E+00
  2.67729741E-01 -1.23411929E-01  0.00000000E+00  0.00000000E+00  1.57422305E-18
  0.00000000E+00 -1.57473691E-01  0.00000000E+00  0.00000000E+00 -9.74075777E-19
  0.00000000E+00 -2.13526829E-02 -1.16792050E-01 -1.56335386E-01 -9.48916164E-02
  0.00000000E+00  0.00000000E+00  7.25347389E-02  0.00000000E+00  0.00000000E+00
  3.00651408E-01  0.00000000E+00  0.00000000E+00  2.96213591E-01 -1.21140864E-01
  0.00000000E+00  0.00000000E+00  1.02051521E-17  0.00000000E+00 -4.13715545E-01
  0.00000000E+00  0.00000000E+00  0.00000000E+00  0.00000000E+00  1.27423981E-01
  0.00000000E+00  0.00000000E+00  2.79325846E-01  0.00000000E+00  0.00000000E+00
  2.76178018E-01  0.00000000E+00  0.00000000E+00  0.00000000E+00  1.28102763E-01
  0.00000000E+00  0.00000000E+00  0.00000000E+00  0.00000000E+00  2.45231227E-01
  0.00000000E+00  0.00000000E+00  0.00000000E+00  0.00000000E+00  0.00000000E+00
  0.00000000E+00  0.00000000E+00  2.61981402E-01  0.00000000E+00  0.00000000E+00
  3.63262686E-01  0.00000000E+00  0.00000000E+00  2.90938597E-01  0.00000000E+00
  0.00000000E+00  0.00000000E+00 -7.22372998E-02  0.00000000E+00  0.00000000E+00
  0.00000000E+00  0.00000000E+00 -1.40365576E-01  0.00000000E+00  0.00000000E+00
  0.00000000E+00  0.00000000E+00  0.00000000E+00  0.00000000E+00  0.00000000E+00
  3.77724878E-02  0.00000000E+00  0.00000000E+00  1.38928422E-01  0.00000000E+00
  0.00000000E+00  1.38276042E-01  0.00000000E+00  0.00000000E+00  0.00000000E+00
 -4.33501721E-02  0.00000000E+00  0.00000000E+00  0.00000000E+00  0.00000000E+00
 -2.46571754E-01  0.00000000E+00  0.00000000E+00  0.00000000E+00  0.00000000E+00
  0.00000000E+00  1.27423981E-01  0.00000000E+00  0.00000000E+00  2.79325846E-01
  0.00000000E+00  0.00000000E+00  2.76178018E-01  0.00000000E+00  0.00000000E+00
  0.00000000E+00  1.28102763E-01  0.00000000E+00  0.00000000E+00  0.00000000E+00
  0.00000000E+00  2.45231227E-01  0.00000000E+00  0.00000000E+00  0.00000000E+00
  0.00000000E+00  0.00000000E+00  0.00000000E+00  0.00000000E+00  2.61981402E-01
  0.00000000E+00  0.00000000E+00  3.63262686E-01  0.00000000E+00  0.00000000E+00
  2.90938597E-01  0.00000000E+00  0.00000000E+00  0.00000000E+00 -7.22372998E-02
  0.00000000E+00  0.00000000E+00  0.00000000E+00  0.00000000E+00 -1.40365576E-01
  0.00000000E+00  0.00000000E+00  0.00000000E+00  0.00000000E+00  0.00000000E+00
  0.00000000E+00  0.00000000E+00  3.77724878E-02  0.00000000E+00  0.00000000E+00
  1.38928422E-01  0.00000000E+00  0.00000000E+00  1.38276042E-01  0.00000000E+00
  0.00000000E+00  0.00000000E+00 -4.33501721E-02  0.00000000E+00  0.00000000E+00
  0.00000000E+00  0.00000000E+00 -2.46571754E-01  3.58192983E-19 -8.22036005E-18
  3.64683745E-19 -4.46945392E-18  0.00000000E+00  0.00000000E+00 -2.09927881E-18
  0.00000000E+00  0.00000000E+00  1.07665547E-17  0.00000000E+00  0.00000000E+00
  2.26845267E-17  4.75066515E-17  0.00000000E+00  0.00000000E+00 -3.58581446E-02
  0.00000000E+00  4.58334684E-17  0.00000000E+00  0.00000000E+00 -1.29348043E-01
  0.00000000E+00 -3.84726523E-18  3.86726477E-18 -4.15956931E-17 -2.48768537E-17
  0.00000000E+00  0.00000000E+00 -4.18778483E-18  0.00000000E+00  0.00000000E+00
  1.86290071E-17  0.00000000E+00  0.00000000E+00  4.49766373E-18  2.57370500E-17
  0.00000000E+00  0.00000000E+00 -9.56743444E-02  0.00000000E+00  2.25260908E-18
  0.00000000E+00  0.00000000E+00 -2.15948835E-01  0.00000000E+00 -1.39400761E-17
  2.33733844E-17 -2.60014178E-17  1.55000505E-17  0.00000000E+00  0.00000000E+00
  3.57125693E-19  0.00000000E+00  0.00000000E+00 -3.37489553E-18  0.00000000E+00
  0.00000000E+00  2.93279461E-18  6.84338289E-18  0.00000000E+00  0.00000000E+00
  3.08000463E-03  0.00000000E+00  3.45952099E-20  0.00000000E+00  0.00000000E+00
 -1.43597192E-01  0.00000000E+00  0.00000000E+00  0.00000000E+00  0.00000000E+00
  0.00000000E+00  0.00000000E+00  0.00000000E+00  0.00000000E+00  0.00000000E+00
  0.00000000E+00  0.00000000E+00  0.00000000E+00  0.00000000E+00  0.00000000E+00
  0.00000000E+00  0.00000000E+00  0.00000000E+00 -3.58581446E-02  0.00000000E+00
  0.00000000E+00  0.00000000E+00  0.00000000E+00 -1.29348043E-01  0.00000000E+00
  0.00000000E+00  0.00000000E+00  0.00000000E+00  0.00000000E+00  0.00000000E+00
  0.00000000E+00  0.00000000E+00  0.00000000E+00  0.00000000E+00  0.00000000E+00
  0.00000000E+00  0.00000000E+00  0.00000000E+00  0.00000000E+00  0.00000000E+00
  0.00000000E+00 -9.56743444E-02  0.00000000E+00  0.00000000E+00  0.00000000E+00
  0.00000000E+00 -2.15948835E-01  0.00000000E+00  0.00000000E+00  0.00000000E+00
  0.00000000E+00  0.00000000E+00  0.00000000E+00  0.00000000E+00  0.00000000E+00
  0.00000000E+00  0.00000000E+00  0.00000000E+00  0.00000000E+00  0.00000000E+00
  0.00000000E+00  0.00000000E+00  0.00000000E+00  0.00000000E+00  3.08000463E-03
  0.00000000E+00  0.00000000E+00  0.00000000E+00  0.00000000E+00 -1.43597192E-01
Multipole Matrix (1,0,0)                   R   N=        2415
  0.00000000E+00  0.00000000E+00  0.00000000E+00  0.00000000E+00  0.00000000E+00
  0.00000000E+00  0.00000000E+00  0.00000000E+00  0.00000000E+00  0.00000000E+00
  4.17326919E-01  4.72884226E-01  2.80778475E-01  1.11862100E-01  0.00000000E+00
  0.00000000E+00  0.00000000E+00  0.00000000E+00  0.00000000E+00  0.00000000E+00
  0.00000000E+00  0.00000000E+00  0.00000000E+00  0.00000000E+00  0.00000000E+00
  0.00000000E+00  0.00000000E+00  0.00000000E+00  2.84964978E-01  8.67674035E-01
  9.31584681E-01  4.99863277E-01  0.00000000E+00  0.00000000E+00  0.00000000E+00
  0.00000000E+00  0.00000000E+00  0.00000000E+00  0.00000000E+00  0.00000000E+00
  0.00000000E+00  0.00000000E+00  0.00000000E+00  0.00000000E+00  0.00000000E+00
  0.00000000E+00  0.00000000E+00  0.00000000E+00  0.00000000E+00  0.00000000E+00
  0.00000000E+00  0.00000000E+00  0.00000000E+00  0.00000000E+00  0.00000000E+00
  8.86326162E-02  5.87362976E-01  1.56019339E+00  1.78809431E+00  0.00000000E+00
  0.00000000E+00  0.00000000E+00  0.00000000E+00  0.00000000E+00  0.00000000E+00
  0.00000000E+00  0.00000000E+00  0.00000000E+00  0.00000000E+00  0.00000000E+00
  0.00000000E+00  0.00000000E+00  0.00000000E+00  0.00000000E+00  0.00000000E+00
  0.00000000E+00  0.00000000E+00  0.00000000E+00  0.00000000E+00  0.00000000E+00
  0.00000000E+00  0.00000000E+00  0.00000000E+00  0.00000000E+00  0.00000000E+00
  0.00000000E+00  0.00000000E+00  0.00000000E+00  0.00000000E+00  0.00000000E+00
  0.00000000E+00  0.00000000E+00  0.00000000E+00  0.00000000E+00  0.00000000E+00
 -2.34839285E-01  0.00000000E+00  0.00000000E+00 -3.03841983E-01  0.00000000E+00
  0.00000000E+00 -1.23766691E-01  0.00000000E+00  0.00000000E+00  0.00000000E+00
  0.00000000E+00  0.00000000E+00  0.00000000E+00  0.00000000E+00  0.00000000E+00
  0.00000000E+00  4.06753573E-01  0.00000000E+00  0.00000000E+00  5.26269752E-01
  0.00000000E+00  0.00000000E+00  2.14370196E-01  0.00000000E+00  0.00000000E+00
  0.00000000E+00  0.00000000E+00  0.00000000E+00  0.00000000E+00  0.00000000E+00
  0.00000000E+00  0.00000000E+00  0.00000000E+00  0.00000000E+00  0.00000000E+00
  0.00000000E+00  0.00000000E+00  0.00000000E+00  0.00000000E+00  0.00000000E+00
  0.00000000E+00  0.00000000E+00  0.00000000E+00  0.00000000E+00  0.00000000E+00
  4.06753573E-01  0.00000000E+00  0.00000000E+00  5.26269752E-01  0.00000000E+00
  0.00000000E+00  2.14370196E-01  0.00000000E+00  0.00000000E+00  0.00000000E+00
  0.00000000E+00  0.00000000E+00  0.00000000E+00  0.00000000E+00  0.00000000E+00
  0.00000000E+00  0.00000000E+00  0.00000000E+00  4.06753573E-01  0.00000000E+00
  0.00000000E+00  5.26269752E-01  0.00000000E+00  0.00000000E+00  2.14370196E-01
  0.00000000E+00  0.00000000E+00  0.00000000E+00  0.00000000E+00  0.00000000E+00
  0.00000000E+00  0.00000000E+00  0.00000000E+00  0.00000000E+00  0.00000000E+00
 -7.44264636E-02  0.00000000E+00  0.00000000E+00 -4.24195101E-01  0.00000000E+00
  0.00000000E+00 -6.48776709E-01  0.00000000E+00  0.00000000E+00  0.00000000E+00
  0.00000000E+00  0.00000000E+00  0.00000000E+00  0.00000000E+00  0.00000000E+00
  0.00000000E+00  0.00000000E+00  0.00000000E+00  0.00000000E+00  0.00000000E+00
  0.00000000E+00  1.28910416E-01  0.00000000E+00  0.00000000E+00  7.34727467E-01
  0.00000000E+00  0.00000000E+00  1.12371422E+00  0.00000000E+00  0.00000000E+00
  0.00000000E+00  0.00000000E+00  0.00000000E+00  0.00000000E+00  0.00000000E+00
  0.00000000E+00  0.00000000E+00  0.00000000E+00  0.00000000E+00  0.00000000E+00
  0.00000000E+00  0.00000000E+00  0.00000000E+00  0.00000000E+00  0.00000000E+00
  0.00000000E+00  0.00000000E+00  0.00000000E+00  0.00000000E+00  0.00000000E+00
  0.00000000E+00  0.00000000E+00  0.00000000E+00  0.00000000E+00  0.00000000E+00
  0.00000000E+00  0.00000000E+00  0.00000000E+00  0.00000000E+00  0.00000000E+00
  1.28910416E-01  0.00000000E+00  0.00000000E+00  7.34727467E-01  0.00000000E+00
  0.00000000E+00  1.12371422E+00  0.00000000E+00  0.00000000E+00  0.00000000E+00
  0.00000000E+00  0.00000000E+00  0.00000000E+00  0.00000000E+00  0.00000000E+00
  0.00000000E+00  0.00000000E+00  0.00000000E+00  0.00000000E+00  0.00000000E+00
  0.00000000E+00  0.00000000E+00  0.00000000E+00  1.28910416E-01  0.00000000E+00
  0.00000000E+00  7.34727467E-01  0.00000000E+00  0.00000000E+00  1.12371422E+00
  0.00000000E+00  0.00000000E+00  0.00000000E+00  0.00000000E+00  0.00000000E+00
  0.00000000E+00  0.00000000E+00  0.00000000E+00  0.00000000E+00  0.00000000E+00
  0.00000000E+00  0.00000000E+00  0.00000000E+00  0.00000000E+00  0.00000000E+00
  4.97196649E-02  0.00000000E+00  0.00000000E+00  1.09567608E-01  0.00000000E+00
  0.00000000E+00  6.52155430E-02  0.00000000E+00  0.00000000E+00  0.00000000E+00
  1.29681976E-01  0.00000000E+00  0.00000000E+00  0.00000000E+00  0.00000000E+00
  1.56136110E-01  0.00000000E+00  0.00000000E+00  0.00000000E+00  0.00000000E+00
  0.00000000E+00  0.00000000E+00  0.00000000E+00  0.00000000E+00  1.99182208E-01
  0.00000000E+00  0.00000000E+00  4.86385085E-01  0.00000000E+00  0.00000000E+00
  4.55663105E-01  0.00000000E+00  0.00000000E+00  0.00000000E+00  2.25623040E-01
  0.00000000E+00  0.00000000E+00  0.00000000E+00  0.00000000E+00  5.52329167E-01
  0.00000000E+00  0.00000000E+00  0.00000000E+00  0.00000000E+00  0.00000000E+00
  0.00000000E+00  0.00000000E+00  0.00000000E+00  0.00000000E+00  2.05354240E-01
  0.00000000E+00  0.00000000E+00  7.14423167E-01  0.00000000E+00  0.00000000E+00
  1.31989461E+00  0.00000000E+00  0.00000000E+00  0.00000000E+00  9.20543617E-02
  0.00000000E+00  0.00000000E+00  0.00000000E+00  0.00000000E+00  5.14410794E-01
  0.00000000E+00  0.00000000E+00  0.00000000E+00  0.00000000E+00  0.00000000E+00
  0.00000000E+00  0.00000000E+00  0.00000000E+00  0.00000000E+00  0.00000000E+00
  1.03147850E-01  0.00000000E+00  0.00000000E+00  4.62580888E-01  0.00000000E+00
  0.00000000E+00  1.67360208E+00  0.00000000E+00  0.00000000E+00  0.00000000E+00
  1.26168978E-02  0.00000000E+00  0.00000000E+00  0.00000000E+00  0.00000000E+00
  1.24809589E-01  0.00000000E+00  0.00000000E+00  0.00000000E+00  0.00000000E+00
  0.00000000E+00  0.00000000E+00  0.00000000E+00  4.97196649E-02  1.99182208E-01
  2.05354240E-01  1.03147850E-01  0.00000000E+00  0.00000000E+00  9.06897729E-02
  0.00000000E+00  0.00000000E+00  3.22492938E-01  0.00000000E+00  0.00000000E+00
  2.20670763E-01  1.38871272E-01  0.00000000E+00  0.00000000E+00  5.65713205E-02
  0.00000000E+00  2.55568264E-01  0.00000000E+00  0.00000000E+00  6.48698129E-02
  0.00000000E+00  4.17326919E-01  4.72884226E-01  2.80778475E-01  1.11862100E-01
  0.00000000E+00  0.00000000E+00  0.00000000E+00  0.00000000E+00  0.00000000E+00
  0.00000000E+00  0.00000000E+00  0.00000000E+00  0.00000000E+00  0.00000000E+00
  0.00000000E+00  0.00000000E+00  0.00000000E+00  0.00000000E+00  0.00000000E+00
  0.00000000E+00  0.00000000E+00  0.00000000E+00  5.65713205E-02  0.00000000E+00
  0.00000000E+00  0.00000000E+00  0.00000000E+00  6.48698129E-02  0.00000000E+00
  0.00000000E+00  0.00000000E+00  0.00000000E+00  0.00000000E+00  0.00000000E+00
  0.00000000E+00  0.00000000E+00  0.00000000E+00  0.00000000E+00 -9.06897729E-02
  0.00000000E+00  0.00000000E+00 -8.89319544E-02  0.00000000E+00  0.00000000E+00
 -1.59974540E-02  0.00000000E+00  0.00000000E+00  0.00000000E+00 -1.66625776E-01
  0.00000000E+00  0.00000000E+00  0.00000000E+00  0.00000000E+00 -2.42269723E-02
  0.00000000E+00  0.00000000E+00  0.00000000E+00  0.00000000E+00  0.00000000E+00
  0.00000000E+00  0.00000000E+00  0.00000000E+00  0.00000000E+00  0.00000000E+00
  1.09567608E-01  4.86385085E-01  7.14423167E-01  4.62580888E-01  0.00000000E+00
  0.00000000E+00  8.89319544E-02  0.00000000E+00  0.00000000E+00  4.79473775E-01
  0.00000000E+00  0.00000000E+00  6.53179479E-01 -3.83309393E-02  0.00000000E+00
  0.00000000E+00  2.08135299E-01  0.00000000E+00  1.42390711E-01  0.00000000E+00
  0.00000000E+00  4.48641884E-01  0.00000000E+00  2.84964978E-01  8.67674035E-01
  9.31584681E-01  4.99863277E-01  0.00000000E+00  0.00000000E+00  0.00000000E+00
  0.00000000E+00  0.00000000E+00  0.00000000E+00  0.00000000E+00  0.00000000E+00
  0.00000000E+00  0.00000000E+00  0.00000000E+00  0.00000000E+00  0.00000000E+00
  0.00000000E+00  0.00000000E+00  0.00000000E+00  0.00000000E+00  0.00000000E+00
  0.00000000E+00  0.00000000E+00  0.00000000E+00  2.08135299E-01  0.00000000E+00
  0.00000000E+00  0.00000000E+00  0.00000000E+00  4.48641884E-01  0.00000000E+00
  0.00000000E+00  0.00000000E+00  0.00000000E+00  0.00000000E+00  0.00000000E+00
  0.00000000E+00  0.00000000E+00  0.00000000E+00  0.00000000E+00  0.00000000E+00
  0.00000000E+00  0.00000000E+00 -3.22492938E-01  0.00000000E+00  0.00000000E+00
 -4.79473775E-01  0.00000000E+00  0.00000000E+00 -1.71712131E-01  0.00000000E+00
  0.00000000E+00  0.00000000E+00 -1.78007953E-01  0.00000000E+00  0.00000000E+00
  0.00000000E+00  0.00000000E+00  6.03454330E-03  0.00000000E+00  0.00000000E+00
  0.00000000E+00  0.00000000E+00  0.00000000E+00  0.00000000E+00  0.00000000E+00
  0.00000000E+00  0.00000000E+00  0.00000000E+00  0.00000000E+00  0.00000000E+00
  0.00000000E+00  6.52155430E-02  4.55663105E-01  1.31989461E+00  1.67360208E+00
  0.00000000E+00  0.00000000E+00  1.59974540E-02  0.00000000E+00  0.00000000E+00
  1.71712131E-01  0.00000000E+00  0.00000000E+00  7.65147743E-01 -8.59607746E-02
  0.00000000E+00  0.00000000E+00  1.58169623E-01  0.00000000E+00 -4.12566907E-01
  0.00000000E+00  0.00000000E+00  8.87539112E-01  0.00000000E+00  8.86326162E-02
  5.87362976E-01  1.56019339E+00  1.78809431E+00  0.00000000E+00  0.00000000E+00
  0.00000000E+00  0.00000000E+00  0.00000000E+00  0.00000000E+00  0.00000000E+00
  0.00000000E+00  0.00000000E+00  0.00000000E+00  0.00000000E+00  0.00000000E+00
  0.00000000E+00  0.00000000E+00  0.00000000E+00  0.00000000E+00  0.00000000E+00
  0.00000000E+00  0.00000000E+00  0.00000000E+00  0.00000000E+00  0.00000000E+00
  0.00000000E+00  0.00000000E+00  1.58169623E-01  0.00000000E+00  0.00000000E+00
  0.00000000E+00  0.00000000E+00  8.87539112E-01  0.00000000E+00  0.00000000E+00
  0.00000000E+00  0.00000000E+00  0.00000000E+00  0.00000000E+00  0.00000000E+00
  0.00000000E+00  0.00000000E+00  0.00000000E+00  0.00000000E+00  0.00000000E+00
  0.00000000E+00  0.00000000E+00  0.00000000E+00  0.00000000E+00 -2.20670763E-01
  0.00000000E+00  0.00000000E+00 -6.53179479E-01  0.00000000E+00  0.00000000E+00
 -7.65147743E-01  0.00000000E+00  0.00000000E+00  0.00000000E+00  6.19909797E-02
  0.00000000E+00  0.00000000E+00  0.00000000E+00  0.00000000E+00  4.68723327E-01
  0.00000000E+00  0.00000000E+00  0.00000000E+00  0.00000000E+00  0.00000000E+00
  0.00000000E+00  0.00000000E+00  0.00000000E+00  0.00000000E+00  0.00000000E+00
  0.00000000E+00  0.00000000E+00  0.00000000E+00  0.00000000E+00  0.00000000E+00
  0.00000000E+00  0.00000000E+00  0.00000000E+00  0.00000000E+00  0.00000000E+00
  1.38871272E-01  0.00000000E+00  0.00000000E+00 -3.83309393E-02  0.00000000E+00
  0.00000000E+00 -8.59607746E-02  0.00000000E+00  0.00000000E+00  0.00000000E+00
  4.21807061E-02  0.00000000E+00  0.00000000E+00  0.00000000E+00  0.00000000E+00
 -2.17633704E-01  0.00000000E+00  0.00000000E+00  0.00000000E+00  0.00000000E+00
  0.00000000E+00  0.00000000E+00  0.00000000E+00 -2.34839285E-01  0.00000000E+00
  0.00000000E+00 -3.03841983E-01  0.00000000E+00  0.00000000E+00 -1.23766691E-01
  0.00000000E+00  0.00000000E+00  0.00000000E+00 -1.29681976E-01 -2.25623040E-01
 -9.20543617E-02 -1.26168978E-02  0.00000000E+00  0.00000000E+00 -1.66625776E-01
  0.00000000E+00  0.00000000E+00 -1.78007953E-01  0.00000000E+00  0.00000000E+00
  6.19909797E-02 -4.21807061E-02  0.00000000E+00  0.00000000E+00 -1.60679679E-01
  0.00000000E+00  1.73301541E-01  0.00000000E+00  0.00000000E+00 -7.58364797E-02
  0.00000000E+00  0.00000000E+00  0.00000000E+00  0.00000000E+00  0.00000000E+00
  0.00000000E+00  0.00000000E+00  4.06753573E-01  0.00000000E+00  0.00000000E+00
  5.26269752E-01  0.00000000E+00  0.00000000E+00  2.14370196E-01  0.00000000E+00
  0.00000000E+00  0.00000000E+00  0.00000000E+00  0.00000000E+00  0.00000000E+00
  0.00000000E+00  0.00000000E+00  0.00000000E+00  0.00000000E+00  0.00000000E+00
  0.00000000E+00  0.00000000E+00  0.00000000E+00  0.00000000E+00  0.00000000E+00
  0.00000000E+00  0.00000000E+00  0.00000000E+00 -1.60679679E-01  0.00000000E+00
  0.00000000E+00  0.00000000E+00  0.00000000E+00 -7.58364797E-02  0.00000000E+00
  0.00000000E+00  0.00000000E+00  0.00000000E+00  0.00000000E+00  0.00000000E+00
  0.00000000E+00  0.00000000E+00  0.00000000E+00  0.00000000E+00  0.00000000E+00
  0.00000000E+00  0.00000000E+00  0.00000000E+00  0.00000000E+00  0.00000000E+00
  0.00000000E+00  0.00000000E+00  0.00000000E+00  0.00000000E+00  5.65713205E-02
  0.00000000E+00  0.00000000E+00  2.08135299E-01  0.00000000E+00  0.00000000E+00
  1.58169623E-01  0.00000000E+00  0.00000000E+00  0.00000000E+00  1.60679679E-01
  0.00000000E+00  0.00000000E+00  0.00000000E+00  0.00000000E+00  3.24531008E-01
  0.00000000E+00  0.00000000E+00  0.00000000E+00  0.00000000E+00  0.00000000E+00
  0.00000000E+00  0.00000000E+00  4.06753573E-01  0.00000000E+00  0.00000000E+00
  5.26269752E-01  0.00000000E+00  0.00000000E+00  2.14370196E-01  0.00000000E+00
  0.00000000E+00  0.00000000E+00  0.00000000E+00  0.00000000E+00  0.00000000E+00
  0.00000000E+00  0.00000000E+00  0.00000000E+00  0.00000000E+00  0.00000000E+00
  5.65713205E-02  0.00000000E+00  0.00000000E+00  2.08135299E-01  0.00000000E+00
  0.00000000E+00  1.58169623E-01  0.00000000E+00  0.00000000E+00  0.00000000E+00
  1.60679679E-01  0.00000000E+00  0.00000000E+00  0.00000000E+00  0.00000000E+00
  3.24531008E-01  0.00000000E+00  0.00000000E+00  0.00000000E+00  0.00000000E+00
  0.00000000E+00  0.00000000E+00  0.00000000E+00  4.06753573E-01  0.00000000E+00
  0.00000000E+00  5.26269752E-01  0.00000000E+00  0.00000000E+00  2.14370196E-01
  0.00000000E+00  0.00000000E+00  0.00000000E+00  0.00000000E+00  0.00000000E+00
  0.00000000E+00  0.00000000E+00  0.00000000E+00  0.00000000E+00  0.00000000E+00
  2.55568264E-01  0.00000000E+00  0.00000000E+00  1.42390711E-01  0.00000000E+00
  0.00000000E+00 -4.12566907E-01  0.00000000E+00  0.00000000E+00  0.00000000E+00
 -1.73301541E-01  0.00000000E+00  0.00000000E+00  0.00000000E+00  0.00000000E+00
 -7.64285736E-01  0.00000000E+00  0.00000000E+00  0.00000000E+00  0.00000000E+00
  0.00000000E+00  0.00000000E+00  0.00000000E+00 -7.44264636E-02  0.00000000E+00
  0.00000000E+00 -4.24195101E-01  0.00000000E+00  0.00000000E+00 -6.48776709E-01
  0.00000000E+00  0.00000000E+00  0.00000000E+00  0.00000000E+00  0.00000000E+00
  0.00000000E+00  0.00000000E+00  0.00000000E+00 -1.56136110E-01 -5.52329167E-01
 -5.14410794E-01 -1.24809589E-01  0.00000000E+00  0.00000000E+00 -2.42269723E-02
  0.00000000E+00  0.00000000E+00  6.03454330E-03  0.00000000E+00  0.00000000E+00
  4.68723327E-01  2.17633704E-01  0.00000000E+00  0.00000000E+00 -3.24531008E-01
  0.00000000E+00  7.64285736E-01  0.00000000E+00  0.00000000E+00 -6.03720101E-01
  0.00000000E+00  0.00000000E+00  0.00000000E+00  0.00000000E+00  0.00000000E+00
  0.00000000E+00  0.00000000E+00  1.28910416E-01  0.00000000E+00  0.00000000E+00
  7.34727467E-01  0.00000000E+00  0.00000000E+00  1.12371422E+00  0.00000000E+00
  0.00000000E+00  0.00000000E+00  0.00000000E+00  0.00000000E+00  0.00000000E+00
  0.00000000E+00  0.00000000E+00  0.00000000E+00  0.00000000E+00  0.00000000E+00
  0.00000000E+00  0.00000000E+00  0.00000000E+00  0.00000000E+00  0.00000000E+00
  0.00000000E+00  0.00000000E+00  0.00000000E+00  0.00000000E+00  0.00000000E+00
  0.00000000E+00  0.00000000E+00  0.00000000E+00 -3.24531008E-01  0.00000000E+00
  0.00000000E+00  0.00000000E+00  0.00000000E+00 -6.03720101E-01  0.00000000E+00
  0.00000000E+00  0.00000000E+00  0.00000000E+00  0.00000000E+00  0.00000000E+00
  0.00000000E+00  0.00000000E+00  0.00000000E+00  0.00000000E+00  0.00000000E+00
  0.00000000E+00  0.00000000E+00  0.00000000E+00  0.00000000E+00  0.00000000E+00
  0.00000000E+00  0.00000000E+00  0.00000000E+00  0.00000000E+00  0.00000000E+00
  0.00000000E+00  0.00000000E+00  0.00000000E+00  0.00000000E+00  6.48698129E-02
  0.00000000E+00  0.00000000E+00  4.48641884E-01  0.00000000E+00  0.00000000E+00
  8.87539112E-01  0.00000000E+00  0.00000000E+00  0.00000000E+00  7.58364797E-02
  0.00000000E+00  0.00000000E+00  0.00000000E+00  0.00000000E+00  6.03720101E-01
  0.00000000E+00  0.00000000E+00  0.00000000E+00  0.00000000E+00  0.00000000E+00
  0.00000000E+00  0.00000000E+00  1.28910416E-01  0.00000000E+00  0.00000000E+00
  7.34727467E-01  0.00000000E+00  0.00000000E+00  1.12371422E+00  0.00000000E+00
  0.00000000E+00  0.00000000E+00  0.00000000E+00  0.00000000E+00  0.00000000E+00
  0.00000000E+00  0.00000000E+00  0.00000000E+00  0.00000000E+00  0.00000000E+00
  0.00000000E+00  0.00000000E+00  0.00000000E+00  0.00000000E+00  0.00000000E+00
  6.48698129E-02  0.00000000E+00  0.00000000E+00  4.48641884E-01  0.00000000E+00
  0.00000000E+00  8.87539112E-01  0.00000000E+00  0.00000000E+00  0.00000000E+00
  7.58364797E-02  0.00000000E+00  0.00000000E+00  0.00000000E+00  0.00000000E+00
  6.03720101E-01  0.00000000E+00  0.00000000E+00  0.00000000E+00  0.00000000E+00
  0.00000000E+00  0.00000000E+00  0.00000000E+00  1.28910416E-01  0.00000000E+00
  0.00000000E+00  7.34727467E-01  0.00000000E+00  0.00000000E+00  1.12371422E+00
  0.00000000E+00  0.00000000E+00  0.00000000E+00  0.00000000E+00  0.00000000E+00
  0.00000000E+00  0.00000000E+00  0.00000000E+00  0.00000000E+00  0.00000000E+00
  0.00000000E+00  0.00000000E+00  0.00000000E+00  0.00000000E+00  0.00000000E+00
  9.63868896E-05  0.00000000E+00  0.00000000E+00  6.26497983E-03  0.00000000E+00
  0.00000000E+00  2.59791128E-02  0.00000000E+00  0.00000000E+00  0.00000000E+00
  1.11604827E-03  0.00000000E+00  0.00000000E+00  0.00000000E+00  0.00000000E+00
  4.21284767E-02  0.00000000E+00  0.00000000E+00  0.00000000E+00  0.00000000E+00
  0.00000000E+00  0.00000000E+00  0.00000000E+00  4.97120297E-02  0.00000000E+00
  0.00000000E+00  1.09559950E-01  0.00000000E+00  0.00000000E+00  6.52140791E-02
  0.00000000E+00  0.00000000E+00  0.00000000E+00  1.29669290E-01  0.00000000E+00
  0.00000000E+00  0.00000000E+00  0.00000000E+00  1.56134190E-01  0.00000000E+00
  0.00000000E+00  0.00000000E+00  0.00000000E+00  0.00000000E+00  0.00000000E+00
  0.00000000E+00  0.00000000E+00  1.48827346E-02  0.00000000E+00  0.00000000E+00
  8.56671667E-02  0.00000000E+00  0.00000000E+00  2.12735331E-01  0.00000000E+00
  0.00000000E+00  0.00000000E+00  3.92537180E-02  0.00000000E+00  0.00000000E+00
  0.00000000E+00  0.00000000E+00  2.78582833E-01  0.00000000E+00  0.00000000E+00
  0.00000000E+00  0.00000000E+00  0.00000000E+00  0.00000000E+00  0.00000000E+00
  1.99169607E-01  0.00000000E+00  0.00000000E+00  4.86364486E-01  0.00000000E+00
  0.00000000E+00  4.55654641E-01  0.00000000E+00  0.00000000E+00  0.00000000E+00
  2.25617857E-01  0.00000000E+00  0.00000000E+00  0.00000000E+00  0.00000000E+00
  5.52330816E-01  0.00000000E+00  0.00000000E+00  0.00000000E+00  0.00000000E+00
  0.00000000E+00  0.00000000E+00  0.00000000E+00  0.00000000E+00  0.00000000E+00
  8.03347386E-02  0.00000000E+00  0.00000000E+00  3.22209421E-01  0.00000000E+00
  0.00000000E+00  7.99118316E-01  0.00000000E+00  0.00000000E+00  0.00000000E+00
  7.35294182E-02  0.00000000E+00  0.00000000E+00  0.00000000E+00  0.00000000E+00
  5.05170210E-01  0.00000000E+00  0.00000000E+00  0.00000000E+00  0.00000000E+00
  0.00000000E+00  0.00000000E+00  0.00000000E+00  2.05349540E-01  0.00000000E+00
  0.00000000E+00  7.14409293E-01  0.00000000E+00  0.00000000E+00  1.31987845E+00
  0.00000000E+00  0.00000000E+00  0.00000000E+00  9.20556688E-02  0.00000000E+00
  0.00000000E+00  0.00000000E+00  0.00000000E+00  5.14420690E-01  0.00000000E+00
  0.00000000E+00  0.00000000E+00  0.00000000E+00  0.00000000E+00  0.00000000E+00
  0.00000000E+00  0.00000000E+00  0.00000000E+00  0.00000000E+00  8.08698536E-02
  0.00000000E+00  0.00000000E+00  3.66599714E-01  0.00000000E+00  0.00000000E+00
  1.37225039E+00  0.00000000E+00  0.00000000E+00  0.00000000E+00  1.98121014E-02
  0.00000000E+00  0.00000000E+00  0.00000000E+00  0.00000000E+00  1.99386386E-01
  0.00000000E+00  0.00000000E+00  0.00000000E+00  0.00000000E+00  0.00000000E+00
  0.00000000E+00  0.00000000E+00  1.03147237E-01  0.00000000E+00  0.00000000E+00
  4.62578265E-01  0.00000000E+00  0.00000000E+00  1.67359398E+00  0.00000000E+00
  0.00000000E+00  0.00000000E+00  1.26172849E-02  0.00000000E+00  0.00000000E+00
  0.00000000E+00  0.00000000E+00  1.24813471E-01  0.00000000E+00  0.00000000E+00
  0.00000000E+00  0.00000000E+00  0.00000000E+00  0.00000000E+00  0.00000000E+00
  9.63868896E-05  1.48827346E-02  8.03347386E-02  8.08698536E-02  0.00000000E+00
  0.00000000E+00  1.83110935E-04  0.00000000E+00  0.00000000E+00  3.26890642E-02
  0.00000000E+00  0.00000000E+00  1.73689213E-01  1.75756519E-03  0.00000000E+00
  0.00000000E+00  1.52147829E-04  0.00000000E+00  1.44574355E-01  0.00000000E+00
  0.00000000E+00  8.26538147E-03  0.00000000E+00  4.97120297E-02  1.99169607E-01
  2.05349540E-01  1.03147237E-01  0.00000000E+00  0.00000000E+00  9.06778336E-02
  0.00000000E+00  0.00000000E+00  3.22481280E-01  0.00000000E+00  0.00000000E+00
  2.20673817E-01  1.38863778E-01  0.00000000E+00  0.00000000E+00  5.65631553E-02
  0.00000000E+00  2.55576862E-01  0.00000000E+00  0.00000000E+00  6.48665533E-02
  0.00000000E+00  4.17326919E-01  4.72884226E-01  2.80778475E-01  1.11862100E-01
  0.00000000E+00  0.00000000E+00  0.00000000E+00  0.00000000E+00  0.00000000E+00
  0.00000000E+00  0.00000000E+00  0.00000000E+00  0.00000000E+00  0.00000000E+00
  0.00000000E+00  0.00000000E+00  0.00000000E+00  0.00000000E+00  0.00000000E+00
  0.00000000E+00  0.00000000E+00  0.00000000E+00  1.52147829E-04  0.00000000E+00
  0.00000000E+00  0.00000000E+00  0.00000000E+00  8.26538147E-03  0.00000000E+00
  0.00000000E+00  0.00000000E+00  0.00000000E+00  0.00000000E+00  0.00000000E+00
  0.00000000E+00  0.00000000E+00  0.00000000E+00  0.00000000E+00  0.00000000E+00
  0.00000000E+00  0.00000000E+00  0.00000000E+00  0.00000000E+00  0.00000000E+00
  0.00000000E+00  5.65631553E-02  0.00000000E+00  0.00000000E+00  0.00000000E+00
  0.00000000E+00  6.48665533E-02  0.00000000E+00  0.00000000E+00  0.00000000E+00
  0.00000000E+00  0.00000000E+00  0.00000000E+00  0.00000000E+00  0.00000000E+00
  0.00000000E+00  0.00000000E+00 -1.83110935E-04  0.00000000E+00  0.00000000E+00
 -9.01446830E-03  0.00000000E+00  0.00000000E+00 -1.25915421E-02  0.00000000E+00
  0.00000000E+00  0.00000000E+00 -2.24908274E-03  0.00000000E+00  0.00000000E+00
  0.00000000E+00  0.00000000E+00 -3.71453158E-02  0.00000000E+00  0.00000000E+00
  0.00000000E+00  0.00000000E+00  0.00000000E+00  0.00000000E+00  0.00000000E+00
 -9.06778336E-02  0.00000000E+00  0.00000000E+00 -8.89287397E-02  0.00000000E+00
  0.00000000E+00 -1.59976754E-02  0.00000000E+00  0.00000000E+00  0.00000000E+00
 -1.66618055E-01  0.00000000E+00  0.00000000E+00  0.00000000E+00  0.00000000E+00
 -2.42322739E-02  0.00000000E+00  0.00000000E+00  0.00000000E+00  0.00000000E+00
  0.00000000E+00  0.00000000E+00  0.00000000E+00  0.00000000E+00  0.00000000E+00
  0.00000000E+00  6.26497983E-03  8.56671667E-02  3.22209421E-01  3.66599714E-01
  0.00000000E+00  0.00000000E+00  9.01446830E-03  0.00000000E+00  0.00000000E+00
  1.43102194E-01  0.00000000E+00  0.00000000E+00  5.91724565E-01  1.28150413E-02
  0.00000000E+00  0.00000000E+00  1.28735636E-02  0.00000000E+00  3.06589720E-01
  0.00000000E+00  0.00000000E+00  1.02138408E-01  0.00000000E+00  1.09559950E-01
  4.86364486E-01  7.14409293E-01  4.62578265E-01  0.00000000E+00  0.00000000E+00
  8.89287397E-02  0.00000000E+00  0.00000000E+00  4.79469071E-01  0.00000000E+00
  0.00000000E+00  6.53190758E-01 -3.83223501E-02  0.00000000E+00  0.00000000E+00
  2.08121172E-01  0.00000000E+00  1.42414943E-01  0.00000000E+00  0.00000000E+00
  4.48625691E-01  0.00000000E+00  2.84964978E-01  8.67674035E-01  9.31584681E-01
  4.99863277E-01  0.00000000E+00  0.00000000E+00  0.00000000E+00  0.00000000E+00
  0.00000000E+00  0.00000000E+00  0.00000000E+00  0.00000000E+00  0.00000000E+00
  0.00000000E+00  0.00000000E+00  0.00000000E+00  0.00000000E+00  0.00000000E+00
  0.00000000E+00  0.00000000E+00  0.00000000E+00  0.00000000E+00  0.00000000E+00
  0.00000000E+00  0.00000000E+00  1.28735636E-02  0.00000000E+00  0.00000000E+00
  0.00000000E+00  0.00000000E+00  1.02138408E-01  0.00000000E+00  0.00000000E+00
  0.00000000E+00  0.00000000E+00  0.00000000E+00  0.00000000E+00  0.00000000E+00
  0.00000000E+00  0.00000000E+00  0.00000000E+00  0.00000000E+00  0.00000000E+00
  0.00000000E+00  0.00000000E+00  0.00000000E+00  0.00000000E+00  0.00000000E+00
  2.08121172E-01  0.00000000E+00  0.00000000E+00  0.00000000E+00  0.00000000E+00
  4.48625691E-01  0.00000000E+00  0.00000000E+00  0.00000000E+00  0.00000000E+00
  0.00000000E+00  0.00000000E+00  0.00000000E+00  0.00000000E+00  0.00000000E+00
  0.00000000E+00  0.00000000E+00  0.00000000E+00  0.00000000E+00 -3.26890642E-02
  0.00000000E+00  0.00000000E+00 -1.43102194E-01  0.00000000E+00  0.00000000E+00
 -1.55556458E-01  0.00000000E+00  0.00000000E+00  0.00000000E+00 -8.26647059E-02
  0.00000000E+00  0.00000000E+00  0.00000000E+00  0.00000000E+00 -3.00934641E-01
  0.00000000E+00  0.00000000E+00  0.00000000E+00  0.00000000E+00  0.00000000E+00
  0.00000000E+00  0.00000000E+00 -3.22481280E-01  0.00000000E+00  0.00000000E+00
 -4.79469071E-01  0.00000000E+00  0.00000000E+00 -1.71715096E-01  0.00000000E+00
  0.00000000E+00  0.00000000E+00 -1.78024124E-01  0.00000000E+00  0.00000000E+00
  0.00000000E+00  0.00000000E+00  6.00194072E-03  0.00000000E+00  0.00000000E+00
  0.00000000E+00  0.00000000E+00  0.00000000E+00  0.00000000E+00  0.00000000E+00
  0.00000000E+00  0.00000000E+00  0.00000000E+00  0.00000000E+00  0.00000000E+00
  0.00000000E+00  2.59791128E-02  2.12735331E-01  7.99118316E-01  1.37225039E+00
  0.00000000E+00  0.00000000E+00  1.25915421E-02  0.00000000E+00  0.00000000E+00
  1.55556458E-01  0.00000000E+00  0.00000000E+00  9.28106401E-01 -2.80696828E-02
  0.00000000E+00  0.00000000E+00  6.35301342E-02  0.00000000E+00 -5.56699170E-02
  0.00000000E+00  0.00000000E+00  4.37287814E-01  0.00000000E+00  6.52140791E-02
  4.55654641E-01  1.31987845E+00  1.67359398E+00  0.00000000E+00  0.00000000E+00
  1.59976754E-02  0.00000000E+00  0.00000000E+00  1.71715096E-01  0.00000000E+00
  0.00000000E+00  7.65166403E-01 -8.59584702E-02  0.00000000E+00  0.00000000E+00
  1.58166104E-01  0.00000000E+00 -4.12552478E-01  0.00000000E+00  0.00000000E+00
  8.87523790E-01  0.00000000E+00  8.86326162E-02  5.87362976E-01  1.56019339E+00
  1.78809431E+00  0.00000000E+00  0.00000000E+00  0.00000000E+00  0.00000000E+00
  0.00000000E+00  0.00000000E+00  0.00000000E+00  0.00000000E+00  0.00000000E+00
  0.00000000E+00  0.00000000E+00  0.00000000E+00  0.00000000E+00  0.00000000E+00
  0.00000000E+00  0.00000000E+00  0.00000000E+00  0.00000000E+00  0.00000000E+00
  0.00000000E+00  0.00000000E+00  0.00000000E+00  0.00000000E+00  0.00000000E+00
  6.35301342E-02  0.00000000E+00  0.00000000E+00  0.00000000E+00  0.00000000E+00
  4.37287814E-01  0.00000000E+00  0.00000000E+00  0.00000000E+00  0.00000000E+00
  0.00000000E+00  0.00000000E+00  0.00000000E+00  0.00000000E+00  0.00000000E+00
  0.00000000E+00  0.00000000E+00  0.00000000E+00  0.00000000E+00  0.00000000E+00
  0.00000000E+00  0.00000000E+00  0.00000000E+00  1.58166104E-01  0.00000000E+00
  0.00000000E+00  0.00000000E+00  0.00000000E+00  8.87523790E-01  0.00000000E+00
  0.00000000E+00  0.00000000E+00  0.00000000E+00  0.00000000E+00  0.00000000E+00
  0.00000000E+00  0.00000000E+00  0.00000000E+00  0.00000000E+00  0.00000000E+00
  0.00000000E+00  0.00000000E+00  0.00000000E+00  0.00000000E+00  0.00000000E+00
 -1.73689213E-01  0.00000000E+00  0.00000000E+00 -5.91724565E-01  0.00000000E+00
  0.00000000E+00 -9.28106401E-01  0.00000000E+00  0.00000000E+00  0.00000000E+00
 -9.09993015E-02  0.00000000E+00  0.00000000E+00  0.00000000E+00  0.00000000E+00
 -3.88139424E-01  0.00000000E+00  0.00000000E+00  0.00000000E+00  0.00000000E+00
  0.00000000E+00  0.00000000E+00  0.00000000E+00 -2.20673817E-01  0.00000000E+00
  0.00000000E+00 -6.53190758E-01  0.00000000E+00  0.00000000E+00 -7.65166403E-01
  0.00000000E+00  0.00000000E+00  0.00000000E+00  6.19825633E-02  0.00000000E+00
  0.00000000E+00  0.00000000E+00  0.00000000E+00  4.68684591E-01  0.00000000E+00
  0.00000000E+00  0.00000000E+00  0.00000000E+00  0.00000000E+00  0.00000000E+00
  0.00000000E+00  0.00000000E+00  0.00000000E+00  0.00000000E+00  0.00000000E+00
  0.00000000E+00  0.00000000E+00  0.00000000E+00  0.00000000E+00  0.00000000E+00
  0.00000000E+00  0.00000000E+00  0.00000000E+00  0.00000000E+00  1.75756519E-03
  0.00000000E+00  0.00000000E+00  1.28150413E-02  0.00000000E+00  0.00000000E+00
 -2.80696828E-02  0.00000000E+00  0.00000000E+00  0.00000000E+00  1.12719234E-02
  0.00000000E+00  0.00000000E+00  0.00000000E+00  0.00000000E+00 -1.28379722E-02
  0.00000000E+00  0.00000000E+00  0.00000000E+00  0.00000000E+00  0.00000000E+00
  0.00000000E+00  0.00000000E+00  1.38863778E-01  0.00000000E+00  0.00000000E+00
 -3.83223501E-02  0.00000000E+00  0.00000000E+00 -8.59584702E-02  0.00000000E+00
  0.00000000E+00  0.00000000E+00  4.22003663E-02  0.00000000E+00  0.00000000E+00
  0.00000000E+00  0.00000000E+00 -2.17627052E-01  0.00000000E+00  0.00000000E+00
  0.00000000E+00  0.00000000E+00  0.00000000E+00  0.00000000E+00  0.00000000E+00
 -2.34839285E-01  0.00000000E+00  0.00000000E+00 -3.03841983E-01  0.00000000E+00
  0.00000000E+00 -1.23766691E-01  0.00000000E+00  0.00000000E+00  0.00000000E+00
 -1.11604827E-03 -3.92537180E-02 -7.35294182E-02 -1.98121014E-02  0.00000000E+00
  0.00000000E+00 -2.24908274E-03  0.00000000E+00  0.00000000E+00 -8.26647059E-02
  0.00000000E+00  0.00000000E+00 -9.09993015E-02 -1.12719234E-02  0.00000000E+00
  0.00000000E+00 -1.80451790E-03  0.00000000E+00 -1.57927304E-01  0.00000000E+00
  0.00000000E+00 -2.12959599E-02  0.00000000E+00 -1.29669290E-01 -2.25617857E-01
 -9.20556688E-02 -1.26172849E-02  0.00000000E+00  0.00000000E+00 -1.66618055E-01
  0.00000000E+00  0.00000000E+00 -1.78024124E-01  0.00000000E+00  0.00000000E+00
  6.19825633E-02 -4.22003663E-02  0.00000000E+00  0.00000000E+00 -1.60665249E-01
  0.00000000E+00  1.73281641E-01  0.00000000E+00  0.00000000E+00 -7.58356229E-02
  0.00000000E+00  0.00000000E+00  0.00000000E+00  0.00000000E+00  0.00000000E+00
  0.00000000E+00  0.00000000E+00  4.06753573E-01  0.00000000E+00  0.00000000E+00
  5.26269752E-01  0.00000000E+00  0.00000000E+00  2.14370196E-01  0.00000000E+00
  0.00000000E+00  0.00000000E+00  0.00000000E+00  0.00000000E+00  0.00000000E+00
  0.00000000E+00  0.00000000E+00  0.00000000E+00  0.00000000E+00  0.00000000E+00
  0.00000000E+00  0.00000000E+00  0.00000000E+00  0.00000000E+00  0.00000000E+00
  0.00000000E+00  0.00000000E+00  0.00000000E+00 -1.80451790E-03  0.00000000E+00
  0.00000000E+00  0.00000000E+00  0.00000000E+00 -2.12959599E-02  0.00000000E+00
  0.00000000E+00  0.00000000E+00  0.00000000E+00  0.00000000E+00  0.00000000E+00
  0.00000000E+00  0.00000000E+00  0.00000000E+00  0.00000000E+00  0.00000000E+00
  0.00000000E+00  0.00000000E+00  0.00000000E+00  0.00000000E+00  0.00000000E+00
  0.00000000E+00 -1.60665249E-01  0.00000000E+00  0.00000000E+00  0.00000000E+00
  0.00000000E+00 -7.58356229E-02  0.00000000E+00  0.00000000E+00  0.00000000E+00
  0.00000000E+00  0.00000000E+00  0.00000000E+00  0.00000000E+00  0.00000000E+00
  0.00000000E+00  0.00000000E+00  0.00000000E+00  0.00000000E+00  0.00000000E+00
  0.00000000E+00  0.00000000E+00  0.00000000E+00  0.00000000E+00  0.00000000E+00
  0.00000000E+00  0.00000000E+00  1.52147829E-04  0.00000000E+00  0.00000000E+00
  1.28735636E-02  0.00000000E+00  0.00000000E+00  6.35301342E-02  0.00000000E+00
  0.00000000E+00  0.00000000E+00  1.80451790E-03  0.00000000E+00  0.00000000E+00
  0.00000000E+00  0.00000000E+00  9.11329136E-02  0.00000000E+00  0.00000000E+00
  0.00000000E+00  0.00000000E+00  0.00000000E+00  0.00000000E+00  0.00000000E+00
  5.65631553E-02  0.00000000E+00  0.00000000E+00  2.08121172E-01  0.00000000E+00
  0.00000000E+00  1.58166104E-01  0.00000000E+00  0.00000000E+00  0.00000000E+00
  1.60665249E-01  0.00000000E+00  0.00000000E+00  0.00000000E+00  0.00000000E+00
  3.24527342E-01  0.00000000E+00  0.00000000E+00  0.00000000E+00  0.00000000E+00
  0.00000000E+00  0.00000000E+00  0.00000000E+00  4.06753573E-01  0.00000000E+00
  0.00000000E+00  5.26269752E-01  0.00000000E+00  0.00000000E+00  2.14370196E-01
  0.00000000E+00  0.00000000E+00  0.00000000E+00  0.00000000E+00  0.00000000E+00
  0.00000000E+00  0.00000000E+00  0.00000000E+00  0.00000000E+00  0.00000000E+00
  0.00000000E+00  1.52147829E-04  0.00000000E+00  0.00000000E+00  1.28735636E-02
  0.00000000E+00  0.00000000E+00  6.35301342E-02  0.00000000E+00  0.00000000E+00
  0.00000000E+00  1.80451790E-03  0.00000000E+00  0.00000000E+00  0.00000000E+00
  0.00000000E+00  9.11329136E-02  0.00000000E+00  0.00000000E+00  0.00000000E+00
  0.00000000E+00  0.00000000E+00  0.00000000E+00  0.00000000E+00  5.65631553E-02
  0.00000000E+00  0.00000000E+00  2.08121172E-01  0.00000000E+00  0.00000000E+00
  1.58166104E-01  0.00000000E+00  0.00000000E+00  0.00000000E+00  1.60665249E-01
  0.00000000E+00  0.00000000E+00  0.00000000E+00  0.00000000E+00  3.24527342E-01
  0.00000000E+00  0.00000000E+00  0.00000000E+00  0.00000000E+00  0.00000000E+00
  0.00000000E+00  0.00000000E+00  4.06753573E-01  0.00000000E+00  0.00000000E+00
  5.26269752E-01  0.00000000E+00  0.00000000E+00  2.14370196E-01  0.00000000E+00
  0.00000000E+00  0.00000000E+00  0.00000000E+00  0.00000000E+00  0.00000000E+00
  0.00000000E+00  0.00000000E+00  0.00000000E+00  0.00000000E+00  1.44574355E-01
  0.00000000E+00  0.00000000E+00  3.06589720E-01  0.00000000E+00  0.00000000E+00
 -5.56699170E-02  0.00000000E+00  0.00000000E+00  0.00000000E+00  1.57927304E-01
  0.00000000E+00  0.00000000E+00  0.00000000E+00  0.00000000E+00  4.76171461E-02
  0.00000000E+00  0.00000000E+00  0.00000000E+00  0.00000000E+00  0.00000000E+00
  0.00000000E+00  0.00000000E+00  2.55576862E-01  0.00000000E+00  0.00000000E+00
  1.42414943E-01  0.00000000E+00  0.00000000E+00 -4.12552478E-01  0.00000000E+00
  0.00000000E+00  0.00000000E+00 -1.73281641E-01  0.00000000E+00  0.00000000E+00
  0.00000000E+00  0.00000000E+00 -7.64270533E-01  0.00000000E+00  0.00000000E+00
  0.00000000E+00  0.00000000E+00  0.00000000E+00  0.00000000E+00  0.00000000E+00
 -7.44264636E-02  0.00000000E+00  0.00000000E+00 -4.24195101E-01  0.00000000E+00
  0.00000000E+00 -6.48776709E-01  0.00000000E+00  0.00000000E+00  0.00000000E+00
  0.00000000E+00  0.00000000E+00  0.00000000E+00  0.00000000E+00  0.00000000E+00
 -4.21284767E-02 -2.78582833E-01 -5.05170210E-01 -1.99386386E-01  0.00000000E+00
  0.00000000E+00 -3.71453158E-02  0.00000000E+00  0.00000000E+00 -3.00934641E-01
  0.00000000E+00  0.00000000E+00 -3.88139424E-01  1.28379722E-02  0.00000000E+00
  0.00000000E+00 -9.11329136E-02  0.00000000E+00 -4.76171461E-02  0.00000000E+00
  0.00000000E+00 -3.59702989E-01  0.00000000E+00 -1.56134190E-01 -5.52330816E-01
 -5.14420690E-01 -1.24813471E-01  0.00000000E+00  0.00000000E+00 -2.42322739E-02
  0.00000000E+00  0.00000000E+00  6.00194072E-03  0.00000000E+00  0.00000000E+00
  4.68684591E-01  2.17627052E-01  0.00000000E+00  0.00000000E+00 -3.24527342E-01
  0.00000000E+00  7.64270533E-01  0.00000000E+00  0.00000000E+00 -6.03724357E-01
  0.00000000E+00  0.00000000E+00  0.00000000E+00  0.00000000E+00  0.00000000E+00
  0.00000000E+00  0.00000000E+00  1.28910416E-01  0.00000000E+00  0.00000000E+00
  7.34727467E-01  0.00000000E+00  0.00000000E+00  1.12371422E+00  0.00000000E+00
  0.00000000E+00  0.00000000E+00  0.00000000E+00  0.00000000E+00  0.00000000E+00
  0.00000000E+00  0.00000000E+00  0.00000000E+00  0.00000000E+00  0.00000000E+00
  0.00000000E+00  0.00000000E+00  0.00000000E+00  0.00000000E+00  0.00000000E+00
  0.00000000E+00  0.00000000E+00  0.00000000E+00  0.00000000E+00  0.00000000E+00
  0.00000000E+00  0.00000000E+00  0.00000000E+00 -9.11329136E-02  0.00000000E+00
  0.00000000E+00  0.00000000E+00  0.00000000E+00 -3.59702989E-01  0.00000000E+00
  0.00000000E+00  0.00000000E+00  0.00000000E+00  0.00000000E+00  0.00000000E+00
  0.00000000E+00  0.00000000E+00  0.00000000E+00  0.00000000E+00  0.00000000E+00
  0.00000000E+00  0.00000000E+00  0.00000000E+00  0.00000000E+00  0.00000000E+00
  0.00000000E+00 -3.24527342E-01  0.00000000E+00  0.00000000E+00  0.00000000E+00
  0.00000000E+00 -6.03724357E-01  0.00000000E+00  0.00000000E+00  0.00000000E+00
  0.00000000E+00  0.00000000E+00  0.00000000E+00  0.00000000E+00  0.00000000E+00
  0.00000000E+00  0.00000000E+00  0.00000000E+00  0.00000000E+00  0.00000000E+00
  0.00000000E+00  0.00000000E+00  0.00000000E+00  0.00000000E+00  0.00000000E+00
  0.00000000E+00  0.00000000E+00  0.00000000E+00  0.00000000E+00  0.00000000E+00
  0.00000000E+00  0.00000000E+00  8.26538147E-03  0.00000000E+00  0.00000000E+00
  1.02138408E-01  0.00000000E+00  0.00000000E+00  4.37287814E-01  0.00000000E+00
  0.00000000E+00  0.00000000E+00  2.12959599E-02  0.00000000E+00  0.00000000E+00
  0.00000000E+00  0.00000000E+00  3.59702989E-01  0.00000000E+00  0.00000000E+00
  0.00000000E+00  0.00000000E+00  0.00000000E+00  0.00000000E+00  0.00000000E+00
  6.48665533E-02  0.00000000E+00  0.00000000E+00  4.48625691E-01  0.00000000E+00
  0.00000000E+00  8.87523790E-01  0.00000000E+00  0.00000000E+00  0.00000000E+00
  7.58356229E-02  0.00000000E+00  0.00000000E+00  0.00000000E+00  0.00000000E+00
  6.03724357E-01  0.00000000E+00  0.00000000E+00  0.00000000E+00  0.00000000E+00
  0.00000000E+00  0.00000000E+00  0.00000000E+00  1.28910416E-01  0.00000000E+00
  0.00000000E+00  7.34727467E-01  0.00000000E+00  0.00000000E+00  1.12371422E+00
  0.00000000E+00  0.00000000E+00  0.00000000E+00  0.00000000E+00  0.00000000E+00
  0.00000000E+00  0.00000000E+00  0.00000000E+00  0.00000000E+00  0.00000000E+00
  0.00000000E+00  0.00000000E+00  0.00000000E+00  0.00000000E+00  0.00000000E+00
  0.00000000E+00  8.26538147E-03  0.00000000E+00  0.00000000E+00  1.02138408E-01
  0.00000000E+00  0.00000000E+00  4.37287814E-01  0.00000000E+00  0.00000000E+00
  0.00000000E+00  2.12959599E-02  0.00000000E+00  0.00000000E+00  0.00000000E+00
  0.00000000E+00  3.59702989E-01  0.00000000E+00  0.00000000E+00  0.00000000E+00
  0.00000000E+00  0.00000000E+00  0.00000000E+00  0.00000000E+00  6.48665533E-02
  0.00000000E+00  0.00000000E+00  4.48625691E-01  0.00000000E+00  0.00000000E+00
  8.87523790E-01  0.00000000E+00  0.00000000E+00  0.00000000E+00  7.58356229E-02
  0.00000000E+00  0.00000000E+00  0.00000000E+00  0.00000000E+00  6.03724357E-01
  0.00000000E+00  0.00000000E+00  0.00000000E+00  0.00000000E+00  0.00000000E+00
  0.00000000E+00  0.00000000E+00  1.28910416E-01  0.00000000E+00  0.00000000E+00
  7.34727467E-01  0.00000000E+00  0.00000000E+00  1.12371422E+00  0.00000000E+00
  0.00000000E+00  0.00000000E+00  0.00000000E+00  0.00000000E+00  0.00000000E+00
  0.00000000E+00  0.00000000E+00  0.00000000E+00  0.00000000E+00  0.00000000E+00
Multipole Matrix (0,1,0)                   R   N=        2415
  0.00000000E+00  0.00000000E+00  0.00000000E+00  0.00000000E+00  0.00000000E+00
  0.00000000E+00  0.00000000E+00  0.00000000E+00  0.00000000E+00  0.00000000E+00
  0.00000000E+00  0.00000000E+00  0.00000000E+00  0.00000000E+00  0.00000000E+00
  4.17326919E-01  4.72884226E-01  2.80778475E-01  1.11862100E-01  0.00000000E+00
  0.00000000E+00  0.00000000E+00  0.00000000E+00  0.00000000E+00  0.00000000E+00
  0.00000000E+00  0.00000000E+00  0.00000000E+00  0.00000000E+00  0.00000000E+00
  0.00000000E+00  0.00000000E+00  0.00000000E+00  0.00000000E+00  0.00000000E+00
  0.00000000E+00  2.84964978E-01  8.67674035E-01  9.31584681E-01  4.99863277E-01
  0.00000000E+00  0.00000000E+00  0.00000000E+00  0.00000000E+00  0.00000000E+00
  0.00000000E+00  0.00000000E+00  0.00000000E+00  0.00000000E+00  0.00000000E+00
  0.00000000E+00  0.00000000E+00  0.00000000E+00  0.00000000E+00  0.00000000E+00
  0.00000000E+00  0.00000000E+00  0.00000000E+00  0.00000000E+00  0.00000000E+00
  0.00000000E+00  0.00000000E+00  0.00000000E+00  0.00000000E+00  0.00000000E+00
  0.00000000E+00  8.86326162E-02  5.87362976E-01  1.56019339E+00  1.78809431E+00
  0.00000000E+00  0.00000000E+00  0.00000000E+00  0.00000000E+00  0.00000000E+00
  0.00000000E+00  0.00000000E+00  0.00000000E+00  0.00000000E+00  0.00000000E+00
  0.00000000E+00  0.00000000E+00  0.00000000E+00  0.00000000E+00  0.00000000E+00
  0.00000000E+00  0.00000000E+00  0.00000000E+00  0.00000000E+00  0.00000000E+00
  0.00000000E+00  0.00000000E+00  0.00000000E+00  0.00000000E+00  0.00000000E+00
  0.00000000E+00 -2.34839285E-01  0.00000000E+00  0.00000000E+00 -3.03841983E-01
  0.00000000E+00  0.00000000E+00 -1.23766691E-01  0.00000000E+00  0.00000000E+00
  0.00000000E+00  0.00000000E+00  0.00000000E+00  0.00000000E+00  0.00000000E+00
  0.00000000E+00  0.00000000E+00  0.00000000E+00  0.00000000E+00  0.00000000E+00
  0.00000000E+00  0.00000000E+00  0.00000000E+00  0.00000000E+00  0.00000000E+00
  0.00000000E+00  0.00000000E+00  0.00000000E+00  0.00000000E+00  0.00000000E+00
  0.00000000E+00  4.06753573E-01  0.00000000E+00  0.00000000E+00  5.26269752E-01
  0.00000000E+00  0.00000000E+00  2.14370196E-01  0.00000000E+00  0.00000000E+00
  0.00000000E+00  0.00000000E+00  0.00000000E+00  0.00000000E+00  0.00000000E+00
  0.00000000E+00 -4.06753573E-01  0.00000000E+00  0.00000000E+00 -5.26269752E-01
  0.00000000E+00  0.00000000E+00 -2.14370196E-01  0.00000000E+00  0.00000000E+00
  0.00000000E+00  0.00000000E+00  0.00000000E+00  0.00000000E+00  0.00000000E+00
  0.00000000E+00  0.00000000E+00  4.06753573E-01  0.00000000E+00  0.00000000E+00
  5.26269752E-01  0.00000000E+00  0.00000000E+00  2.14370196E-01  0.00000000E+00
  0.00000000E+00  0.00000000E+00  0.00000000E+00  0.00000000E+00  0.00000000E+00
  0.00000000E+00  0.00000000E+00  0.00000000E+00  0.00000000E+00  0.00000000E+00
  0.00000000E+00 -7.44264636E-02  0.00000000E+00  0.00000000E+00 -4.24195101E-01
  0.00000000E+00  0.00000000E+00 -6.48776709E-01  0.00000000E+00  0.00000000E+00
  0.00000000E+00  0.00000000E+00  0.00000000E+00  0.00000000E+00  0.00000000E+00
  0.00000000E+00  0.00000000E+00  0.00000000E+00  0.00000000E+00  0.00000000E+00
  0.00000000E+00  0.00000000E+00  0.00000000E+00  0.00000000E+00  0.00000000E+00
  0.00000000E+00  0.00000000E+00  0.00000000E+00  0.00000000E+00  0.00000000E+00
  0.00000000E+00  0.00000000E+00  0.00000000E+00  0.00000000E+00  0.00000000E+00
  0.00000000E+00  0.00000000E+00  0.00000000E+00  0.00000000E+00  0.00000000E+00
  0.00000000E+00  1.28910416E-01  0.00000000E+00  0.00000000E+00  7.34727467E-01
  0.00000000E+00  0.00000000E+00  1.12371422E+00  0.00000000E+00  0.00000000E+00
  0.00000000E+00  0.00000000E+00  0.00000000E+00  0.00000000E+00  0.00000000E+00
  0.00000000E+00  0.00000000E+00  0.00000000E+00  0.00000000E+00  0.00000000E+00
  0.00000000E+00 -1.28910416E-01  0.00000000E+00  0.00000000E+00 -7.34727467E-01
  0.00000000E+00  0.00000000E+00 -1.12371422E+00  0.00000000E+00  0.00000000E+00
  0.00000000E+00  0.00000000E+00  0.00000000E+00  0.00000000E+00  0.00000000E+00
  0.00000000E+00  0.00000000E+00  0.00000000E+00  0.00000000E+00  0.00000000E+00
  0.00000000E+00  0.00000000E+00  1.28910416E-01  0.00000000E+00  0.00000000E+00
  7.34727467E-01  0.00000000E+00  0.00000000E+00  1.12371422E+00  0.00000000E+00
  0.00000000E+00  0.00000000E+00  0.00000000E+00  0.00000000E+00  0.00000000E+00
  0.00000000E+00  0.00000000E+00  0.00000000E+00  0.00000000E+00  0.00000000E+00
  0.00000000E+00  0.00000000E+00  0.00000000E+00  0.00000000E+00  0.00000000E+00
  0.00000000E+00  4.97196649E-02  0.00000000E+00  0.00000000E+00  1.09567608E-01
  0.00000000E+00  0.00000000E+00  6.52155430E-02  0.00000000E+00  0.00000000E+00
  0.00000000E+00  1.29681976E-01  0.00000000E+00  0.00000000E+00  0.00000000E+00
  0.00000000E+00  1.56136110E-01  0.00000000E+00  0.00000000E+00  0.00000000E+00
  0.00000000E+00  0.00000000E+00  0.00000000E+00  0.00000000E+00  0.00000000E+00
  1.99182208E-01  0.00000000E+00  0.00000000E+00  4.86385085E-01  0.00000000E+00
  0.00000000E+00  4.55663105E-01  0.00000000E+00  0.00000000E+00  0.00000000E+00
  2.25623040E-01  0.00000000E+00  0.00000000E+00  0.00000000E+00  0.00000000E+00
  5.52329167E-01  0.00000000E+00  0.00000000E+00  0.00000000E+00  0.00000000E+00
  0.00000000E+00  0.00000000E+00  0.00000000E+00  0.00000000E+00  0.00000000E+00
  2.05354240E-01  0.00000000E+00  0.00000000E+00  7.14423167E-01  0.00000000E+00
  0.00000000E+00  1.31989461E+00  0.00000000E+00  0.00000000E+00  0.00000000E+00
  9.20543617E-02  0.00000000E+00  0.00000000E+00  0.00000000E+00  0.00000000E+00
  5.14410794E-01  0.00000000E+00  0.00000000E+00  0.00000000E+00  0.00000000E+00
  0.00000000E+00  0.00000000E+00  0.00000000E+00  0.00000000E+00  0.00000000E+00
  0.00000000E+00  1.03147850E-01  0.00000000E+00  0.00000000E+00  4.62580888E-01
  0.00000000E+00  0.00000000E+00  1.67360208E+00  0.00000000E+00  0.00000000E+00
  0.00000000E+00  1.26168978E-02  0.00000000E+00  0.00000000E+00  0.00000000E+00
  0.00000000E+00  1.24809589E-01  0.00000000E+00  0.00000000E+00  0.00000000E+00
  0.00000000E+00  0.00000000E+00  0.00000000E+00  0.00000000E+00  0.00000000E+00
  0.00000000E+00  0.00000000E+00  0.00000000E+00  0.00000000E+00  0.00000000E+00
  0.00000000E+00  0.00000000E+00  0.00000000E+00  0.00000000E+00  0.00000000E+00
  0.00000000E+00  0.00000000E+00  0.00000000E+00  0.00000000E+00  0.00000000E+00
  5.65713205E-02  0.00000000E+00  0.00000000E+00  0.00000000E+00  0.00000000E+00
  6.48698129E-02  0.00000000E+00  0.00000000E+00  0.00000000E+00  0.00000000E+00
  0.00000000E+00  4.97196649E-02  1.99182208E-01  2.05354240E-01  1.03147850E-01
  0.00000000E+00  0.00000000E+00  9.06897729E-02  0.00000000E+00  0.00000000E+00
  3.22492938E-01  0.00000000E+00  0.00000000E+00  2.20670763E-01  1.38871272E-01
  0.00000000E+00  0.00000000E+00 -5.65713205E-02  0.00000000E+00  2.55568264E-01
  0.00000000E+00  0.00000000E+00 -6.48698129E-02  0.00000000E+00  4.17326919E-01
  4.72884226E-01  2.80778475E-01  1.11862100E-01  0.00000000E+00  0.00000000E+00
  0.00000000E+00  0.00000000E+00  0.00000000E+00  0.00000000E+00  0.00000000E+00
 -9.06897729E-02  0.00000000E+00  0.00000000E+00 -8.89319544E-02  0.00000000E+00
  0.00000000E+00 -1.59974540E-02  0.00000000E+00  0.00000000E+00  0.00000000E+00
 -1.66625776E-01  0.00000000E+00  0.00000000E+00  0.00000000E+00  0.00000000E+00
 -2.42269723E-02  0.00000000E+00  0.00000000E+00  0.00000000E+00  0.00000000E+00
  0.00000000E+00  0.00000000E+00  0.00000000E+00  0.00000000E+00  0.00000000E+00
  0.00000000E+00  0.00000000E+00  0.00000000E+00  0.00000000E+00  0.00000000E+00
  0.00000000E+00  0.00000000E+00  0.00000000E+00  0.00000000E+00  0.00000000E+00
  0.00000000E+00  0.00000000E+00  0.00000000E+00  0.00000000E+00  0.00000000E+00
  0.00000000E+00  0.00000000E+00  2.08135299E-01  0.00000000E+00  0.00000000E+00
  0.00000000E+00  0.00000000E+00  4.48641884E-01  0.00000000E+00  0.00000000E+00
  0.00000000E+00  0.00000000E+00  0.00000000E+00  0.00000000E+00  0.00000000E+00
  0.00000000E+00  1.09567608E-01  4.86385085E-01  7.14423167E-01  4.62580888E-01
  0.00000000E+00  0.00000000E+00  8.89319544E-02  0.00000000E+00  0.00000000E+00
  4.79473775E-01  0.00000000E+00  0.00000000E+00  6.53179479E-01 -3.83309393E-02
  0.00000000E+00  0.00000000E+00 -2.08135299E-01  0.00000000E+00  1.42390711E-01
  0.00000000E+00  0.00000000E+00 -4.48641884E-01  0.00000000E+00  2.84964978E-01
  8.67674035E-01  9.31584681E-01  4.99863277E-01  0.00000000E+00  0.00000000E+00
  0.00000000E+00  0.00000000E+00  0.00000000E+00  0.00000000E+00  0.00000000E+00
  0.00000000E+00  0.00000000E+00  0.00000000E+00 -3.22492938E-01  0.00000000E+00
  0.00000000E+00 -4.79473775E-01  0.00000000E+00  0.00000000E+00 -1.71712131E-01
  0.00000000E+00  0.00000000E+00  0.00000000E+00 -1.78007953E-01  0.00000000E+00
  0.00000000E+00  0.00000000E+00  0.00000000E+00  6.03454330E-03  0.00000000E+00
  0.00000000E+00  0.00000000E+00  0.00000000E+00  0.00000000E+00  0.00000000E+00
  0.00000000E+00  0.00000000E+00  0.00000000E+00  0.00000000E+00  0.00000000E+00
  0.00000000E+00  0.00000000E+00  0.00000000E+00  0.00000000E+00  0.00000000E+00
  0.00000000E+00  0.00000000E+00  0.00000000E+00  0.00000000E+00  0.00000000E+00
  0.00000000E+00  0.00000000E+00  0.00000000E+00  0.00000000E+00  0.00000000E+00
  0.00000000E+00  0.00000000E+00  0.00000000E+00  1.58169623E-01  0.00000000E+00
  0.00000000E+00  0.00000000E+00  0.00000000E+00  8.87539112E-01  0.00000000E+00
  0.00000000E+00  0.00000000E+00  0.00000000E+00  0.00000000E+00  0.00000000E+00
  0.00000000E+00  0.00000000E+00  0.00000000E+00  0.00000000E+00  0.00000000E+00
  6.52155430E-02  4.55663105E-01  1.31989461E+00  1.67360208E+00  0.00000000E+00
  0.00000000E+00  1.59974540E-02  0.00000000E+00  0.00000000E+00  1.71712131E-01
  0.00000000E+00  0.00000000E+00  7.65147743E-01 -8.59607746E-02  0.00000000E+00
  0.00000000E+00 -1.58169623E-01  0.00000000E+00 -4.12566907E-01  0.00000000E+00
  0.00000000E+00 -8.87539112E-01  0.00000000E+00  8.86326162E-02  5.87362976E-01
  1.56019339E+00  1.78809431E+00  0.00000000E+00  0.00000000E+00  0.00000000E+00
  0.00000000E+00  0.00000000E+00  0.00000000E+00  0.00000000E+00  0.00000000E+00
  0.00000000E+00  0.00000000E+00  0.00000000E+00  0.00000000E+00  0.00000000E+00
 -2.20670763E-01  0.00000000E+00  0.00000000E+00 -6.53179479E-01  0.00000000E+00
  0.00000000E+00 -7.65147743E-01  0.00000000E+00  0.00000000E+00  0.00000000E+00
  6.19909797E-02  0.00000000E+00  0.00000000E+00  0.00000000E+00  0.00000000E+00
  4.68723327E-01  0.00000000E+00  0.00000000E+00  0.00000000E+00  0.00000000E+00
  0.00000000E+00  0.00000000E+00  0.00000000E+00  0.00000000E+00  0.00000000E+00
  0.00000000E+00  0.00000000E+00  0.00000000E+00  0.00000000E+00  0.00000000E+00
  0.00000000E+00  0.00000000E+00  0.00000000E+00  0.00000000E+00  0.00000000E+00
  0.00000000E+00  1.38871272E-01  0.00000000E+00  0.00000000E+00 -3.83309393E-02
  0.00000000E+00  0.00000000E+00 -8.59607746E-02  0.00000000E+00  0.00000000E+00
  0.00000000E+00  4.21807061E-02  0.00000000E+00  0.00000000E+00  0.00000000E+00
  0.00000000E+00 -2.17633704E-01  0.00000000E+00  0.00000000E+00  0.00000000E+00
  0.00000000E+00  0.00000000E+00  0.00000000E+00  0.00000000E+00 -2.34839285E-01
  0.00000000E+00  0.00000000E+00 -3.03841983E-01  0.00000000E+00  0.00000000E+00
 -1.23766691E-01  0.00000000E+00  0.00000000E+00  0.00000000E+00  0.00000000E+00
  0.00000000E+00  0.00000000E+00  0.00000000E+00  0.00000000E+00  0.00000000E+00
  0.00000000E+00  0.00000000E+00  0.00000000E+00  0.00000000E+00  0.00000000E+00
  0.00000000E+00  0.00000000E+00  0.00000000E+00  0.00000000E+00  0.00000000E+00
 -1.60679679E-01  0.00000000E+00  0.00000000E+00  0.00000000E+00  0.00000000E+00
 -7.58364797E-02  0.00000000E+00  0.00000000E+00  0.00000000E+00  0.00000000E+00
  0.00000000E+00  0.00000000E+00  0.00000000E+00  0.00000000E+00  0.00000000E+00
  0.00000000E+00  0.00000000E+00  0.00000000E+00  0.00000000E+00  0.00000000E+00
  0.00000000E+00 -1.29681976E-01 -2.25623040E-01 -9.20543617E-02 -1.26168978E-02
  0.00000000E+00  0.00000000E+00 -1.66625776E-01  0.00000000E+00  0.00000000E+00
 -1.78007953E-01  0.00000000E+00  0.00000000E+00  6.19909797E-02 -4.21807061E-02
  0.00000000E+00  0.00000000E+00  1.60679679E-01  0.00000000E+00  1.73301541E-01
  0.00000000E+00  0.00000000E+00  7.58364797E-02  0.00000000E+00  0.00000000E+00
  0.00000000E+00  0.00000000E+00  0.00000000E+00  0.00000000E+00  0.00000000E+00
  4.06753573E-01  0.00000000E+00  0.00000000E+00  5.26269752E-01  0.00000000E+00
  0.00000000E+00  2.14370196E-01  0.00000000E+00  0.00000000E+00  0.00000000E+00
  0.00000000E+00  0.00000000E+00  0.00000000E+00  0.00000000E+00  0.00000000E+00
 -5.65713205E-02  0.00000000E+00  0.00000000E+00 -2.08135299E-01  0.00000000E+00
  0.00000000E+00 -1.58169623E-01  0.00000000E+00  0.00000000E+00  0.00000000E+00
 -1.60679679E-01  0.00000000E+00  0.00000000E+00  0.00000000E+00  0.00000000E+00
 -3.24531008E-01  0.00000000E+00  0.00000000E+00  0.00000000E+00  0.00000000E+00
  0.00000000E+00  0.00000000E+00  0.00000000E+00 -4.06753573E-01  0.00000000E+00
  0.00000000E+00 -5.26269752E-01  0.00000000E+00  0.00000000E+00 -2.14370196E-01
  0.00000000E+00  0.00000000E+00  0.00000000E+00  0.00000000E+00  0.00000000E+00
  0.00000000E+00  0.00000000E+00  0.00000000E+00  0.00000000E+00  5.65713205E-02
  0.00000000E+00  0.00000000E+00  2.08135299E-01  0.00000000E+00  0.00000000E+00
  1.58169623E-01  0.00000000E+00  0.00000000E+00  0.00000000E+00  1.60679679E-01
  0.00000000E+00  0.00000000E+00  0.00000000E+00  0.00000000E+00  3.24531008E-01
  0.00000000E+00  0.00000000E+00  0.00000000E+00  0.00000000E+00  0.00000000E+00
  0.00000000E+00  0.00000000E+00  4.06753573E-01  0.00000000E+00  0.00000000E+00
  5.26269752E-01  0.00000000E+00  0.00000000E+00  2.14370196E-01  0.00000000E+00
  0.00000000E+00  0.00000000E+00  0.00000000E+00  0.00000000E+00  0.00000000E+00
  0.00000000E+00  0.00000000E+00  0.00000000E+00  0.00000000E+00  0.00000000E+00
  0.00000000E+00  2.55568264E-01  0.00000000E+00  0.00000000E+00  1.42390711E-01
  0.00000000E+00  0.00000000E+00 -4.12566907E-01  0.00000000E+00  0.00000000E+00
  0.00000000E+00 -1.73301541E-01  0.00000000E+00  0.00000000E+00  0.00000000E+00
  0.00000000E+00 -7.64285736E-01  0.00000000E+00  0.00000000E+00  0.00000000E+00
  0.00000000E+00  0.00000000E+00  0.00000000E+00  0.00000000E+00 -7.44264636E-02
  0.00000000E+00  0.00000000E+00 -4.24195101E-01  0.00000000E+00  0.00000000E+00
 -6.48776709E-01  0.00000000E+00  0.00000000E+00  0.00000000E+00  0.00000000E+00
  0.00000000E+00  0.00000000E+00  0.00000000E+00  0.00000000E+00  0.00000000E+00
  0.00000000E+00  0.00000000E+00  0.00000000E+00  0.00000000E+00  0.00000000E+00
  0.00000000E+00  0.00000000E+00  0.00000000E+00  0.00000000E+00  0.00000000E+00
  0.00000000E+00  0.00000000E+00  0.00000000E+00  0.00000000E+00  0.00000000E+00
 -3.24531008E-01  0.00000000E+00  0.00000000E+00  0.00000000E+00  0.00000000E+00
 -6.03720101E-01  0.00000000E+00  0.00000000E+00  0.00000000E+00  0.00000000E+00
  0.00000000E+00  0.00000000E+00  0.00000000E+00  0.00000000E+00  0.00000000E+00
  0.00000000E+00  0.00000000E+00  0.00000000E+00  0.00000000E+00  0.00000000E+00
  0.00000000E+00  0.00000000E+00  0.00000000E+00  0.00000000E+00  0.00000000E+00
  0.00000000E+00 -1.56136110E-01 -5.52329167E-01 -5.14410794E-01 -1.24809589E-01
  0.00000000E+00  0.00000000E+00 -2.42269723E-02  0.00000000E+00  0.00000000E+00
  6.03454330E-03  0.00000000E+00  0.00000000E+00  4.68723327E-01  2.17633704E-01
  0.00000000E+00  0.00000000E+00  3.24531008E-01  0.00000000E+00  7.64285736E-01
  0.00000000E+00  0.00000000E+00  6.03720101E-01  0.00000000E+00  0.00000000E+00
  0.00000000E+00  0.00000000E+00  0.00000000E+00  0.00000000E+00  0.00000000E+00
  1.28910416E-01  0.00000000E+00  0.00000000E+00  7.34727467E-01  0.00000000E+00
  0.00000000E+00  1.12371422E+00  0.00000000E+00  0.00000000E+00  0.00000000E+00
  0.00000000E+00  0.00000000E+00  0.00000000E+00  0.00000000E+00  0.00000000E+00
  0.00000000E+00  0.00000000E+00  0.00000000E+00  0.00000000E+00  0.00000000E+00
 -6.48698129E-02  0.00000000E+00  0.00000000E+00 -4.48641884E-01  0.00000000E+00
  0.00000000E+00 -8.87539112E-01  0.00000000E+00  0.00000000E+00  0.00000000E+00
 -7.58364797E-02  0.00000000E+00  0.00000000E+00  0.00000000E+00  0.00000000E+00
 -6.03720101E-01  0.00000000E+00  0.00000000E+00  0.00000000E+00  0.00000000E+00
  0.00000000E+00  0.00000000E+00  0.00000000E+00 -1.28910416E-01  0.00000000E+00
  0.00000000E+00 -7.34727467E-01  0.00000000E+00  0.00000000E+00 -1.12371422E+00
  0.00000000E+00  0.00000000E+00  0.00000000E+00  0.00000000E+00  0.00000000E+00
  0.00000000E+00  0.00000000E+00  0.00000000E+00  0.00000000E+00  0.00000000E+00
  0.00000000E+00  0.00000000E+00  0.00000000E+00  0.00000000E+00  6.48698129E-02
  0.00000000E+00  0.00000000E+00  4.48641884E-01  0.00000000E+00  0.00000000E+00
  8.87539112E-01  0.00000000E+00  0.00000000E+00  0.00000000E+00  7.58364797E-02
  0.00000000E+00  0.00000000E+00  0.00000000E+00  0.00000000E+00  6.03720101E-01
  0.00000000E+00  0.00000000E+00  0.00000000E+00  0.00000000E+00  0.00000000E+00
  0.00000000E+00  0.00000000E+00  1.28910416E-01  0.00000000E+00  0.00000000E+00
  7.34727467E-01  0.00000000E+00  0.00000000E+00  1.12371422E+00  0.00000000E+00
  0.00000000E+00  0.00000000E+00  0.00000000E+00  0.00000000E+00  0.00000000E+00
  0.00000000E+00  0.00000000E+00  0.00000000E+00  0.00000000E+00  0.00000000E+00
  0.00000000E+00  0.00000000E+00  0.00000000E+00  0.00000000E+00  0.00000000E+00
  0.00000000E+00  9.63868896E-05  0.00000000E+00  0.00000000E+00  6.26497983E-03
  0.00000000E+00  0.00000000E+00  2.59791128E-02  0.00000000E+00  0.00000000E+00
  0.00000000E+00  1.11604827E-03  0.00000000E+00  0.00000000E+00  0.00000000E+00
  0.00000000E+00  4.21284767E-02  0.00000000E+00  0.00000000E+00  0.00000000E+00
  0.00000000E+00  0.00000000E+00  0.00000000E+00  0.00000000E+00  4.97120297E-02
  0.00000000E+00  0.00000000E+00  1.09559950E-01  0.00000000E+00  0.00000000E+00
  6.52140791E-02  0.00000000E+00  0.00000000E+00  0.00000000E+00  1.29669290E-01
  0.00000000E+00  0.00000000E+00  0.00000000E+00  0.00000000E+00  1.56134190E-01
  0.00000000E+00  0.00000000E+00  0.00000000E+00  0.00000000E+00  0.00000000E+00
  0.00000000E+00  0.00000000E+00  0.00000000E+00  1.48827346E-02  0.00000000E+00
  0.00000000E+00  8.56671667E-02  0.00000000E+00  0.00000000E+00  2.12735331E-01
  0.00000000E+00  0.00000000E+00  0.00000000E+00  3.92537180E-02  0.00000000E+00
  0.00000000E+00  0.00000000E+00  0.00000000E+00  2.78582833E-01  0.00000000E+00
  0.00000000E+00  0.00000000E+00  0.00000000E+00  0.00000000E+00  0.00000000E+00
  0.00000000E+00  1.99169607E-01  0.00000000E+00  0.00000000E+00  4.86364486E-01
  0.00000000E+00  0.00000000E+00  4.55654641E-01  0.00000000E+00  0.00000000E+00
  0.00000000E+00  2.25617857E-01  0.00000000E+00  0.00000000E+00  0.00000000E+00
  0.00000000E+00  5.52330816E-01  0.00000000E+00  0.00000000E+00  0.00000000E+00
  0.00000000E+00  0.00000000E+00  0.00000000E+00  0.00000000E+00  0.00000000E+00
  0.00000000E+00  8.03347386E-02  0.00000000E+00  0.00000000E+00  3.22209421E-01
  0.00000000E+00  0.00000000E+00  7.99118316E-01  0.00000000E+00  0.00000000E+00
  0.00000000E+00  7.35294182E-02  0.00000000E+00  0.00000000E+00  0.00000000E+00
  0.00000000E+00  5.05170210E-01  0.00000000E+00  0.00000000E+00  0.00000000E+00
  0.00000000E+00  0.00000000E+00  0.00000000E+00  0.00000000E+00  2.05349540E-01
  0.00000000E+00  0.00000000E+00  7.14409293E-01  0.00000000E+00  0.00000000E+00
  1.31987845E+00  0.00000000E+00  0.00000000E+00  0.00000000E+00  9.20556688E-02
  0.00000000E+00  0.00000000E+00  0.00000000E+00  0.00000000E+00  5.14420690E-01
  0.00000000E+00  0.00000000E+00  0.00000000E+00  0.00000000E+00  0.00000000E+00
  0.00000000E+00  0.00000000E+00  0.00000000E+00  0.00000000E+00  0.00000000E+00
  8.08698536E-02  0.00000000E+00  0.00000000E+00  3.66599714E-01  0.00000000E+00
  0.00000000E+00  1.37225039E+00  0.00000000E+00  0.00000000E+00  0.00000000E+00
  1.98121014E-02  0.00000000E+00  0.00000000E+00  0.00000000E+00  0.00000000E+00
  1.99386386E-01  0.00000000E+00  0.00000000E+00  0.00000000E+00  0.00000000E+00
  0.00000000E+00  0.00000000E+00  0.00000000E+00  1.03147237E-01  0.00000000E+00
  0.00000000E+00  4.62578265E-01  0.00000000E+00  0.00000000E+00  1.67359398E+00
  0.00000000E+00  0.00000000E+00  0.00000000E+00  1.26172849E-02  0.00000000E+00
  0.00000000E+00  0.00000000E+00  0.00000000E+00  1.24813471E-01  0.00000000E+00
  0.00000000E+00  0.00000000E+00  0.00000000E+00  0.00000000E+00  0.00000000E+00
  0.00000000E+00  0.00000000E+00  0.00000000E+00  0.00000000E+00  0.00000000E+00
  0.00000000E+00  0.00000000E+00  0.00000000E+00  0.00000000E+00  0.00000000E+00
  0.00000000E+00  0.00000000E+00  0.00000000E+00  0.00000000E+00  0.00000000E+00
  0.00000000E+00  0.00000000E+00  1.52147829E-04  0.00000000E+00  0.00000000E+00
  0.00000000E+00  0.00000000E+00  8.26538147E-03  0.00000000E+00  0.00000000E+00
  0.00000000E+00  0.00000000E+00  0.00000000E+00  0.00000000E+00  0.00000000E+00
  0.00000000E+00  0.00000000E+00  0.00000000E+00  0.00000000E+00  0.00000000E+00
  0.00000000E+00  0.00000000E+00  0.00000000E+00  0.00000000E+00  0.00000000E+00
  5.65631553E-02  0.00000000E+00  0.00000000E+00  0.00000000E+00  0.00000000E+00
  6.48665533E-02  0.00000000E+00  0.00000000E+00  0.00000000E+00  0.00000000E+00
  0.00000000E+00  9.63868896E-05  1.48827346E-02  8.03347386E-02  8.08698536E-02
  0.00000000E+00  0.00000000E+00  1.83110935E-04  0.00000000E+00  0.00000000E+00
  3.26890642E-02  0.00000000E+00  0.00000000E+00  1.73689213E-01  1.75756519E-03
  0.00000000E+00  0.00000000E+00 -1.52147829E-04  0.00000000E+00  1.44574355E-01
  0.00000000E+00  0.00000000E+00 -8.26538147E-03  0.00000000E+00  4.97120297E-02
  1.99169607E-01  2.05349540E-01  1.03147237E-01  0.00000000E+00  0.00000000E+00
  9.06778336E-02  0.00000000E+00  0.00000000E+00  3.22481280E-01  0.00000000E+00
  0.00000000E+00  2.20673817E-01  1.38863778E-01  0.00000000E+00  0.00000000E+00
 -5.65631553E-02  0.00000000E+00  2.55576862E-01  0.00000000E+00  0.00000000E+00
 -6.48665533E-02  0.00000000E+00  4.17326919E-01  4.72884226E-01  2.80778475E-01
  1.11862100E-01  0.00000000E+00  0.00000000E+00  0.00000000E+00  0.00000000E+00
  0.00000000E+00  0.00000000E+00  0.00000000E+00 -1.83110935E-04  0.00000000E+00
  0.00000000E+00 -9.01446830E-03  0.00000000E+00  0.00000000E+00 -1.25915421E-02
  0.00000000E+00  0.00000000E+00  0.00000000E+00 -2.24908274E-03  0.00000000E+00
  0.00000000E+00  0.00000000E+00  0.00000000E+00 -3.71453158E-02  0.00000000E+00
  0.00000000E+00  0.00000000E+00  0.00000000E+00  0.00000000E+00  0.00000000E+00
  0.00000000E+00 -9.06778336E-02  0.00000000E+00  0.00000000E+00 -8.89287397E-02
  0.00000000E+00  0.00000000E+00 -1.59976754E-02  0.00000000E+00  0.00000000E+00
  0.00000000E+00 -1.66618055E-01  0.00000000E+00  0.00000000E+00  0.00000000E+00
  0.00000000E+00 -2.42322739E-02  0.00000000E+00  0.00000000E+00  0.00000000E+00
  0.00000000E+00  0.00000000E+00  0.00000000E+00  0.00000000E+00  0.00000000E+00
  0.00000000E+00  0.00000000E+00  0.00000000E+00  0.00000000E+00  0.00000000E+00
  0.00000000E+00  0.00000000E+00  0.00000000E+00  0.00000000E+00  0.00000000E+00
  0.00000000E+00  0.00000000E+00  0.00000000E+00  0.00000000E+00  0.00000000E+00
  0.00000000E+00  0.00000000E+00  0.00000000E+00  1.28735636E-02  0.00000000E+00
  0.00000000E+00  0.00000000E+00  0.00000000E+00  1.02138408E-01  0.00000000E+00
  0.00000000E+00  0.00000000E+00  0.00000000E+00  0.00000000E+00  0.00000000E+00
  0.00000000E+00  0.00000000E+00  0.00000000E+00  0.00000000E+00  0.00000000E+00
  0.00000000E+00  0.00000000E+00  0.00000000E+00  0.00000000E+00  0.00000000E+00
  0.00000000E+00  2.08121172E-01  0.00000000E+00  0.00000000E+00  0.00000000E+00
  0.00000000E+00  4.48625691E-01  0.00000000E+00  0.00000000E+00  0.00000000E+00
  0.00000000E+00  0.00000000E+00  0.00000000E+00  0.00000000E+00  0.00000000E+00
  6.26497983E-03  8.56671667E-02  3.22209421E-01  3.66599714E-01  0.00000000E+00
  0.00000000E+00  9.01446830E-03  0.00000000E+00  0.00000000E+00  1.43102194E-01
  0.00000000E+00  0.00000000E+00  5.91724565E-01  1.28150413E-02  0.00000000E+00
  0.00000000E+00 -1.28735636E-02  0.00000000E+00  3.06589720E-01  0.00000000E+00
  0.00000000E+00 -1.02138408E-01  0.00000000E+00  1.09559950E-01  4.86364486E-01
  7.14409293E-01  4.62578265E-01  0.00000000E+00  0.00000000E+00  8.89287397E-02
  0.00000000E+00  0.00000000E+00  4.79469071E-01  0.00000000E+00  0.00000000E+00
  6.53190758E-01 -3.83223501E-02  0.00000000E+00  0.00000000E+00 -2.08121172E-01
  0.00000000E+00  1.42414943E-01  0.00000000E+00  0.00000000E+00 -4.48625691E-01
  0.00000000E+00  2.84964978E-01  8.67674035E-01  9.31584681E-01  4.99863277E-01
  0.00000000E+00  0.00000000E+00  0.00000000E+00  0.00000000E+00  0.00000000E+00
  0.00000000E+00  0.00000000E+00  0.00000000E+00  0.00000000E+00  0.00000000E+00
 -3.26890642E-02  0.00000000E+00  0.00000000E+00 -1.43102194E-01  0.00000000E+00
  0.00000000E+00 -1.55556458E-01  0.00000000E+00  0.00000000E+00  0.00000000E+00
 -8.26647059E-02  0.00000000E+00  0.00000000E+00  0.00000000E+00  0.00000000E+00
 -3.00934641E-01  0.00000000E+00  0.00000000E+00  0.00000000E+00  0.00000000E+00
  0.00000000E+00  0.00000000E+00  0.00000000E+00 -3.22481280E-01  0.00000000E+00
  0.00000000E+00 -4.79469071E-01  0.00000000E+00  0.00000000E+00 -1.71715096E-01
  0.00000000E+00  0.00000000E+00  0.00000000E+00 -1.78024124E-01  0.00000000E+00
  0.00000000E+00  0.00000000E+00  0.00000000E+00  6.00194072E-03  0.00000000E+00
  0.00000000E+00  0.00000000E+00  0.00000000E+00  0.00000000E+00  0.00000000E+00
  0.00000000E+00  0.00000000E+00  0.00000000E+00  0.00000000E+00  0.00000000E+00
  0.00000000E+00  0.00000000E+00  0.00000000E+00  0.00000000E+00  0.00000000E+00
  0.00000000E+00  0.00000000E+00  0.00000000E+00  0.00000000E+00  0.00000000E+00
  0.00000000E+00  0.00000000E+00  0.00000000E+00  0.00000000E+00  0.00000000E+00
  0.00000000E+00  0.00000000E+00  0.00000000E+00  6.35301342E-02  0.00000000E+00
  0.00000000E+00  0.00000000E+00  0.00000000E+00  4.37287814E-01  0.00000000E+00
  0.00000000E+00  0.00000000E+00  0.00000000E+00  0.00000000E+00  0.00000000E+00
  0.00000000E+00  0.00000000E+00  0.00000000E+00  0.00000000E+00  0.00000000E+00
  0.00000000E+00  0.00000000E+00  0.00000000E+00  0.00000000E+00  0.00000000E+00
  0.00000000E+00  1.58166104E-01  0.00000000E+00  0.00000000E+00  0.00000000E+00
  0.00000000E+00  8.87523790E-01  0.00000000E+00  0.00000000E+00  0.00000000E+00
  0.00000000E+00  0.00000000E+00  0.00000000E+00  0.00000000E+00  0.00000000E+00
  0.00000000E+00  0.00000000E+00  0.00000000E+00  2.59791128E-02  2.12735331E-01
  7.99118316E-01  1.37225039E+00  0.00000000E+00  0.00000000E+00  1.25915421E-02
  0.00000000E+00  0.00000000E+00  1.55556458E-01  0.00000000E+00  0.00000000E+00
  9.28106401E-01 -2.80696828E-02  0.00000000E+00  0.00000000E+00 -6.35301342E-02
  0.00000000E+00 -5.56699170E-02  0.00000000E+00  0.00000000E+00 -4.37287814E-01
  0.00000000E+00  6.52140791E-02  4.55654641E-01  1.31987845E+00  1.67359398E+00
  0.00000000E+00  0.00000000E+00  1.59976754E-02  0.00000000E+00  0.00000000E+00
  1.71715096E-01  0.00000000E+00  0.00000000E+00  7.65166403E-01 -8.59584702E-02
  0.00000000E+00  0.00000000E+00 -1.58166104E-01  0.00000000E+00 -4.12552478E-01
  0.00000000E+00  0.00000000E+00 -8.87523790E-01  0.00000000E+00  8.86326162E-02
  5.87362976E-01  1.56019339E+00  1.78809431E+00  0.00000000E+00  0.00000000E+00
  0.00000000E+00  0.00000000E+00  0.00000000E+00  0.00000000E+00  0.00000000E+00
  0.00000000E+00  0.00000000E+00  0.00000000E+00  0.00000000E+00  0.00000000E+00
  0.00000000E+00 -1.73689213E-01  0.00000000E+00  0.00000000E+00 -5.91724565E-01
  0.00000000E+00  0.00000000E+00 -9.28106401E-01  0.00000000E+00  0.00000000E+00
  0.00000000E+00 -9.09993015E-02  0.00000000E+00  0.00000000E+00  0.00000000E+00
  0.00000000E+00 -3.88139424E-01  0.00000000E+00  0.00000000E+00  0.00000000E+00
  0.00000000E+00  0.00000000E+00  0.00000000E+00  0.00000000E+00 -2.20673817E-01
  0.00000000E+00  0.00000000E+00 -6.53190758E-01  0.00000000E+00  0.00000000E+00
 -7.65166403E-01  0.00000000E+00  0.00000000E+00  0.00000000E+00  6.19825633E-02
  0.00000000E+00  0.00000000E+00  0.00000000E+00  0.00000000E+00  4.68684591E-01
  0.00000000E+00  0.00000000E+00  0.00000000E+00  0.00000000E+00  0.00000000E+00
  0.00000000E+00  0.00000000E+00  0.00000000E+00  0.00000000E+00  0.00000000E+00
  0.00000000E+00  0.00000000E+00  0.00000000E+00  0.00000000E+00  0.00000000E+00
  0.00000000E+00  0.00000000E+00  0.00000000E+00  0.00000000E+00  0.00000000E+00
  1.75756519E-03  0.00000000E+00  0.00000000E+00  1.28150413E-02  0.00000000E+00
  0.00000000E+00 -2.80696828E-02  0.00000000E+00  0.00000000E+00  0.00000000E+00
  1.12719234E-02  0.00000000E+00  0.00000000E+00  0.00000000E+00  0.00000000E+00
 -1.28379722E-02  0.00000000E+00  0.00000000E+00  0.00000000E+00  0.00000000E+00
  0.00000000E+00  0.00000000E+00  0.00000000E+00  1.38863778E-01  0.00000000E+00
  0.00000000E+00 -3.83223501E-02  0.00000000E+00  0.00000000E+00 -8.59584702E-02
  0.00000000E+00  0.00000000E+00  0.00000000E+00  4.22003663E-02  0.00000000E+00
  0.00000000E+00  0.00000000E+00  0.00000000E+00 -2.17627052E-01  0.00000000E+00
  0.00000000E+00  0.00000000E+00  0.00000000E+00  0.00000000E+00  0.00000000E+00
  0.00000000E+00 -2.34839285E-01  0.00000000E+00  0.00000000E+00 -3.03841983E-01
  0.00000000E+00  0.00000000E+00 -1.23766691E-01  0.00000000E+00  0.00000000E+00
  0.00000000E+00  0.00000000E+00  0.00000000E+00  0.00000000E+00  0.00000000E+00
  0.00000000E+00  0.00000000E+00  0.00000000E+00  0.00000000E+00  0.00000000E+00
  0.00000000E+00  0.00000000E+00  0.00000000E+00  0.00000000E+00  0.00000000E+00
  0.00000000E+00  0.00000000E+00 -1.80451790E-03  0.00000000E+00  0.00000000E+00
  0.00000000E+00  0.00000000E+00 -2.12959599E-02  0.00000000E+00  0.00000000E+00
  0.00000000E+00  0.00000000E+00  0.00000000E+00  0.00000000E+00  0.00000000E+00
  0.00000000E+00  0.00000000E+00  0.00000000E+00  0.00000000E+00  0.00000000E+00
  0.00000000E+00  0.00000000E+00  0.00000000E+00  0.00000000E+00  0.00000000E+00
 -1.60665249E-01  0.00000000E+00  0.00000000E+00  0.00000000E+00  0.00000000E+00
 -7.58356229E-02  0.00000000E+00  0.00000000E+00  0.00000000E+00  0.00000000E+00
  0.00000000E+00  0.00000000E+00  0.00000000E+00  0.00000000E+00  0.00000000E+00
  0.00000000E+00  0.00000000E+00  0.00000000E+00  0.00000000E+00  0.00000000E+00
  0.00000000E+00 -1.11604827E-03 -3.92537180E-02 -7.35294182E-02 -1.98121014E-02
  0.00000000E+00  0.00000000E+00 -2.24908274E-03  0.00000000E+00  0.00000000E+00
 -8.26647059E-02  0.00000000E+00  0.00000000E+00 -9.09993015E-02 -1.12719234E-02
  0.00000000E+00  0.00000000E+00  1.80451790E-03  0.00000000E+00 -1.57927304E-01
  0.00000000E+00  0.00000000E+00  2.12959599E-02  0.00000000E+00 -1.29669290E-01
 -2.25617857E-01 -9.20556688E-02 -1.26172849E-02  0.00000000E+00  0.00000000E+00
 -1.66618055E-01  0.00000000E+00  0.00000000E+00 -1.78024124E-01  0.00000000E+00
  0.00000000E+00  6.19825633E-02 -4.22003663E-02  0.00000000E+00  0.00000000E+00
  1.60665249E-01  0.00000000E+00  1.73281641E-01  0.00000000E+00  0.00000000E+00
  7.58356229E-02  0.00000000E+00  0.00000000E+00  0.00000000E+00  0.00000000E+00
  0.00000000E+00  0.00000000E+00  0.00000000E+00  4.06753573E-01  0.00000000E+00
  0.00000000E+00  5.26269752E-01  0.00000000E+00  0.00000000E+00  2.14370196E-01
  0.00000000E+00  0.00000000E+00  0.00000000E+00  0.00000000E+00  0.00000000E+00
  0.00000000E+00  0.00000000E+00  0.00000000E+00 -1.52147829E-04  0.00000000E+00
  0.00000000E+00 -1.28735636E-02  0.00000000E+00  0.00000000E+00 -6.35301342E-02
  0.00000000E+00  0.00000000E+00  0.00000000E+00 -1.80451790E-03  0.00000000E+00
  0.00000000E+00  0.00000000E+00  0.00000000E+00 -9.11329136E-02  0.00000000E+00
  0.00000000E+00  0.00000000E+00  0.00000000E+00  0.00000000E+00  0.00000000E+00
  0.00000000E+00 -5.65631553E-02  0.00000000E+00  0.00000000E+00 -2.08121172E-01
  0.00000000E+00  0.00000000E+00 -1.58166104E-01  0.00000000E+00  0.00000000E+00
  0.00000000E+00 -1.60665249E-01  0.00000000E+00  0.00000000E+00  0.00000000E+00
  0.00000000E+00 -3.24527342E-01  0.00000000E+00  0.00000000E+00  0.00000000E+00
  0.00000000E+00  0.00000000E+00  0.00000000E+00  0.00000000E+00 -4.06753573E-01
  0.00000000E+00  0.00000000E+00 -5.26269752E-01  0.00000000E+00  0.00000000E+00
 -2.14370196E-01  0.00000000E+00  0.00000000E+00  0.00000000E+00  0.00000000E+00
  0.00000000E+00  0.00000000E+00  0.00000000E+00  0.00000000E+00  0.00000000E+00
  1.52147829E-04  0.00000000E+00  0.00000000E+00  1.28735636E-02  0.00000000E+00
  0.00000000E+00  6.35301342E-02  0.00000000E+00  0.00000000E+00  0.00000000E+00
  1.80451790E-03  0.00000000E+00  0.00000000E+00  0.00000000E+00  0.00000000E+00
  9.11329136E-02  0.00000000E+00  0.00000000E+00  0.00000000E+00  0.00000000E+00
  0.00000000E+00  0.00000000E+00  0.00000000E+00  5.65631553E-02  0.00000000E+00
  0.00000000E+00  2.08121172E-01  0.00000000E+00  0.00000000E+00  1.58166104E-01
  0.00000000E+00  0.00000000E+00  0.00000000E+00  1.60665249E-01  0.00000000E+00
  0.00000000E+00  0.00000000E+00  0.00000000E+00  3.24527342E-01  0.00000000E+00
  0.00000000E+00  0.00000000E+00  0.00000000E+00  0.00000000E+00  0.00000000E+00
  0.00000000E+00  4.06753573E-01  0.00000000E+00  0.00000000E+00  5.26269752E-01
  0.00000000E+00  0.00000000E+00  2.14370196E-01  0.00000000E+00  0.00000000E+00
  0.00000000E+00  0.00000000E+00  0.00000000E+00  0.00000000E+00  0.00000000E+00
  0.00000000E+00  0.00000000E+00  0.00000000E+00  0.00000000E+00  0.00000000E+00
  1.44574355E-01  0.00000000E+00  0.00000000E+00  3.06589720E-01  0.00000000E+00
  0.00000000E+00 -5.56699170E-02  0.00000000E+00  0.00000000E+00  0.00000000E+00
  1.57927304E-01  0.00000000E+00  0.00000000E+00  0.00000000E+00  0.00000000E+00
  4.76171461E-02  0.00000000E+00  0.00000000E+00  0.00000000E+00  0.00000000E+00
  0.00000000E+00  0.00000000E+00  0.00000000E+00  2.55576862E-01  0.00000000E+00
  0.00000000E+00  1.42414943E-01  0.00000000E+00  0.00000000E+00 -4.12552478E-01
  0.00000000E+00  0.00000000E+00  0.00000000E+00 -1.73281641E-01  0.00000000E+00
  0.00000000E+00  0.00000000E+00  0.00000000E+00 -7.64270533E-01  0.00000000E+00
  0.00000000E+00  0.00000000E+00  0.00000000E+00  0.00000000E+00  0.00000000E+00
  0.00000000E+00 -7.44264636E-02  0.00000000E+00  0.00000000E+00 -4.24195101E-01
  0.00000000E+00  0.00000000E+00 -6.48776709E-01  0.00000000E+00  0.00000000E+00
  0.00000000E+00  0.00000000E+00  0.00000000E+00  0.00000000E+00  0.00000000E+00
  0.00000000E+00  0.00000000E+00  0.00000000E+00  0.00000000E+00  0.00000000E+00
  0.00000000E+00  0.00000000E+00  0.00000000E+00  0.00000000E+00  0.00000000E+00
  0.00000000E+00  0.00000000E+00  0.00000000E+00  0.00000000E+00  0.00000000E+00
  0.00000000E+00  0.00000000E+00 -9.11329136E-02  0.00000000E+00  0.00000000E+00
  0.00000000E+00  0.00000000E+00 -3.59702989E-01  0.00000000E+00  0.00000000E+00
  0.00000000E+00  0.00000000E+00  0.00000000E+00  0.00000000E+00  0.00000000E+00
  0.00000000E+00  0.00000000E+00  0.00000000E+00  0.00000000E+00  0.00000000E+00
  0.00000000E+00  0.00000000E+00  0.00000000E+00  0.00000000E+00  0.00000000E+00
 -3.24527342E-01  0.00000000E+00  0.00000000E+00  0.00000000E+00  0.00000000E+00
 -6.03724357E-01  0.00000000E+00  0.00000000E+00  0.00000000E+00  0.00000000E+00
  0.00000000E+00  0.00000000E+00  0.00000000E+00  0.00000000E+00  0.00000000E+00
  0.00000000E+00  0.00000000E+00  0.00000000E+00  0.00000000E+00  0.00000000E+00
  0.00000000E+00  0.00000000E+00  0.00000000E+00  0.00000000E+00  0.00000000E+00
  0.00000000E+00 -4.21284767E-02 -2.78582833E-01 -5.05170210E-01 -1.99386386E-01
  0.00000000E+00  0.00000000E+00 -3.71453158E-02  0.00000000E+00  0.00000000E+00
 -3.00934641E-01  0.00000000E+00  0.00000000E+00 -3.88139424E-01  1.28379722E-02
  0.00000000E+00  0.00000000E+00  9.11329136E-02  0.00000000E+00 -4.76171461E-02
  0.00000000E+00  0.00000000E+00  3.59702989E-01  0.00000000E+00 -1.56134190E-01
 -5.52330816E-01 -5.14420690E-01 -1.24813471E-01  0.00000000E+00  0.00000000E+00
 -2.42322739E-02  0.00000000E+00  0.00000000E+00  6.00194072E-03  0.00000000E+00
  0.00000000E+00  4.68684591E-01  2.17627052E-01  0.00000000E+00  0.00000000E+00
  3.24527342E-01  0.00000000E+00  7.64270533E-01  0.00000000E+00  0.00000000E+00
  6.03724357E-01  0.00000000E+00  0.00000000E+00  0.00000000E+00  0.00000000E+00
  0.00000000E+00  0.00000000E+00  0.00000000E+00  1.28910416E-01  0.00000000E+00
  0.00000000E+00  7.34727467E-01  0.00000000E+00  0.00000000E+00  1.12371422E+00
  0.00000000E+00  0.00000000E+00  0.00000000E+00  0.00000000E+00  0.00000000E+00
  0.00000000E+00  0.00000000E+00  0.00000000E+00  0.00000000E+00  0.00000000E+00
  0.00000000E+00  0.00000000E+00  0.00000000E+00 -8.26538147E-03  0.00000000E+00
  0.00000000E+00 -1.02138408E-01  0.00000000E+00  0.00000000E+00 -4.37287814E-01
  0.00000000E+00  0.00000000E+00  0.00000000E+00 -2.12959599E-02  0.00000000E+00
  0.00000000E+00  0.00000000E+00  0.00000000E+00 -3.59702989E-01  0.00000000E+00
  0.00000000E+00  0.00000000E+00  0.00000000E+00  0.00000000E+00  0.00000000E+00
  0.00000000E+00 -6.48665533E-02  0.00000000E+00  0.00000000E+00 -4.48625691E-01
  0.00000000E+00  0.00000000E+00 -8.87523790E-01  0.00000000E+00  0.00000000E+00
  0.00000000E+00 -7.58356229E-02  0.00000000E+00  0.00000000E+00  0.00000000E+00
  0.00000000E+00 -6.03724357E-01  0.00000000E+00  0.00000000E+00  0.00000000E+00
  0.00000000E+00  0.00000000E+00  0.00000000E+00  0.00000000E+00 -1.28910416E-01
  0.00000000E+00  0.00000000E+00 -7.34727467E-01  0.00000000E+00  0.00000000E+00
 -1.12371422E+00  0.00000000E+00  0.00000000E+00  0.00000000E+00  0.00000000E+00
  0.00000000E+00  0.00000000E+00  0.00000000E+00  0.00000000E+00  0.00000000E+00
  0.00000000E+00  0.00000000E+00  0.00000000E+00  0.00000000E+00  0.00000000E+00
  8.26538147E-03  0.00000000E+00  0.00000000E+00  1.02138408E-01  0.00000000E+00
  0.00000000E+00  4.37287814E-01  0.00000000E+00  0.00000000E+00  0.00000000E+00
  2.12959599E-02  0.00000000E+00  0.00000000E+00  0.00000000E+00  0.00000000E+00
  3.59702989E-01  0.00000000E+00  0.00000000E+00  0.00000000E+00  0.00000000E+00
  0.00000000E+00  0.00000000E+00  0.00000000E+00  6.48665533E-02  0.00000000E+00
  0.00000000E+00  4.48625691E-01  0.00000000E+00  0.00000000E+00  8.87523790E-01
  0.00000000E+00  0.00000000E+00  0.00000000E+00  7.58356229E-02  0.00000000E+00
  0.00000000E+00  0.00000000E+00  0.00000000E+00  6.03724357E-01  0.00000000E+00
  0.00000000E+00  0.00000000E+00  0.00000000E+00  0.00000000E+00  0.00000000E+00
  0.00000000E+00  1.28910416E-01  0.00000000E+00  0.00000000E+00  7.34727467E-01
  0.00000000E+00  0.00000000E+00  1.12371422E+00  0.00000000E+00  0.00000000E+00
  0.00000000E+00  0.00000000E+00  0.00000000E+00  0.00000000E+00  0.00000000E+00
  0.00000000E+00  0.00000000E+00  0.00000000E+00  0.00000000E+00  0.00000000E+00
Multipole Matrix (0,0,1)                   R   N=        2415
 -1.80786886E+00 -1.27687074E+00 -1.80786886E+00 -6.75289359E-01 -1.42618814E+00
 -1.80786886E+00 -2.57944876E-01 -6.71704433E-01 -1.28411350E+00 -1.80786886E+00
  0.00000000E+00  0.00000000E+00  0.00000000E+00  0.00000000E+00 -1.80786886E+00
  0.00000000E+00  0.00000000E+00  0.00000000E+00  0.00000000E+00  0.00000000E+00
 -1.80786886E+00  4.17326919E-01  4.72884226E-01  2.80778475E-01  1.11862100E-01
  0.00000000E+00  0.00000000E+00 -1.80786886E+00  0.00000000E+00  0.00000000E+00
  0.00000000E+00  0.00000000E+00 -1.11170116E+00  0.00000000E+00  0.00000000E+00
 -1.80786886E+00  0.00000000E+00  0.00000000E+00  0.00000000E+00  0.00000000E+00
  0.00000000E+00 -1.11170116E+00  0.00000000E+00  0.00000000E+00 -1.80786886E+00
  2.84964978E-01  8.67674035E-01  9.31584681E-01  4.99863277E-01  0.00000000E+00
  0.00000000E+00 -1.11170116E+00  0.00000000E+00  0.00000000E+00 -1.80786886E+00
  0.00000000E+00  0.00000000E+00  0.00000000E+00  0.00000000E+00 -3.22951012E-01
  0.00000000E+00  0.00000000E+00 -1.07409225E+00  0.00000000E+00  0.00000000E+00
 -1.80786886E+00  0.00000000E+00  0.00000000E+00  0.00000000E+00  0.00000000E+00
  0.00000000E+00 -3.22951012E-01  0.00000000E+00  0.00000000E+00 -1.07409225E+00
  0.00000000E+00  0.00000000E+00 -1.80786886E+00  8.86326162E-02  5.87362976E-01
  1.56019339E+00  1.78809431E+00  0.00000000E+00  0.00000000E+00 -3.22951012E-01
  0.00000000E+00  0.00000000E+00 -1.07409225E+00  0.00000000E+00  0.00000000E+00
 -1.80786886E+00  0.00000000E+00  0.00000000E+00  0.00000000E+00  0.00000000E+00
  0.00000000E+00  0.00000000E+00  4.69678570E-01  0.00000000E+00  0.00000000E+00
  6.07683966E-01  0.00000000E+00  0.00000000E+00  2.47533381E-01 -1.80786886E+00
  0.00000000E+00  0.00000000E+00  0.00000000E+00  0.00000000E+00  4.06753573E-01
  0.00000000E+00  0.00000000E+00  5.26269752E-01  0.00000000E+00  0.00000000E+00
  2.14370196E-01  0.00000000E+00  0.00000000E+00  0.00000000E+00 -1.80786886E+00
  0.00000000E+00  0.00000000E+00  0.00000000E+00  0.00000000E+00  0.00000000E+00
  4.06753573E-01  0.00000000E+00  0.00000000E+00  5.26269752E-01  0.00000000E+00
  0.00000000E+00  2.14370196E-01  0.00000000E+00  0.00000000E+00  0.00000000E+00
 -1.80786886E+00 -5.03807349E-17  1.27349297E-17  3.24340884E-17 -1.90766377E-17
  0.00000000E+00  0.00000000E+00  1.11038724E-17  0.00000000E+00  0.00000000E+00
  4.09699414E-18  0.00000000E+00  0.00000000E+00  4.41234122E-18  2.51968488E-17
  0.00000000E+00  0.00000000E+00 -1.80786886E+00  0.00000000E+00  0.00000000E+00
  0.00000000E+00  0.00000000E+00  0.00000000E+00  0.00000000E+00  0.00000000E+00
  0.00000000E+00  0.00000000E+00  0.00000000E+00  0.00000000E+00  0.00000000E+00
  0.00000000E+00  0.00000000E+00  0.00000000E+00  0.00000000E+00  0.00000000E+00
 -1.80786886E+00  0.00000000E+00  0.00000000E+00  0.00000000E+00  0.00000000E+00
  0.00000000E+00  0.00000000E+00  1.48852927E-01  0.00000000E+00  0.00000000E+00
  8.48390202E-01  0.00000000E+00  0.00000000E+00  1.29755342E+00 -7.70284634E-01
  0.00000000E+00  0.00000000E+00  7.48516366E-18  0.00000000E+00 -1.80786886E+00
  0.00000000E+00  0.00000000E+00  0.00000000E+00  0.00000000E+00  1.28910416E-01
  0.00000000E+00  0.00000000E+00  7.34727467E-01  0.00000000E+00  0.00000000E+00
  1.12371422E+00  0.00000000E+00  0.00000000E+00  0.00000000E+00 -7.70284634E-01
  0.00000000E+00  0.00000000E+00  0.00000000E+00  0.00000000E+00 -1.80786886E+00
  0.00000000E+00  0.00000000E+00  0.00000000E+00  0.00000000E+00  0.00000000E+00
  1.28910416E-01  0.00000000E+00  0.00000000E+00  7.34727467E-01  0.00000000E+00
  0.00000000E+00  1.12371422E+00  0.00000000E+00  0.00000000E+00  0.00000000E+00
 -7.70284634E-01  0.00000000E+00  0.00000000E+00  0.00000000E+00  0.00000000E+00
 -1.80786886E+00  6.45960295E-18  3.69073959E-17  9.06052262E-17 -1.83928146E-17
  0.00000000E+00  0.00000000E+00  6.56517578E-18  0.00000000E+00  0.00000000E+00
 -4.12095071E-18  0.00000000E+00  0.00000000E+00  4.87874335E-17  5.39624381E-18
  0.00000000E+00  0.00000000E+00 -7.70284634E-01  0.00000000E+00  5.49451851E-17
  0.00000000E+00  0.00000000E+00 -1.80786886E+00  0.00000000E+00  0.00000000E+00
  0.00000000E+00  0.00000000E+00  0.00000000E+00  0.00000000E+00  0.00000000E+00
  0.00000000E+00  0.00000000E+00  0.00000000E+00  0.00000000E+00  0.00000000E+00
  0.00000000E+00  0.00000000E+00  0.00000000E+00  0.00000000E+00  0.00000000E+00
 -7.70284634E-01  0.00000000E+00  0.00000000E+00  0.00000000E+00  0.00000000E+00
 -1.80786886E+00 -1.08168909E-01 -1.13373738E-01 -3.79822890E-02 -4.79055326E-03
  0.00000000E+00  0.00000000E+00 -1.58993890E-01  0.00000000E+00  0.00000000E+00
 -9.97517948E-02  0.00000000E+00  0.00000000E+00  2.51995255E-02 -1.25324428E-01
  0.00000000E+00  0.00000000E+00  1.00844394E-18  0.00000000E+00  5.98475983E-02
  0.00000000E+00  0.00000000E+00  1.33864392E-18  0.00000000E+00  0.00000000E+00
 -4.34732932E-01 -5.30773897E-01 -2.64824642E-01 -4.47666884E-02  0.00000000E+00
  0.00000000E+00 -1.45255843E-01  0.00000000E+00  0.00000000E+00 -7.66693115E-02
  0.00000000E+00  0.00000000E+00  2.24287174E-01  4.84696817E-02  0.00000000E+00
  0.00000000E+00  8.52641778E-18  0.00000000E+00  3.44924119E-01  0.00000000E+00
  0.00000000E+00 -3.34172626E-18  0.00000000E+00  0.00000000E+00  0.00000000E+00
 -4.57336602E-01 -8.40115562E-01 -7.64272963E-01 -2.37238616E-01  0.00000000E+00
  0.00000000E+00  7.68725018E-02  0.00000000E+00  0.00000000E+00  3.35190724E-01
  0.00000000E+00  0.00000000E+00  8.78369027E-01  7.37754589E-02  0.00000000E+00
  0.00000000E+00  1.40990639E-17  0.00000000E+00  4.53163705E-01  0.00000000E+00
  0.00000000E+00 -2.94219472E-17  0.00000000E+00  0.00000000E+00  0.00000000E+00
  0.00000000E+00 -2.33109063E-01 -5.77394580E-01 -9.64544966E-01 -8.67379902E-01
  0.00000000E+00  0.00000000E+00  8.64165528E-02  0.00000000E+00  0.00000000E+00
  3.90868658E-01  0.00000000E+00  0.00000000E+00  1.45211028E+00  1.33940236E-02
  0.00000000E+00  0.00000000E+00 -1.40077830E-17  0.00000000E+00  1.33323321E-01
  0.00000000E+00  0.00000000E+00  5.49572374E-17  0.00000000E+00  0.00000000E+00
  0.00000000E+00  0.00000000E+00  0.00000000E+00  0.00000000E+00  0.00000000E+00
  0.00000000E+00  0.00000000E+00 -9.06897729E-02  0.00000000E+00  0.00000000E+00
 -8.89319544E-02  0.00000000E+00  0.00000000E+00 -1.59974540E-02  0.00000000E+00
  0.00000000E+00  0.00000000E+00 -1.66625776E-01  0.00000000E+00  0.00000000E+00
  0.00000000E+00  0.00000000E+00 -2.42269723E-02  0.00000000E+00  0.00000000E+00
  0.00000000E+00  0.00000000E+00  0.00000000E+00  0.00000000E+00  0.00000000E+00
  0.00000000E+00  0.00000000E+00  0.00000000E+00  0.00000000E+00  0.00000000E+00
  0.00000000E+00 -9.06897729E-02  0.00000000E+00  0.00000000E+00 -8.89319544E-02
  0.00000000E+00  0.00000000E+00 -1.59974540E-02  0.00000000E+00  0.00000000E+00
  0.00000000E+00 -1.66625776E-01  0.00000000E+00  0.00000000E+00  0.00000000E+00
  0.00000000E+00 -2.42269723E-02  0.00000000E+00  0.00000000E+00  0.00000000E+00
  0.00000000E+00  0.00000000E+00  0.00000000E+00  0.00000000E+00  0.00000000E+00
  2.36414589E-01  2.78939079E-01  2.14732402E-01  1.03448228E-01  0.00000000E+00
  0.00000000E+00  3.26358435E-01  0.00000000E+00  0.00000000E+00  3.21429350E-01
  0.00000000E+00  0.00000000E+00  1.98621197E-01  2.29821145E-01  0.00000000E+00
  0.00000000E+00  5.77345950E-18  0.00000000E+00  2.32817268E-01  0.00000000E+00
  0.00000000E+00 -3.11305562E-19  0.00000000E+00  4.17326919E-01  4.72884226E-01
  2.80778475E-01  1.11862100E-01  0.00000000E+00  0.00000000E+00  0.00000000E+00
  0.00000000E+00  0.00000000E+00  0.00000000E+00  0.00000000E+00 -3.22492938E-01
  0.00000000E+00  0.00000000E+00 -4.79473775E-01  0.00000000E+00  0.00000000E+00
 -1.71712131E-01  0.00000000E+00  0.00000000E+00  0.00000000E+00 -1.78007953E-01
  0.00000000E+00  0.00000000E+00  0.00000000E+00  0.00000000E+00  6.03454330E-03
  0.00000000E+00  0.00000000E+00  0.00000000E+00  0.00000000E+00  0.00000000E+00
  0.00000000E+00  0.00000000E+00  0.00000000E+00  0.00000000E+00  0.00000000E+00
  0.00000000E+00  0.00000000E+00  0.00000000E+00  0.00000000E+00  0.00000000E+00
  0.00000000E+00 -3.22492938E-01  0.00000000E+00  0.00000000E+00 -4.79473775E-01
  0.00000000E+00  0.00000000E+00 -1.71712131E-01  0.00000000E+00  0.00000000E+00
  0.00000000E+00 -1.78007953E-01  0.00000000E+00  0.00000000E+00  0.00000000E+00
  0.00000000E+00  6.03454330E-03  0.00000000E+00  0.00000000E+00  0.00000000E+00
  0.00000000E+00  0.00000000E+00  0.00000000E+00  0.00000000E+00  0.00000000E+00
  0.00000000E+00  0.00000000E+00  0.00000000E+00  7.95997458E-01  9.59176637E-01
  8.14802476E-01  4.67249576E-01  0.00000000E+00  0.00000000E+00  8.50750792E-02
  0.00000000E+00  0.00000000E+00  1.28563818E-01  0.00000000E+00  0.00000000E+00
  4.00412069E-01 -1.55980144E-01  0.00000000E+00  0.00000000E+00  1.00178498E-17
  0.00000000E+00  1.49405665E-01  0.00000000E+00  0.00000000E+00  2.20209484E-17
  0.00000000E+00  2.84964978E-01  8.67674035E-01  9.31584681E-01  4.99863277E-01
  0.00000000E+00  0.00000000E+00  0.00000000E+00  0.00000000E+00  0.00000000E+00
  0.00000000E+00  0.00000000E+00  0.00000000E+00  0.00000000E+00  0.00000000E+00
 -2.20670763E-01  0.00000000E+00  0.00000000E+00 -6.53179479E-01  0.00000000E+00
  0.00000000E+00 -7.65147743E-01  0.00000000E+00  0.00000000E+00  0.00000000E+00
  6.19909797E-02  0.00000000E+00  0.00000000E+00  0.00000000E+00  0.00000000E+00
  4.68723327E-01  0.00000000E+00  0.00000000E+00  0.00000000E+00  0.00000000E+00
  0.00000000E+00  0.00000000E+00  0.00000000E+00  0.00000000E+00  0.00000000E+00
  0.00000000E+00  0.00000000E+00  0.00000000E+00  0.00000000E+00  0.00000000E+00
  0.00000000E+00  0.00000000E+00  0.00000000E+00  0.00000000E+00  0.00000000E+00
 -2.20670763E-01  0.00000000E+00  0.00000000E+00 -6.53179479E-01  0.00000000E+00
  0.00000000E+00 -7.65147743E-01  0.00000000E+00  0.00000000E+00  0.00000000E+00
  6.19909797E-02  0.00000000E+00  0.00000000E+00  0.00000000E+00  0.00000000E+00
  4.68723327E-01  0.00000000E+00  0.00000000E+00  0.00000000E+00  0.00000000E+00
  0.00000000E+00  0.00000000E+00  0.00000000E+00  0.00000000E+00  0.00000000E+00
  0.00000000E+00  0.00000000E+00  0.00000000E+00  0.00000000E+00  0.00000000E+00
  5.52331133E-01  1.19470505E+00  1.76445027E+00  1.72845388E+00  0.00000000E+00
  0.00000000E+00 -2.88156847E-01  0.00000000E+00  0.00000000E+00 -7.89795268E-01
  0.00000000E+00  0.00000000E+00 -5.10066032E-01 -3.52482478E-04  0.00000000E+00
  0.00000000E+00 -3.64845133E-17  0.00000000E+00  2.71585538E-01  0.00000000E+00
  0.00000000E+00 -2.18229852E-17  0.00000000E+00  8.86326162E-02  5.87362976E-01
  1.56019339E+00  1.78809431E+00  0.00000000E+00  0.00000000E+00  0.00000000E+00
  0.00000000E+00  0.00000000E+00  0.00000000E+00  0.00000000E+00  0.00000000E+00
  0.00000000E+00 -4.98801009E-01 -3.25889666E-01 -1.09454899E-01 -1.45968118E-02
  0.00000000E+00  0.00000000E+00 -3.54571770E-01  0.00000000E+00  0.00000000E+00
 -1.11864176E-01  0.00000000E+00  0.00000000E+00  8.43981586E-02 -5.97791207E-02
  0.00000000E+00  0.00000000E+00  4.67151492E-18  0.00000000E+00  1.27806070E-01
  0.00000000E+00  0.00000000E+00  6.04130042E-18  0.00000000E+00  0.00000000E+00
  0.00000000E+00  0.00000000E+00  0.00000000E+00  0.00000000E+00  0.00000000E+00
  4.69678570E-01  0.00000000E+00  0.00000000E+00  6.07683966E-01  0.00000000E+00
  0.00000000E+00  2.47533381E-01  0.00000000E+00  0.00000000E+00  0.00000000E+00
  0.00000000E+00  0.00000000E+00  3.53674740E-01  0.00000000E+00  0.00000000E+00
  3.49879463E-01  0.00000000E+00  0.00000000E+00  1.67450816E-01  0.00000000E+00
  0.00000000E+00  0.00000000E+00  3.94418484E-01  0.00000000E+00  0.00000000E+00
  0.00000000E+00  0.00000000E+00  2.72109384E-01  0.00000000E+00  0.00000000E+00
  0.00000000E+00  0.00000000E+00  0.00000000E+00  0.00000000E+00  0.00000000E+00
  4.06753573E-01  0.00000000E+00  0.00000000E+00  5.26269752E-01  0.00000000E+00
  0.00000000E+00  2.14370196E-01  0.00000000E+00  0.00000000E+00  0.00000000E+00
  0.00000000E+00  0.00000000E+00  0.00000000E+00  0.00000000E+00  0.00000000E+00
  0.00000000E+00  3.53674740E-01  0.00000000E+00  0.00000000E+00  3.49879463E-01
  0.00000000E+00  0.00000000E+00  1.67450816E-01  0.00000000E+00  0.00000000E+00
  0.00000000E+00  3.94418484E-01  0.00000000E+00  0.00000000E+00  0.00000000E+00
  0.00000000E+00  2.72109384E-01  0.00000000E+00  0.00000000E+00  0.00000000E+00
  0.00000000E+00  0.00000000E+00  0.00000000E+00  0.00000000E+00  4.06753573E-01
  0.00000000E+00  0.00000000E+00  5.26269752E-01  0.00000000E+00  0.00000000E+00
  2.14370196E-01  0.00000000E+00  0.00000000E+00  0.00000000E+00  0.00000000E+00
  5.91662414E-18 -2.38008130E-18  2.75889276E-18  3.98561725E-19  0.00000000E+00
  0.00000000E+00  3.10691271E-18  0.00000000E+00  0.00000000E+00 -4.47740019E-18
  0.00000000E+00  0.00000000E+00 -7.68010403E-19  9.24734903E-19  0.00000000E+00
  0.00000000E+00 -1.60679679E-01  0.00000000E+00 -4.40464740E-19  0.00000000E+00
  0.00000000E+00 -7.58364797E-02  0.00000000E+00  0.00000000E+00  0.00000000E+00
  0.00000000E+00  0.00000000E+00  0.00000000E+00  0.00000000E+00  1.11038724E-17
  0.00000000E+00  0.00000000E+00  4.09699414E-18  0.00000000E+00  0.00000000E+00
  4.41234122E-18  0.00000000E+00  0.00000000E+00  0.00000000E+00  0.00000000E+00
  0.00000000E+00  0.00000000E+00  0.00000000E+00  0.00000000E+00  0.00000000E+00
  0.00000000E+00  0.00000000E+00  0.00000000E+00  0.00000000E+00  0.00000000E+00
  0.00000000E+00  0.00000000E+00  0.00000000E+00  0.00000000E+00  0.00000000E+00
  0.00000000E+00  0.00000000E+00 -1.60679679E-01  0.00000000E+00  0.00000000E+00
  0.00000000E+00  0.00000000E+00 -7.58364797E-02  0.00000000E+00  0.00000000E+00
  0.00000000E+00  0.00000000E+00  0.00000000E+00  0.00000000E+00  0.00000000E+00
  0.00000000E+00  0.00000000E+00  0.00000000E+00  0.00000000E+00  0.00000000E+00
  0.00000000E+00  0.00000000E+00  0.00000000E+00  0.00000000E+00  0.00000000E+00
  0.00000000E+00 -8.02187846E-01 -1.02405311E+00 -6.52544688E-01 -1.45221610E-01
  0.00000000E+00  0.00000000E+00  4.48632139E-01  0.00000000E+00  0.00000000E+00
  8.15195836E-01  0.00000000E+00  0.00000000E+00  7.93677639E-01 -5.81181479E-02
  0.00000000E+00  0.00000000E+00  4.36417906E-17  0.00000000E+00 -8.50343182E-02
  0.00000000E+00  0.00000000E+00  3.70440671E-17  0.00000000E+00  0.00000000E+00
  0.00000000E+00  0.00000000E+00  0.00000000E+00  0.00000000E+00  0.00000000E+00
  1.48852927E-01  0.00000000E+00  0.00000000E+00  8.48390202E-01  0.00000000E+00
  0.00000000E+00  1.29755342E+00  0.00000000E+00  0.00000000E+00  0.00000000E+00
  0.00000000E+00  0.00000000E+00  0.00000000E+00  0.00000000E+00  0.00000000E+00
  0.00000000E+00  0.00000000E+00  5.72396844E-01  0.00000000E+00  0.00000000E+00
  1.14391171E+00  0.00000000E+00  0.00000000E+00  1.06049138E+00  0.00000000E+00
  0.00000000E+00  0.00000000E+00 -1.48494115E-01  0.00000000E+00  0.00000000E+00
  0.00000000E+00  0.00000000E+00 -1.16341523E-01  0.00000000E+00  0.00000000E+00
  0.00000000E+00  0.00000000E+00  0.00000000E+00  0.00000000E+00  0.00000000E+00
  1.28910416E-01  0.00000000E+00  0.00000000E+00  7.34727467E-01  0.00000000E+00
  0.00000000E+00  1.12371422E+00  0.00000000E+00  0.00000000E+00  0.00000000E+00
  0.00000000E+00  0.00000000E+00  0.00000000E+00  0.00000000E+00  0.00000000E+00
  0.00000000E+00  0.00000000E+00  0.00000000E+00  0.00000000E+00  0.00000000E+00
  0.00000000E+00  5.72396844E-01  0.00000000E+00  0.00000000E+00  1.14391171E+00
  0.00000000E+00  0.00000000E+00  1.06049138E+00  0.00000000E+00  0.00000000E+00
  0.00000000E+00 -1.48494115E-01  0.00000000E+00  0.00000000E+00  0.00000000E+00
  0.00000000E+00 -1.16341523E-01  0.00000000E+00  0.00000000E+00  0.00000000E+00
  0.00000000E+00  0.00000000E+00  0.00000000E+00  0.00000000E+00  1.28910416E-01
  0.00000000E+00  0.00000000E+00  7.34727467E-01  0.00000000E+00  0.00000000E+00
  1.12371422E+00  0.00000000E+00  0.00000000E+00  0.00000000E+00  0.00000000E+00
  0.00000000E+00  0.00000000E+00  0.00000000E+00  0.00000000E+00  0.00000000E+00
  3.14128194E-19 -1.72183362E-17  1.78191045E-17 -1.21911016E-18  0.00000000E+00
  0.00000000E+00  5.86311079E-19  0.00000000E+00  0.00000000E+00  1.01101511E-19
  0.00000000E+00  0.00000000E+00  1.00832479E-18 -5.26592254E-18  0.00000000E+00
  0.00000000E+00 -3.24531008E-01  0.00000000E+00  1.01036841E-17  0.00000000E+00
  0.00000000E+00 -6.03720101E-01  0.00000000E+00  0.00000000E+00  0.00000000E+00
  0.00000000E+00  0.00000000E+00  0.00000000E+00  0.00000000E+00  6.56517578E-18
  0.00000000E+00  0.00000000E+00 -4.12095071E-18  0.00000000E+00  0.00000000E+00
  4.87874335E-17  0.00000000E+00  0.00000000E+00  0.00000000E+00  0.00000000E+00
  0.00000000E+00  0.00000000E+00  0.00000000E+00  0.00000000E+00  0.00000000E+00
  0.00000000E+00  0.00000000E+00  0.00000000E+00  0.00000000E+00  0.00000000E+00
  0.00000000E+00  0.00000000E+00  0.00000000E+00  0.00000000E+00  0.00000000E+00
  0.00000000E+00  0.00000000E+00  0.00000000E+00  0.00000000E+00  0.00000000E+00
  0.00000000E+00  0.00000000E+00 -3.24531008E-01  0.00000000E+00  0.00000000E+00
  0.00000000E+00  0.00000000E+00 -6.03720101E-01  0.00000000E+00  0.00000000E+00
  0.00000000E+00  0.00000000E+00  0.00000000E+00  0.00000000E+00  0.00000000E+00
  0.00000000E+00  0.00000000E+00  0.00000000E+00  0.00000000E+00  0.00000000E+00
  0.00000000E+00  0.00000000E+00  0.00000000E+00  0.00000000E+00  0.00000000E+00
  0.00000000E+00  0.00000000E+00  0.00000000E+00  0.00000000E+00  0.00000000E+00
  0.00000000E+00  1.23373794E-08  2.52906729E-02  1.65412837E-01  1.79122001E-01
  0.00000000E+00  0.00000000E+00 -4.41831464E-05  0.00000000E+00  0.00000000E+00
  5.72433693E-02  0.00000000E+00  0.00000000E+00  3.80662172E-01  1.77281787E-03
  0.00000000E+00  0.00000000E+00 -4.14605974E-22  0.00000000E+00  3.10839349E-01
  0.00000000E+00  0.00000000E+00 -2.22642564E-19  0.00000000E+00  1.08157044E-01
  4.34721891E-01  4.57342958E-01  2.33116211E-01  0.00000000E+00  0.00000000E+00
  2.36390088E-01  0.00000000E+00  0.00000000E+00  7.95990979E-01  0.00000000E+00
  0.00000000E+00  5.52354327E-01  4.98773746E-01  0.00000000E+00  0.00000000E+00
  6.64146636E-19  0.00000000E+00  8.02223040E-01  0.00000000E+00  0.00000000E+00
  5.00358510E-18  0.00000000E+00  1.80793500E+00 -2.52890685E-02  3.93091443E-06
  2.67534853E-01  4.23263218E-01  0.00000000E+00  0.00000000E+00 -2.46710833E-02
  0.00000000E+00  0.00000000E+00  5.38766288E-02  0.00000000E+00  0.00000000E+00
  6.86797085E-01 -5.71748340E-03  0.00000000E+00  0.00000000E+00 -1.26295965E-18
  0.00000000E+00  4.15941494E-01  0.00000000E+00  0.00000000E+00  7.07964558E-19
  0.00000000E+00  1.13370959E-01  5.30772637E-01  8.40130608E-01  5.77412466E-01
  0.00000000E+00  0.00000000E+00  2.78927268E-01  0.00000000E+00  0.00000000E+00
  9.59170608E-01  0.00000000E+00  0.00000000E+00  1.19473693E+00  3.25886961E-01
  0.00000000E+00  0.00000000E+00  2.35145663E-18  0.00000000E+00  1.02408444E+00
  0.00000000E+00  0.00000000E+00  2.64019230E-17  0.00000000E+00  1.27691745E+00
  1.80793500E+00 -1.65405685E-01 -2.67516055E-01  1.68994481E-05  5.96214868E-01
  0.00000000E+00  0.00000000E+00 -1.28535208E-02  0.00000000E+00  0.00000000E+00
  7.06790361E-02  0.00000000E+00  0.00000000E+00  8.02807144E-01  3.80004151E-02
  0.00000000E+00  0.00000000E+00 -7.25709058E-19  0.00000000E+00  4.21732456E-01
  0.00000000E+00  0.00000000E+00 -4.71884923E-18  0.00000000E+00  3.79828205E-02
  2.64829385E-01  7.64291538E-01  9.64575577E-01  0.00000000E+00  0.00000000E+00
  2.14728174E-01  0.00000000E+00  0.00000000E+00  8.14793997E-01  0.00000000E+00
  0.00000000E+00  1.76446120E+00  1.09456684E-01  0.00000000E+00  0.00000000E+00
  1.91378998E-18  0.00000000E+00  6.52561525E-01  0.00000000E+00  0.00000000E+00
  1.75068226E-17  0.00000000E+00  6.75314064E-01  1.42624032E+00  1.80793500E+00
 -1.79115173E-01 -4.23245131E-01 -5.96178827E-01  2.80365130E-05  0.00000000E+00
  0.00000000E+00  5.51051019E-02  0.00000000E+00  0.00000000E+00  2.60332763E-01
  0.00000000E+00  0.00000000E+00  1.09897965E+00  1.92758767E-02  0.00000000E+00
  0.00000000E+00 -4.15571561E-18  0.00000000E+00  1.99269611E-01  0.00000000E+00
  0.00000000E+00  2.74915931E-17  0.00000000E+00  4.79070019E-03  4.47680752E-02
  2.37246145E-01  8.67409014E-01  0.00000000E+00  0.00000000E+00  1.03447636E-01
  0.00000000E+00  0.00000000E+00  4.67247268E-01  0.00000000E+00  0.00000000E+00
  1.72844952E+00  1.45972618E-02  0.00000000E+00  0.00000000E+00  9.76265940E-20
  0.00000000E+00  1.45226208E-01  0.00000000E+00  0.00000000E+00  2.64374211E-18
  0.00000000E+00  2.57954313E-01  6.71729007E-01  1.28416048E+00  1.80793500E+00
  0.00000000E+00  0.00000000E+00  0.00000000E+00  0.00000000E+00  3.34947182E-09
  0.00000000E+00  0.00000000E+00  1.18376794E-02  0.00000000E+00  0.00000000E+00
  8.05505392E-02  0.00000000E+00  0.00000000E+00  0.00000000E+00  5.49753754E-04
  0.00000000E+00  0.00000000E+00  0.00000000E+00  0.00000000E+00  1.14900569E-01
  0.00000000E+00  0.00000000E+00  0.00000000E+00  0.00000000E+00  0.00000000E+00
  0.00000000E+00  0.00000000E+00  9.06778336E-02  0.00000000E+00  0.00000000E+00
  3.22481280E-01  0.00000000E+00  0.00000000E+00  2.20673817E-01  0.00000000E+00
  0.00000000E+00  0.00000000E+00  3.53645429E-01  0.00000000E+00  0.00000000E+00
  0.00000000E+00  0.00000000E+00  5.72405217E-01  0.00000000E+00  0.00000000E+00
  0.00000000E+00  0.00000000E+00  0.00000000E+00  0.00000000E+00  0.00000000E+00
  1.80793500E+00  0.00000000E+00  0.00000000E+00  0.00000000E+00  0.00000000E+00
  0.00000000E+00  3.34947182E-09  0.00000000E+00  0.00000000E+00  1.18376794E-02
  0.00000000E+00  0.00000000E+00  8.05505392E-02  0.00000000E+00  0.00000000E+00
  0.00000000E+00  5.49753754E-04  0.00000000E+00  0.00000000E+00  0.00000000E+00
  0.00000000E+00  1.14900569E-01  0.00000000E+00  0.00000000E+00  0.00000000E+00
  0.00000000E+00  0.00000000E+00  0.00000000E+00  0.00000000E+00  9.06778336E-02
  0.00000000E+00  0.00000000E+00  3.22481280E-01  0.00000000E+00  0.00000000E+00
  2.20673817E-01  0.00000000E+00  0.00000000E+00  0.00000000E+00  3.53645429E-01
  0.00000000E+00  0.00000000E+00  0.00000000E+00  0.00000000E+00  5.72405217E-01
  0.00000000E+00  0.00000000E+00  0.00000000E+00  0.00000000E+00  0.00000000E+00
  0.00000000E+00  0.00000000E+00  1.80793500E+00 -4.42366055E-05 -2.46734025E-02
 -1.28574669E-02  5.51041248E-02  0.00000000E+00  0.00000000E+00 -5.82646345E-08
  0.00000000E+00  0.00000000E+00 -5.86263096E-02  0.00000000E+00  0.00000000E+00
  4.13333333E-02 -3.91542668E-03  0.00000000E+00  0.00000000E+00 -4.49059700E-21
  0.00000000E+00 -1.08661586E-01  0.00000000E+00  0.00000000E+00 -3.53105737E-19
  0.00000000E+00 -1.58984504E-01 -1.45271855E-01  7.68613413E-02  8.64148158E-02
  0.00000000E+00  0.00000000E+00 -3.26345982E-01  0.00000000E+00  0.00000000E+00
 -8.51189141E-02  0.00000000E+00  0.00000000E+00  2.88150797E-01 -3.54600829E-01
  0.00000000E+00  0.00000000E+00  3.52611648E-21  0.00000000E+00  4.48607492E-01
  0.00000000E+00  0.00000000E+00  7.47068363E-19  0.00000000E+00  4.17326919E-01
  4.72884226E-01  2.80778475E-01  1.11862100E-01  0.00000000E+00  0.00000000E+00
  1.80793500E+00  0.00000000E+00  0.00000000E+00  0.00000000E+00  0.00000000E+00
 -1.18369165E-02  0.00000000E+00  0.00000000E+00  2.61763048E-06  0.00000000E+00
  0.00000000E+00  2.18090888E-01  0.00000000E+00  0.00000000E+00  0.00000000E+00
 -1.73594435E-02  0.00000000E+00  0.00000000E+00  0.00000000E+00  0.00000000E+00
  2.17195051E-01  0.00000000E+00  0.00000000E+00  0.00000000E+00  0.00000000E+00
  0.00000000E+00  0.00000000E+00  0.00000000E+00  8.89287397E-02  0.00000000E+00
  0.00000000E+00  4.79469071E-01  0.00000000E+00  0.00000000E+00  6.53190758E-01
  0.00000000E+00  0.00000000E+00  0.00000000E+00  3.49866087E-01  0.00000000E+00
  0.00000000E+00  0.00000000E+00  0.00000000E+00  1.14392130E+00  0.00000000E+00
  0.00000000E+00  0.00000000E+00  0.00000000E+00  0.00000000E+00  0.00000000E+00
  0.00000000E+00  1.11174183E+00  0.00000000E+00  0.00000000E+00  1.80793500E+00
  0.00000000E+00  0.00000000E+00  0.00000000E+00  0.00000000E+00  0.00000000E+00
 -1.18369165E-02  0.00000000E+00  0.00000000E+00  2.61763048E-06  0.00000000E+00
  0.00000000E+00  2.18090888E-01  0.00000000E+00  0.00000000E+00  0.00000000E+00
 -1.73594435E-02  0.00000000E+00  0.00000000E+00  0.00000000E+00  0.00000000E+00
  2.17195051E-01  0.00000000E+00  0.00000000E+00  0.00000000E+00  0.00000000E+00
  0.00000000E+00  0.00000000E+00  0.00000000E+00  8.89287397E-02  0.00000000E+00
  0.00000000E+00  4.79469071E-01  0.00000000E+00  0.00000000E+00  6.53190758E-01
  0.00000000E+00  0.00000000E+00  0.00000000E+00  3.49866087E-01  0.00000000E+00
  0.00000000E+00  0.00000000E+00  0.00000000E+00  1.14392130E+00  0.00000000E+00
  0.00000000E+00  0.00000000E+00  0.00000000E+00  0.00000000E+00  0.00000000E+00
  0.00000000E+00  1.11174183E+00  0.00000000E+00  0.00000000E+00  1.80793500E+00
  5.72397575E-02  5.38632792E-02  7.06632087E-02  2.60328333E-01  0.00000000E+00
  0.00000000E+00  5.86210059E-02  0.00000000E+00  0.00000000E+00 -1.06608932E-05
  0.00000000E+00  0.00000000E+00  1.93670526E-01  1.94231790E-02  0.00000000E+00
  0.00000000E+00 -4.39806636E-19  0.00000000E+00 -1.11221584E-01  0.00000000E+00
  0.00000000E+00  7.86751381E-19  0.00000000E+00 -9.97601196E-02 -7.67072619E-02
  3.35156467E-01  3.90861194E-01  0.00000000E+00  0.00000000E+00 -3.21430667E-01
  0.00000000E+00  0.00000000E+00 -1.28607047E-01  0.00000000E+00  0.00000000E+00
  7.89783673E-01 -1.11893462E-01  0.00000000E+00  0.00000000E+00 -2.29533493E-18
  0.00000000E+00  8.15159178E-01  0.00000000E+00  0.00000000E+00 -3.19516392E-20
  0.00000000E+00  2.84964978E-01  8.67674035E-01  9.31584681E-01  4.99863277E-01
  0.00000000E+00  0.00000000E+00  1.11174183E+00  0.00000000E+00  0.00000000E+00
  1.80793500E+00  0.00000000E+00  0.00000000E+00  0.00000000E+00  0.00000000E+00
 -8.05471317E-02  0.00000000E+00  0.00000000E+00 -2.18077219E-01  0.00000000E+00
  0.00000000E+00  1.69769557E-05  0.00000000E+00  0.00000000E+00  0.00000000E+00
 -6.27702523E-03  0.00000000E+00  0.00000000E+00  0.00000000E+00  0.00000000E+00
  1.95017207E-01  0.00000000E+00  0.00000000E+00  0.00000000E+00  0.00000000E+00
  0.00000000E+00  0.00000000E+00  0.00000000E+00  1.59976754E-02  0.00000000E+00
  0.00000000E+00  1.71715096E-01  0.00000000E+00  0.00000000E+00  7.65166403E-01
  0.00000000E+00  0.00000000E+00  0.00000000E+00  1.67447770E-01  0.00000000E+00
  0.00000000E+00  0.00000000E+00  0.00000000E+00  1.06048573E+00  0.00000000E+00
  0.00000000E+00  0.00000000E+00  0.00000000E+00  0.00000000E+00  0.00000000E+00
  0.00000000E+00  3.22962827E-01  0.00000000E+00  0.00000000E+00  1.07413155E+00
  0.00000000E+00  0.00000000E+00  1.80793500E+00  0.00000000E+00  0.00000000E+00
  0.00000000E+00  0.00000000E+00  0.00000000E+00 -8.05471317E-02  0.00000000E+00
  0.00000000E+00 -2.18077219E-01  0.00000000E+00  0.00000000E+00  1.69769557E-05
  0.00000000E+00  0.00000000E+00  0.00000000E+00 -6.27702523E-03  0.00000000E+00
  0.00000000E+00  0.00000000E+00  0.00000000E+00  1.95017207E-01  0.00000000E+00
  0.00000000E+00  0.00000000E+00  0.00000000E+00  0.00000000E+00  0.00000000E+00
  0.00000000E+00  1.59976754E-02  0.00000000E+00  0.00000000E+00  1.71715096E-01
  0.00000000E+00  0.00000000E+00  7.65166403E-01  0.00000000E+00  0.00000000E+00
  0.00000000E+00  1.67447770E-01  0.00000000E+00  0.00000000E+00  0.00000000E+00
  0.00000000E+00  1.06048573E+00  0.00000000E+00  0.00000000E+00  0.00000000E+00
  0.00000000E+00  0.00000000E+00  0.00000000E+00  0.00000000E+00  3.22962827E-01
  0.00000000E+00  0.00000000E+00  1.07413155E+00  0.00000000E+00  0.00000000E+00
  1.80793500E+00  3.80646864E-01  6.86763934E-01  8.02767890E-01  1.09896307E+00
  0.00000000E+00  0.00000000E+00 -4.13383996E-02  0.00000000E+00  0.00000000E+00
 -1.93685725E-01  0.00000000E+00  0.00000000E+00 -5.66269461E-06 -7.90411902E-02
  0.00000000E+00  0.00000000E+00 -2.70598004E-17  0.00000000E+00 -2.67107549E-01
  0.00000000E+00  0.00000000E+00  3.38366066E-19  0.00000000E+00  2.51960320E-02
  2.24266078E-01  8.78325970E-01  1.45208705E+00  0.00000000E+00  0.00000000E+00
 -1.98624674E-01  0.00000000E+00  0.00000000E+00 -4.00425618E-01  0.00000000E+00
  0.00000000E+00  5.10059807E-01  8.43888545E-02  0.00000000E+00  0.00000000E+00
 -3.10990798E-19  0.00000000E+00  7.93643574E-01  0.00000000E+00  0.00000000E+00
  3.67793746E-18  0.00000000E+00  8.86326162E-02  5.87362976E-01  1.56019339E+00
  1.78809431E+00  0.00000000E+00  0.00000000E+00  3.22962827E-01  0.00000000E+00
  0.00000000E+00  1.07413155E+00  0.00000000E+00  0.00000000E+00  1.80793500E+00
 -1.77245916E-03  5.72101501E-03 -3.79983298E-02 -1.92757385E-02  0.00000000E+00
  0.00000000E+00 -3.91461194E-03  0.00000000E+00  0.00000000E+00  1.94306568E-02
  0.00000000E+00  0.00000000E+00 -7.90404165E-02  1.52602739E-06  0.00000000E+00
  0.00000000E+00 -1.92781091E-20  0.00000000E+00 -4.04353462E-02  0.00000000E+00
  0.00000000E+00 -8.37374774E-19  0.00000000E+00  1.25331955E-01 -4.84530521E-02
 -7.37741269E-02 -1.33943487E-02  0.00000000E+00  0.00000000E+00  2.29837208E-01
  0.00000000E+00  0.00000000E+00 -1.55968290E-01  0.00000000E+00  0.00000000E+00
 -3.63393165E-04  5.98131423E-02  0.00000000E+00  0.00000000E+00 -9.84813049E-18
  0.00000000E+00  5.80872939E-02  0.00000000E+00  0.00000000E+00  4.27693176E-18
  0.00000000E+00  0.00000000E+00  0.00000000E+00  0.00000000E+00  0.00000000E+00
  0.00000000E+00  0.00000000E+00  4.69678570E-01  0.00000000E+00  0.00000000E+00
  6.07683966E-01  0.00000000E+00  0.00000000E+00  2.47533381E-01  1.80793500E+00
  0.00000000E+00  0.00000000E+00  0.00000000E+00  0.00000000E+00  5.49651363E-04
  0.00000000E+00  0.00000000E+00 -1.73618326E-02  0.00000000E+00  0.00000000E+00
 -6.28012466E-03  0.00000000E+00  0.00000000E+00  0.00000000E+00 -4.23141984E-07
  0.00000000E+00  0.00000000E+00  0.00000000E+00  0.00000000E+00 -7.80544687E-02
  0.00000000E+00  0.00000000E+00  0.00000000E+00  0.00000000E+00  0.00000000E+00
  0.00000000E+00  0.00000000E+00 -1.66618055E-01  0.00000000E+00  0.00000000E+00
 -1.78024124E-01  0.00000000E+00  0.00000000E+00  6.19825633E-02  0.00000000E+00
  0.00000000E+00  0.00000000E+00 -3.94423677E-01  0.00000000E+00  0.00000000E+00
  0.00000000E+00  0.00000000E+00  1.48461360E-01  0.00000000E+00  0.00000000E+00
  0.00000000E+00  0.00000000E+00  0.00000000E+00  0.00000000E+00  0.00000000E+00
  4.06753573E-01  0.00000000E+00  0.00000000E+00  5.26269752E-01  0.00000000E+00
  0.00000000E+00  2.14370196E-01  0.00000000E+00  0.00000000E+00  0.00000000E+00
  1.80793500E+00  0.00000000E+00  0.00000000E+00  0.00000000E+00  0.00000000E+00
  0.00000000E+00  5.49651363E-04  0.00000000E+00  0.00000000E+00 -1.73618326E-02
  0.00000000E+00  0.00000000E+00 -6.28012466E-03  0.00000000E+00  0.00000000E+00
  0.00000000E+00 -4.23141984E-07  0.00000000E+00  0.00000000E+00  0.00000000E+00
  0.00000000E+00 -7.80544687E-02  0.00000000E+00  0.00000000E+00  0.00000000E+00
  0.00000000E+00  0.00000000E+00  0.00000000E+00  0.00000000E+00 -1.66618055E-01
  0.00000000E+00  0.00000000E+00 -1.78024124E-01  0.00000000E+00  0.00000000E+00
  6.19825633E-02  0.00000000E+00  0.00000000E+00  0.00000000E+00 -3.94423677E-01
  0.00000000E+00  0.00000000E+00  0.00000000E+00  0.00000000E+00  1.48461360E-01
  0.00000000E+00  0.00000000E+00  0.00000000E+00  0.00000000E+00  0.00000000E+00
  0.00000000E+00  0.00000000E+00  4.06753573E-01  0.00000000E+00  0.00000000E+00
  5.26269752E-01  0.00000000E+00  0.00000000E+00  2.14370196E-01  0.00000000E+00
  0.00000000E+00  0.00000000E+00  1.80793500E+00  1.26398987E-21  6.68150060E-19
 -1.16488287E-17  7.67375441E-18  0.00000000E+00  0.00000000E+00 -5.67894610E-21
  0.00000000E+00  0.00000000E+00  3.23242161E-18  0.00000000E+00  0.00000000E+00
  2.61559633E-17 -2.71374633E-20  0.00000000E+00  0.00000000E+00  3.30083063E-08
  0.00000000E+00 -1.21614365E-18  0.00000000E+00  0.00000000E+00  3.49195051E-02
  0.00000000E+00 -2.26108872E-18  1.80547029E-17 -9.91770812E-18 -1.23209109E-17
  0.00000000E+00  0.00000000E+00 -6.89143012E-18  0.00000000E+00  0.00000000E+00
 -3.78032203E-17  0.00000000E+00  0.00000000E+00 -2.60893005E-17  9.10937135E-18
  0.00000000E+00  0.00000000E+00  1.60665249E-01  0.00000000E+00 -3.32766617E-17
  0.00000000E+00  0.00000000E+00  3.24527342E-01  0.00000000E+00  3.72699603E-17
 -6.86136676E-17 -2.55078293E-17  1.13916725E-17  0.00000000E+00  0.00000000E+00
  1.11038724E-17  0.00000000E+00  0.00000000E+00  4.09699414E-18  0.00000000E+00
  0.00000000E+00  4.41234122E-18  4.41263247E-17  0.00000000E+00  0.00000000E+00
  1.80793500E+00  0.00000000E+00  0.00000000E+00  0.00000000E+00  0.00000000E+00
  0.00000000E+00  0.00000000E+00  0.00000000E+00  0.00000000E+00  0.00000000E+00
  0.00000000E+00  0.00000000E+00  0.00000000E+00  0.00000000E+00  0.00000000E+00
  0.00000000E+00  0.00000000E+00  0.00000000E+00  3.30083063E-08  0.00000000E+00
  0.00000000E+00  0.00000000E+00  0.00000000E+00  3.49195051E-02  0.00000000E+00
  0.00000000E+00  0.00000000E+00  0.00000000E+00  0.00000000E+00  0.00000000E+00
  0.00000000E+00  0.00000000E+00  0.00000000E+00  0.00000000E+00  0.00000000E+00
  0.00000000E+00  0.00000000E+00  0.00000000E+00  0.00000000E+00  0.00000000E+00
  0.00000000E+00  1.60665249E-01  0.00000000E+00  0.00000000E+00  0.00000000E+00
  0.00000000E+00  3.24527342E-01  0.00000000E+00  0.00000000E+00  0.00000000E+00
  0.00000000E+00  0.00000000E+00  0.00000000E+00  0.00000000E+00  0.00000000E+00
  0.00000000E+00  0.00000000E+00  0.00000000E+00  0.00000000E+00  0.00000000E+00
  0.00000000E+00  0.00000000E+00  0.00000000E+00  0.00000000E+00  1.80793500E+00
 -3.10825006E-01 -4.15916430E-01 -4.21718129E-01 -1.99268220E-01  0.00000000E+00
  0.00000000E+00 -1.08650365E-01  0.00000000E+00  0.00000000E+00 -1.11200283E-01
  0.00000000E+00  0.00000000E+00 -2.67108933E-01  4.04418358E-02  0.00000000E+00
  0.00000000E+00  9.43333688E-18  0.00000000E+00  1.12106506E-06  0.00000000E+00
  0.00000000E+00 -1.19347387E-17  0.00000000E+00 -5.98380530E-02 -3.44903721E-01
 -4.53162117E-01 -1.33326678E-01  0.00000000E+00  0.00000000E+00  2.32822293E-01
  0.00000000E+00  0.00000000E+00  1.49391746E-01  0.00000000E+00  0.00000000E+00
  2.71534084E-01 -1.27792095E-01  0.00000000E+00  0.00000000E+00  3.48074485E-18
  0.00000000E+00  8.50065620E-02  0.00000000E+00  0.00000000E+00 -2.76525432E-17
  0.00000000E+00  0.00000000E+00  0.00000000E+00  0.00000000E+00  0.00000000E+00
  0.00000000E+00  0.00000000E+00  1.48852927E-01  0.00000000E+00  0.00000000E+00
  8.48390202E-01  0.00000000E+00  0.00000000E+00  1.29755342E+00  7.70312815E-01
  0.00000000E+00  0.00000000E+00 -1.20938859E-17  0.00000000E+00  1.80793500E+00
  0.00000000E+00  0.00000000E+00  0.00000000E+00  0.00000000E+00  1.14895007E-01
  0.00000000E+00  0.00000000E+00  2.17176096E-01  0.00000000E+00  0.00000000E+00
  1.94995873E-01  0.00000000E+00  0.00000000E+00  0.00000000E+00  7.80457588E-02
  0.00000000E+00  0.00000000E+00  0.00000000E+00  0.00000000E+00 -1.46680415E-05
  0.00000000E+00  0.00000000E+00  0.00000000E+00  0.00000000E+00  0.00000000E+00
  0.00000000E+00  0.00000000E+00 -2.42322739E-02  0.00000000E+00  0.00000000E+00
  6.00194072E-03  0.00000000E+00  0.00000000E+00  4.68684591E-01  0.00000000E+00
  0.00000000E+00  0.00000000E+00 -2.72113572E-01  0.00000000E+00  0.00000000E+00
  0.00000000E+00  0.00000000E+00  1.16306681E-01  0.00000000E+00  0.00000000E+00
  0.00000000E+00  0.00000000E+00  0.00000000E+00  0.00000000E+00  0.00000000E+00
  1.28910416E-01  0.00000000E+00  0.00000000E+00  7.34727467E-01  0.00000000E+00
  0.00000000E+00  1.12371422E+00  0.00000000E+00  0.00000000E+00  0.00000000E+00
  7.70312815E-01  0.00000000E+00  0.00000000E+00  0.00000000E+00  0.00000000E+00
  1.80793500E+00  0.00000000E+00  0.00000000E+00  0.00000000E+00  0.00000000E+00
  0.00000000E+00  1.14895007E-01  0.00000000E+00  0.00000000E+00  2.17176096E-01
  0.00000000E+00  0.00000000E+00  1.94995873E-01  0.00000000E+00  0.00000000E+00
  0.00000000E+00  7.80457588E-02  0.00000000E+00  0.00000000E+00  0.00000000E+00
  0.00000000E+00 -1.46680415E-05  0.00000000E+00  0.00000000E+00  0.00000000E+00
  0.00000000E+00  0.00000000E+00  0.00000000E+00  0.00000000E+00 -2.42322739E-02
  0.00000000E+00  0.00000000E+00  6.00194072E-03  0.00000000E+00  0.00000000E+00
  4.68684591E-01  0.00000000E+00  0.00000000E+00  0.00000000E+00 -2.72113572E-01
  0.00000000E+00  0.00000000E+00  0.00000000E+00  0.00000000E+00  1.16306681E-01
  0.00000000E+00  0.00000000E+00  0.00000000E+00  0.00000000E+00  0.00000000E+00
  0.00000000E+00  0.00000000E+00  1.28910416E-01  0.00000000E+00  0.00000000E+00
  7.34727467E-01  0.00000000E+00  0.00000000E+00  1.12371422E+00  0.00000000E+00
  0.00000000E+00  0.00000000E+00  7.70312815E-01  0.00000000E+00  0.00000000E+00
  0.00000000E+00  0.00000000E+00  1.80793500E+00  8.51092884E-19  5.87208440E-19
  5.27664764E-18  3.18810441E-18  0.00000000E+00  0.00000000E+00 -1.58625138E-19
  0.00000000E+00  0.00000000E+00  5.46290490E-21  0.00000000E+00  0.00000000E+00
  2.90740290E-17  6.78373711E-19  0.00000000E+00  0.00000000E+00 -3.49174485E-02
  0.00000000E+00  4.94160650E-18  0.00000000E+00  0.00000000E+00  6.57970004E-06
  0.00000000E+00 -1.62353747E-18  4.71445501E-18  2.46687830E-17  1.22708134E-17
  0.00000000E+00  0.00000000E+00  3.98812315E-19  0.00000000E+00  0.00000000E+00
 -1.85470608E-17  0.00000000E+00  0.00000000E+00  3.05383926E-17 -1.14605444E-18
  0.00000000E+00  0.00000000E+00  7.58356229E-02  0.00000000E+00  1.72598972E-17
  0.00000000E+00  0.00000000E+00  6.03724357E-01  0.00000000E+00  5.17152072E-18
  4.54203255E-17  9.01598907E-17 -1.49452929E-17  0.00000000E+00  0.00000000E+00
  6.56517578E-18  0.00000000E+00  0.00000000E+00 -4.12095071E-18  0.00000000E+00
  0.00000000E+00  4.87874335E-17 -7.87521591E-19  0.00000000E+00  0.00000000E+00
  7.70312815E-01  0.00000000E+00 -4.96179774E-19  0.00000000E+00  0.00000000E+00
  1.80793500E+00  0.00000000E+00  0.00000000E+00  0.00000000E+00  0.00000000E+00
  0.00000000E+00  0.00000000E+00  0.00000000E+00  0.00000000E+00  0.00000000E+00
  0.00000000E+00  0.00000000E+00  0.00000000E+00  0.00000000E+00  0.00000000E+00
  0.00000000E+00  0.00000000E+00  0.00000000E+00 -3.49174485E-02  0.00000000E+00
  0.00000000E+00  0.00000000E+00  0.00000000E+00  6.57970004E-06  0.00000000E+00
  0.00000000E+00  0.00000000E+00  0.00000000E+00  0.00000000E+00  0.00000000E+00
  0.00000000E+00  0.00000000E+00  0.00000000E+00  0.00000000E+00  0.00000000E+00
  0.00000000E+00  0.00000000E+00  0.00000000E+00  0.00000000E+00  0.00000000E+00
  0.00000000E+00  7.58356229E-02  0.00000000E+00  0.00000000E+00  0.00000000E+00
  0.00000000E+00  6.03724357E-01  0.00000000E+00  0.00000000E+00  0.00000000E+00
  0.00000000E+00  0.00000000E+00  0.00000000E+00  0.00000000E+00  0.00000000E+00
  0.00000000E+00  0.00000000E+00  0.00000000E+00  0.00000000E+00  0.00000000E+00
  0.00000000E+00  0.00000000E+00  0.00000000E+00  0.00000000E+00  7.70312815E-01
  0.00000000E+00  0.00000000E+00  0.00000000E+00  0.00000000E+00  1.80793500E+00
Multipole Matrix (2,0,0)                   R   N=        2415
  1.76393444E-01  2.21880681E-01  7.67341928E-01  1.39282807E-01  9.20511195E-01
  2.43427459E+00  5.68664226E-02  5.29175765E-01  2.77544267E+00  9.89707047E+00
  0.00000000E+00  0.00000000E+00  0.00000000E+00  0.00000000E+00  5.33049041E-01
  0.00000000E+00  0.00000000E+00  0.00000000E+00  0.00000000E+00  0.00000000E+00
  1.77683014E-01  0.00000000E+00  0.00000000E+00  0.00000000E+00  0.00000000E+00
  0.00000000E+00  0.00000000E+00  1.77683014E-01  0.00000000E+00  0.00000000E+00
  0.00000000E+00  0.00000000E+00  5.13863703E-01  0.00000000E+00  0.00000000E+00
  1.93298969E+00  0.00000000E+00  0.00000000E+00  0.00000000E+00  0.00000000E+00
  0.00000000E+00  1.71287901E-01  0.00000000E+00  0.00000000E+00  6.44329897E-01
  0.00000000E+00  0.00000000E+00  0.00000000E+00  0.00000000E+00  0.00000000E+00
  0.00000000E+00  1.71287901E-01  0.00000000E+00  0.00000000E+00  6.44329897E-01
  0.00000000E+00  0.00000000E+00  0.00000000E+00  0.00000000E+00  1.77570879E-01
  0.00000000E+00  0.00000000E+00  1.81873674E+00  0.00000000E+00  0.00000000E+00
  7.35294118E+00  0.00000000E+00  0.00000000E+00  0.00000000E+00  0.00000000E+00
  0.00000000E+00  5.91902931E-02  0.00000000E+00  0.00000000E+00  6.06245580E-01
  0.00000000E+00  0.00000000E+00  2.45098039E+00  0.00000000E+00  0.00000000E+00
  0.00000000E+00  0.00000000E+00  0.00000000E+00  0.00000000E+00  5.91902931E-02
  0.00000000E+00  0.00000000E+00  6.06245580E-01  0.00000000E+00  0.00000000E+00
  2.45098039E+00 -1.07745898E-01 -2.49557776E-01 -1.94349589E-01 -8.64529820E-02
  0.00000000E+00  0.00000000E+00  0.00000000E+00  0.00000000E+00  0.00000000E+00
  0.00000000E+00  0.00000000E+00  0.00000000E+00  0.00000000E+00  3.94197414E-01
  0.00000000E+00  0.00000000E+00  0.00000000E+00  0.00000000E+00  0.00000000E+00
  0.00000000E+00  0.00000000E+00  0.00000000E+00  0.00000000E+00  0.00000000E+00
  0.00000000E+00  0.00000000E+00  0.00000000E+00  0.00000000E+00  7.09555345E-01
  0.00000000E+00  0.00000000E+00  0.00000000E+00  0.00000000E+00  0.00000000E+00
  0.00000000E+00  0.00000000E+00  0.00000000E+00  0.00000000E+00  0.00000000E+00
  0.00000000E+00  0.00000000E+00  0.00000000E+00  0.00000000E+00  0.00000000E+00
  2.36518448E-01  1.86621370E-01  4.32246747E-01  3.36623363E-01  1.49740957E-01
  0.00000000E+00  0.00000000E+00  0.00000000E+00  0.00000000E+00  0.00000000E+00
  0.00000000E+00  0.00000000E+00  0.00000000E+00  0.00000000E+00 -2.73107980E-01
  0.00000000E+00  0.00000000E+00  7.09555345E-01  0.00000000E+00  0.00000000E+00
  0.00000000E+00  0.00000000E+00  0.00000000E+00  0.00000000E+00  0.00000000E+00
  0.00000000E+00  0.00000000E+00  0.00000000E+00  0.00000000E+00  0.00000000E+00
  0.00000000E+00  0.00000000E+00  0.00000000E+00  0.00000000E+00  0.00000000E+00
  7.09555345E-01 -4.10760608E-02 -4.28456575E-01 -1.01378802E+00 -8.50326284E-01
  0.00000000E+00  0.00000000E+00  0.00000000E+00  0.00000000E+00  0.00000000E+00
  0.00000000E+00  0.00000000E+00  0.00000000E+00  0.00000000E+00  2.72286101E-01
  0.00000000E+00  0.00000000E+00 -1.88645345E-01  0.00000000E+00  1.68690958E+00
  0.00000000E+00  0.00000000E+00  0.00000000E+00  0.00000000E+00  0.00000000E+00
  0.00000000E+00  0.00000000E+00  0.00000000E+00  0.00000000E+00  0.00000000E+00
  0.00000000E+00  0.00000000E+00  0.00000000E+00  0.00000000E+00  4.90114982E-01
  0.00000000E+00  0.00000000E+00  0.00000000E+00  0.00000000E+00  3.03643725E+00
  0.00000000E+00  0.00000000E+00  0.00000000E+00  0.00000000E+00  0.00000000E+00
  0.00000000E+00  0.00000000E+00  0.00000000E+00  0.00000000E+00  0.00000000E+00
  0.00000000E+00  0.00000000E+00  0.00000000E+00  0.00000000E+00  0.00000000E+00
  1.63371661E-01  0.00000000E+00  0.00000000E+00  0.00000000E+00  0.00000000E+00
  1.01214575E+00  7.11458243E-02  7.42108557E-01  1.75593236E+00  1.47280833E+00
  0.00000000E+00  0.00000000E+00  0.00000000E+00  0.00000000E+00  0.00000000E+00
  0.00000000E+00  0.00000000E+00  0.00000000E+00  0.00000000E+00 -1.88645345E-01
  0.00000000E+00  0.00000000E+00  4.90114982E-01  0.00000000E+00 -1.16872524E+00
  0.00000000E+00  0.00000000E+00  3.03643725E+00  0.00000000E+00  0.00000000E+00
  0.00000000E+00  0.00000000E+00  0.00000000E+00  0.00000000E+00  0.00000000E+00
  0.00000000E+00  0.00000000E+00  0.00000000E+00  0.00000000E+00  0.00000000E+00
  0.00000000E+00  0.00000000E+00  0.00000000E+00  0.00000000E+00  0.00000000E+00
  4.90114982E-01  0.00000000E+00  0.00000000E+00  0.00000000E+00  0.00000000E+00
  3.03643725E+00  2.43841542E-02  9.62419617E-02  1.02285429E-01  5.24511974E-02
  0.00000000E+00  0.00000000E+00  4.10260438E-02  0.00000000E+00  0.00000000E+00
  1.49204129E-01  0.00000000E+00  0.00000000E+00  1.08501758E-01  5.44996509E-02
  0.00000000E+00  0.00000000E+00  3.02644390E-02  0.00000000E+00  1.13760072E-01
  0.00000000E+00  0.00000000E+00  3.65482991E-02  0.00000000E+00  1.76393444E-01
  9.62419617E-02  4.50569258E-01  7.13166657E-01  4.90145143E-01  0.00000000E+00
  0.00000000E+00  6.77049009E-02  0.00000000E+00  0.00000000E+00  4.01348560E-01
  0.00000000E+00  0.00000000E+00  6.27366160E-01 -5.50938015E-02  0.00000000E+00
  0.00000000E+00  1.91529400E-01  0.00000000E+00  5.72075684E-02  0.00000000E+00
  0.00000000E+00  4.68867336E-01  0.00000000E+00  2.21880681E-01  7.67341928E-01
  1.02285429E-01  7.13166657E-01  2.05816948E+00  2.59749737E+00  0.00000000E+00
  0.00000000E+00  2.52551753E-02  0.00000000E+00  0.00000000E+00  2.70319166E-01
  0.00000000E+00  0.00000000E+00  1.19717814E+00 -1.34616351E-01  0.00000000E+00
  0.00000000E+00  2.47900275E-01  0.00000000E+00 -6.42115968E-01  0.00000000E+00
  0.00000000E+00  1.38529641E+00  0.00000000E+00  1.39282807E-01  9.20511195E-01
  2.43427459E+00  5.24511974E-02  4.90145143E-01  2.59749737E+00  9.49683930E+00
  0.00000000E+00  0.00000000E+00  3.28880849E-03  0.00000000E+00  0.00000000E+00
  5.11169090E-02  0.00000000E+00  0.00000000E+00  6.00565747E-01 -7.94483234E-02
  0.00000000E+00  0.00000000E+00  1.38140912E-01  0.00000000E+00 -7.76877180E-01
  0.00000000E+00  0.00000000E+00  1.36652533E+00  0.00000000E+00  5.68664226E-02
  5.29175765E-01  2.77544267E+00  9.89707047E+00  0.00000000E+00  0.00000000E+00
  0.00000000E+00  0.00000000E+00  5.34796495E-02  0.00000000E+00  0.00000000E+00
  1.90173696E-01  0.00000000E+00  0.00000000E+00  1.30129282E-01  0.00000000E+00
  0.00000000E+00  0.00000000E+00  1.75201528E-01  0.00000000E+00  0.00000000E+00
  0.00000000E+00  0.00000000E+00  2.99288077E-01  0.00000000E+00  0.00000000E+00
  0.00000000E+00  0.00000000E+00  0.00000000E+00  0.00000000E+00  0.00000000E+00
  5.33049041E-01  0.00000000E+00  0.00000000E+00  0.00000000E+00  0.00000000E+00
  0.00000000E+00  1.78265498E-02  0.00000000E+00  0.00000000E+00  6.33912319E-02
  0.00000000E+00  0.00000000E+00  4.33764274E-02  0.00000000E+00  0.00000000E+00
  0.00000000E+00  5.84005092E-02  0.00000000E+00  0.00000000E+00  0.00000000E+00
  0.00000000E+00  9.97626923E-02  0.00000000E+00  0.00000000E+00  0.00000000E+00
  0.00000000E+00  0.00000000E+00  0.00000000E+00  0.00000000E+00  1.77683014E-01
 -4.10260438E-02 -6.77049009E-02 -2.52551753E-02 -3.28880849E-03  0.00000000E+00
  0.00000000E+00 -6.41510583E-02  0.00000000E+00  0.00000000E+00 -6.26331004E-02
  0.00000000E+00  0.00000000E+00  1.64100473E-02 -4.02643844E-02  0.00000000E+00
  0.00000000E+00 -4.38730193E-02  0.00000000E+00  4.61982263E-02  0.00000000E+00
  0.00000000E+00 -1.75134222E-02  0.00000000E+00  0.00000000E+00  0.00000000E+00
  0.00000000E+00  0.00000000E+00  0.00000000E+00  0.00000000E+00  1.77683014E-01
  0.00000000E+00  0.00000000E+00  0.00000000E+00  0.00000000E+00  1.90173696E-01
  0.00000000E+00  0.00000000E+00  1.02531537E+00  0.00000000E+00  0.00000000E+00
  1.39677078E+00  0.00000000E+00  0.00000000E+00  0.00000000E+00  3.03108279E-01
  0.00000000E+00  0.00000000E+00  0.00000000E+00  0.00000000E+00  1.48677755E+00
  0.00000000E+00  0.00000000E+00  0.00000000E+00  0.00000000E+00  0.00000000E+00
  0.00000000E+00  0.00000000E+00  5.13863703E-01  0.00000000E+00  0.00000000E+00
  1.93298969E+00  0.00000000E+00  0.00000000E+00  0.00000000E+00  0.00000000E+00
  0.00000000E+00  6.33912319E-02  0.00000000E+00  0.00000000E+00  3.41771790E-01
  0.00000000E+00  0.00000000E+00  4.65590260E-01  0.00000000E+00  0.00000000E+00
  0.00000000E+00  1.01036093E-01  0.00000000E+00  0.00000000E+00  0.00000000E+00
  0.00000000E+00  4.95592516E-01  0.00000000E+00  0.00000000E+00  0.00000000E+00
  0.00000000E+00  0.00000000E+00  0.00000000E+00  0.00000000E+00  1.71287901E-01
  0.00000000E+00  0.00000000E+00  6.44329897E-01 -1.49204129E-01 -4.01348560E-01
 -2.70319166E-01 -5.11169090E-02  0.00000000E+00  0.00000000E+00 -6.26331004E-02
  0.00000000E+00  0.00000000E+00 -9.16410629E-02  0.00000000E+00  0.00000000E+00
  2.19777996E-01  1.67356575E-01  0.00000000E+00  0.00000000E+00 -2.75245232E-01
  0.00000000E+00  4.72129194E-01  0.00000000E+00  0.00000000E+00 -3.15493174E-01
  0.00000000E+00  0.00000000E+00  0.00000000E+00  0.00000000E+00  0.00000000E+00
  0.00000000E+00  0.00000000E+00  1.71287901E-01  0.00000000E+00  0.00000000E+00
  6.44329897E-01  0.00000000E+00  0.00000000E+00  0.00000000E+00  0.00000000E+00
  1.30129282E-01  0.00000000E+00  0.00000000E+00  1.39677078E+00  0.00000000E+00
  0.00000000E+00  6.22399830E+00  0.00000000E+00  0.00000000E+00  0.00000000E+00
  7.54967041E-02  0.00000000E+00  0.00000000E+00  0.00000000E+00  0.00000000E+00
  1.40685852E+00  0.00000000E+00  0.00000000E+00  0.00000000E+00  0.00000000E+00
  0.00000000E+00  0.00000000E+00  0.00000000E+00  1.77570879E-01  0.00000000E+00
  0.00000000E+00  1.81873674E+00  0.00000000E+00  0.00000000E+00  7.35294118E+00
  0.00000000E+00  0.00000000E+00  0.00000000E+00  0.00000000E+00  0.00000000E+00
  4.33764274E-02  0.00000000E+00  0.00000000E+00  4.65590260E-01  0.00000000E+00
  0.00000000E+00  2.07466610E+00  0.00000000E+00  0.00000000E+00  0.00000000E+00
  2.51655680E-02  0.00000000E+00  0.00000000E+00  0.00000000E+00  0.00000000E+00
  4.68952839E-01  0.00000000E+00  0.00000000E+00  0.00000000E+00  0.00000000E+00
  0.00000000E+00  0.00000000E+00  0.00000000E+00  5.91902931E-02  0.00000000E+00
  0.00000000E+00  6.06245580E-01  0.00000000E+00  0.00000000E+00  2.45098039E+00
 -1.08501758E-01 -6.27366160E-01 -1.19717814E+00 -6.00565747E-01  0.00000000E+00
  0.00000000E+00  1.64100473E-02  0.00000000E+00  0.00000000E+00  2.19777996E-01
  0.00000000E+00  0.00000000E+00  1.38302271E+00  1.70787719E-01  0.00000000E+00
  0.00000000E+00 -2.60784367E-01  0.00000000E+00  1.06937722E+00  0.00000000E+00
  0.00000000E+00 -1.13560148E+00  0.00000000E+00  0.00000000E+00  0.00000000E+00
  0.00000000E+00  0.00000000E+00  0.00000000E+00  0.00000000E+00  5.91902931E-02
  0.00000000E+00  0.00000000E+00  6.06245580E-01  0.00000000E+00  0.00000000E+00
  2.45098039E+00  5.44996509E-02 -5.50938015E-02 -1.34616351E-01 -7.94483234E-02
  0.00000000E+00  0.00000000E+00  4.02643844E-02  0.00000000E+00  0.00000000E+00
 -1.67356575E-01  0.00000000E+00  0.00000000E+00 -1.70787719E-01 -5.31594241E-02
  0.00000000E+00  0.00000000E+00  3.53100461E-02  0.00000000E+00 -1.25352373E-01
  0.00000000E+00  0.00000000E+00 -8.30578411E-02  0.00000000E+00 -1.07745898E-01
 -2.49557776E-01 -1.94349589E-01 -8.64529820E-02  0.00000000E+00  0.00000000E+00
  0.00000000E+00  0.00000000E+00  0.00000000E+00  0.00000000E+00  0.00000000E+00
  0.00000000E+00  0.00000000E+00  3.94197414E-01  0.00000000E+00  0.00000000E+00
  0.00000000E+00  0.00000000E+00 -1.75201528E-01  0.00000000E+00  0.00000000E+00
 -3.03108279E-01  0.00000000E+00  0.00000000E+00 -7.54967041E-02  0.00000000E+00
  0.00000000E+00  0.00000000E+00 -3.09604031E-01  0.00000000E+00  0.00000000E+00
  0.00000000E+00  0.00000000E+00 -7.86536465E-02  0.00000000E+00  0.00000000E+00
  0.00000000E+00  0.00000000E+00  0.00000000E+00  0.00000000E+00  0.00000000E+00
  0.00000000E+00  0.00000000E+00  0.00000000E+00  0.00000000E+00  0.00000000E+00
  0.00000000E+00  0.00000000E+00  0.00000000E+00  0.00000000E+00  0.00000000E+00
  7.09555345E-01  0.00000000E+00  0.00000000E+00  0.00000000E+00  0.00000000E+00
  0.00000000E+00 -5.84005092E-02  0.00000000E+00  0.00000000E+00 -1.01036093E-01
  0.00000000E+00  0.00000000E+00 -2.51655680E-02  0.00000000E+00  0.00000000E+00
  0.00000000E+00 -1.03201344E-01  0.00000000E+00  0.00000000E+00  0.00000000E+00
  0.00000000E+00 -2.62178822E-02  0.00000000E+00  0.00000000E+00  0.00000000E+00
  0.00000000E+00  0.00000000E+00  0.00000000E+00  0.00000000E+00  0.00000000E+00
  0.00000000E+00  0.00000000E+00  0.00000000E+00  0.00000000E+00  0.00000000E+00
  0.00000000E+00  0.00000000E+00  0.00000000E+00  0.00000000E+00  2.36518448E-01
  3.02644390E-02  1.91529400E-01  2.47900275E-01  1.38140912E-01  0.00000000E+00
  0.00000000E+00  4.38730193E-02  0.00000000E+00  0.00000000E+00  2.75245232E-01
  0.00000000E+00  0.00000000E+00  2.60784367E-01  3.53100461E-02  0.00000000E+00
  0.00000000E+00  1.26127650E-01  0.00000000E+00  1.76522935E-01  0.00000000E+00
  0.00000000E+00  2.54744929E-01  0.00000000E+00  1.86621370E-01  4.32246747E-01
  3.36623363E-01  1.49740957E-01  0.00000000E+00  0.00000000E+00  0.00000000E+00
  0.00000000E+00  0.00000000E+00  0.00000000E+00  0.00000000E+00  0.00000000E+00
  0.00000000E+00 -2.73107980E-01  0.00000000E+00  0.00000000E+00  7.09555345E-01
  0.00000000E+00  0.00000000E+00  0.00000000E+00  0.00000000E+00  0.00000000E+00
  0.00000000E+00  0.00000000E+00  0.00000000E+00  0.00000000E+00  0.00000000E+00
  0.00000000E+00  0.00000000E+00  0.00000000E+00  0.00000000E+00  0.00000000E+00
  0.00000000E+00  0.00000000E+00  1.26127650E-01  0.00000000E+00  0.00000000E+00
  0.00000000E+00  0.00000000E+00  2.54744929E-01  0.00000000E+00  0.00000000E+00
  0.00000000E+00  0.00000000E+00  0.00000000E+00  0.00000000E+00  0.00000000E+00
  0.00000000E+00  0.00000000E+00  0.00000000E+00  0.00000000E+00  0.00000000E+00
  0.00000000E+00  0.00000000E+00  0.00000000E+00  0.00000000E+00  0.00000000E+00
  7.09555345E-01  1.13760072E-01  5.72075684E-02 -6.42115968E-01 -7.76877180E-01
  0.00000000E+00  0.00000000E+00 -4.61982263E-02  0.00000000E+00  0.00000000E+00
 -4.72129194E-01  0.00000000E+00  0.00000000E+00 -1.06937722E+00 -1.25352373E-01
  0.00000000E+00  0.00000000E+00  1.76522935E-01  0.00000000E+00  1.82059860E-01
  0.00000000E+00  0.00000000E+00 -4.65495156E-01  0.00000000E+00 -4.10760608E-02
 -4.28456575E-01 -1.01378802E+00 -8.50326284E-01  0.00000000E+00  0.00000000E+00
  0.00000000E+00  0.00000000E+00  0.00000000E+00  0.00000000E+00  0.00000000E+00
  0.00000000E+00  0.00000000E+00  2.72286101E-01  0.00000000E+00  0.00000000E+00
 -1.88645345E-01  0.00000000E+00  1.68690958E+00  0.00000000E+00  0.00000000E+00
  0.00000000E+00  0.00000000E+00 -2.99288077E-01  0.00000000E+00  0.00000000E+00
 -1.48677755E+00  0.00000000E+00  0.00000000E+00 -1.40685852E+00  0.00000000E+00
  0.00000000E+00  0.00000000E+00 -7.86536465E-02  0.00000000E+00  0.00000000E+00
  0.00000000E+00  0.00000000E+00  3.90806812E-01  0.00000000E+00  0.00000000E+00
  0.00000000E+00  0.00000000E+00  0.00000000E+00  0.00000000E+00  0.00000000E+00
  0.00000000E+00  0.00000000E+00  0.00000000E+00  0.00000000E+00  0.00000000E+00
  0.00000000E+00  0.00000000E+00  0.00000000E+00  0.00000000E+00  0.00000000E+00
  4.90114982E-01  0.00000000E+00  0.00000000E+00  0.00000000E+00  0.00000000E+00
  3.03643725E+00  0.00000000E+00  0.00000000E+00  0.00000000E+00  0.00000000E+00
  0.00000000E+00 -9.97626923E-02  0.00000000E+00  0.00000000E+00 -4.95592516E-01
  0.00000000E+00  0.00000000E+00 -4.68952839E-01  0.00000000E+00  0.00000000E+00
  0.00000000E+00 -2.62178822E-02  0.00000000E+00  0.00000000E+00  0.00000000E+00
  0.00000000E+00  1.30268937E-01  0.00000000E+00  0.00000000E+00  0.00000000E+00
  0.00000000E+00  0.00000000E+00  0.00000000E+00  0.00000000E+00  0.00000000E+00
  0.00000000E+00  0.00000000E+00  0.00000000E+00  0.00000000E+00  0.00000000E+00
  0.00000000E+00  0.00000000E+00  0.00000000E+00  0.00000000E+00  1.63371661E-01
  0.00000000E+00  0.00000000E+00  0.00000000E+00  0.00000000E+00  1.01214575E+00
  3.65482991E-02  4.68867336E-01  1.38529641E+00  1.36652533E+00  0.00000000E+00
  0.00000000E+00  1.75134222E-02  0.00000000E+00  0.00000000E+00  3.15493174E-01
  0.00000000E+00  0.00000000E+00  1.13560148E+00 -8.30578411E-02  0.00000000E+00
  0.00000000E+00  2.54744929E-01  0.00000000E+00 -4.65495156E-01  0.00000000E+00
  0.00000000E+00  2.02797697E+00  0.00000000E+00  7.11458243E-02  7.42108557E-01
  1.75593236E+00  1.47280833E+00  0.00000000E+00  0.00000000E+00  0.00000000E+00
  0.00000000E+00  0.00000000E+00  0.00000000E+00  0.00000000E+00  0.00000000E+00
  0.00000000E+00 -1.88645345E-01  0.00000000E+00  0.00000000E+00  4.90114982E-01
  0.00000000E+00 -1.16872524E+00  0.00000000E+00  0.00000000E+00  3.03643725E+00
  0.00000000E+00  0.00000000E+00  0.00000000E+00  0.00000000E+00  0.00000000E+00
  0.00000000E+00  0.00000000E+00  0.00000000E+00  0.00000000E+00  0.00000000E+00
  0.00000000E+00  0.00000000E+00  0.00000000E+00  0.00000000E+00  0.00000000E+00
  0.00000000E+00  0.00000000E+00  2.54744929E-01  0.00000000E+00  0.00000000E+00
  0.00000000E+00  0.00000000E+00  2.02797697E+00  0.00000000E+00  0.00000000E+00
  0.00000000E+00  0.00000000E+00  0.00000000E+00  0.00000000E+00  0.00000000E+00
  0.00000000E+00  0.00000000E+00  0.00000000E+00  0.00000000E+00  0.00000000E+00
  0.00000000E+00  0.00000000E+00  0.00000000E+00  0.00000000E+00  0.00000000E+00
  4.90114982E-01  0.00000000E+00  0.00000000E+00  0.00000000E+00  0.00000000E+00
  3.03643725E+00  8.03394379E-05  7.87986578E-03  4.05101196E-02  4.11574870E-02
  0.00000000E+00  0.00000000E+00  1.57433390E-04  0.00000000E+00  0.00000000E+00
  1.70180468E-02  0.00000000E+00  0.00000000E+00  8.64401981E-02  1.14261482E-03
  0.00000000E+00  0.00000000E+00  1.33030381E-04  0.00000000E+00  6.98418805E-02
  0.00000000E+00  0.00000000E+00  4.95597291E-03  0.00000000E+00  2.43807037E-02
  9.62360821E-02  1.02283118E-01  5.24508873E-02  0.00000000E+00  0.00000000E+00
  4.10211972E-02  0.00000000E+00  0.00000000E+00  1.49199146E-01  0.00000000E+00
  0.00000000E+00  1.08503291E-01  5.44974736E-02  0.00000000E+00  0.00000000E+00
  3.02604226E-02  0.00000000E+00  1.13764372E-01  0.00000000E+00  0.00000000E+00
  3.65465179E-02  0.00000000E+00  1.76393444E-01  7.87986578E-03  9.12106610E-02
  3.31635242E-01  3.89488020E-01  0.00000000E+00  0.00000000E+00  1.01178967E-02
  0.00000000E+00  0.00000000E+00  1.41381897E-01  0.00000000E+00  0.00000000E+00
  5.85807311E-01  9.68799115E-03  0.00000000E+00  0.00000000E+00  1.66607619E-02
  0.00000000E+00  2.62519125E-01  0.00000000E+00  0.00000000E+00  1.18241087E-01
  0.00000000E+00  9.62360821E-02  4.50551705E-01  7.13153339E-01  4.90142395E-01
  0.00000000E+00  0.00000000E+00  6.77030944E-02  0.00000000E+00  0.00000000E+00
  4.01346245E-01  0.00000000E+00  0.00000000E+00  6.27377457E-01 -5.50864606E-02
  0.00000000E+00  0.00000000E+00  1.91517993E-01  0.00000000E+00  5.72296388E-02
  0.00000000E+00  0.00000000E+00  4.68851583E-01  0.00000000E+00  2.21880681E-01
  7.67341928E-01  4.05101196E-02  3.31635242E-01  1.24395644E+00  2.12921476E+00
  0.00000000E+00  0.00000000E+00  1.97600499E-02  0.00000000E+00  0.00000000E+00
  2.43835808E-01  0.00000000E+00  0.00000000E+00  1.44966799E+00 -4.35669278E-02
  0.00000000E+00  0.00000000E+00  9.90047034E-02  0.00000000E+00 -8.29987503E-02
  0.00000000E+00  0.00000000E+00  6.80193425E-01  0.00000000E+00  1.02283118E-01
  7.13153339E-01  2.05814420E+00  2.59748477E+00  0.00000000E+00  0.00000000E+00
  2.52555211E-02  0.00000000E+00  0.00000000E+00  2.70323806E-01  0.00000000E+00
  0.00000000E+00  1.19720729E+00 -1.34612714E-01  0.00000000E+00  0.00000000E+00
  2.47894725E-01  0.00000000E+00 -6.42093291E-01  0.00000000E+00  0.00000000E+00
  1.38527238E+00  0.00000000E+00  1.39282807E-01  9.20511195E-01  2.43427459E+00
  4.11574870E-02  3.89488020E-01  2.12921476E+00  8.39061406E+00  0.00000000E+00
  0.00000000E+00  5.15706973E-03  0.00000000E+00  0.00000000E+00  8.10227464E-02
  0.00000000E+00  0.00000000E+00  9.84871691E-01 -6.16530313E-02  0.00000000E+00
  0.00000000E+00  1.08458186E-01  0.00000000E+00 -5.91565027E-01  0.00000000E+00
  0.00000000E+00  1.09150894E+00  0.00000000E+00  5.24508873E-02  4.90142395E-01
  2.59748477E+00  9.49681061E+00  0.00000000E+00  0.00000000E+00  3.28890929E-03
  0.00000000E+00  0.00000000E+00  5.11184892E-02  0.00000000E+00  0.00000000E+00
  6.00584811E-01 -7.94478322E-02  0.00000000E+00  0.00000000E+00  1.38140097E-01
  0.00000000E+00 -7.76872038E-01  0.00000000E+00  0.00000000E+00  1.36651784E+00
  0.00000000E+00  5.68664226E-02  5.29175765E-01  2.77544267E+00  9.89707047E+00
  0.00000000E+00  0.00000000E+00  0.00000000E+00  0.00000000E+00  5.39891611E-05
  0.00000000E+00  0.00000000E+00  9.63817451E-03  0.00000000E+00  0.00000000E+00
  5.12112227E-02  0.00000000E+00  0.00000000E+00  0.00000000E+00  9.42421687E-04
  0.00000000E+00  0.00000000E+00  0.00000000E+00  0.00000000E+00  7.62689228E-02
  0.00000000E+00  0.00000000E+00  0.00000000E+00  0.00000000E+00  0.00000000E+00
  0.00000000E+00  0.00000000E+00  5.34706527E-02  0.00000000E+00  0.00000000E+00
  1.90159864E-01  0.00000000E+00  0.00000000E+00  1.30126323E-01  0.00000000E+00
  0.00000000E+00  0.00000000E+00  1.75182649E-01  0.00000000E+00  0.00000000E+00
  0.00000000E+00  0.00000000E+00  2.99283987E-01  0.00000000E+00  0.00000000E+00
  0.00000000E+00  0.00000000E+00  0.00000000E+00  0.00000000E+00  0.00000000E+00
  5.33049041E-01  0.00000000E+00  0.00000000E+00  0.00000000E+00  0.00000000E+00
  0.00000000E+00  1.79963870E-05  0.00000000E+00  0.00000000E+00  3.21272484E-03
  0.00000000E+00  0.00000000E+00  1.70704076E-02  0.00000000E+00  0.00000000E+00
  0.00000000E+00  3.14140562E-04  0.00000000E+00  0.00000000E+00  0.00000000E+00
  0.00000000E+00  2.54229743E-02  0.00000000E+00  0.00000000E+00  0.00000000E+00
  0.00000000E+00  0.00000000E+00  0.00000000E+00  0.00000000E+00  1.78235509E-02
  0.00000000E+00  0.00000000E+00  6.33866214E-02  0.00000000E+00  0.00000000E+00
  4.33754408E-02  0.00000000E+00  0.00000000E+00  0.00000000E+00  5.83942163E-02
  0.00000000E+00  0.00000000E+00  0.00000000E+00  0.00000000E+00  9.97613291E-02
  0.00000000E+00  0.00000000E+00  0.00000000E+00  0.00000000E+00  0.00000000E+00
  0.00000000E+00  0.00000000E+00  1.77683014E-01 -1.57433390E-04 -1.01178967E-02
 -1.97600499E-02 -5.15706973E-03  0.00000000E+00  0.00000000E+00 -3.13050226E-04
  0.00000000E+00  0.00000000E+00 -2.23363174E-02  0.00000000E+00  0.00000000E+00
 -2.53806626E-02 -2.36341700E-03  0.00000000E+00  0.00000000E+00 -2.35996144E-04
  0.00000000E+00 -4.87092958E-02  0.00000000E+00  0.00000000E+00 -4.46302391E-03
  0.00000000E+00 -4.10211972E-02 -6.77030944E-02 -2.52555211E-02 -3.28890929E-03
  0.00000000E+00  0.00000000E+00 -6.41462636E-02  0.00000000E+00  0.00000000E+00
 -6.26377656E-02  0.00000000E+00  0.00000000E+00  1.64077009E-02 -4.02697786E-02
  0.00000000E+00  0.00000000E+00 -4.38682918E-02  0.00000000E+00  4.61918067E-02
  0.00000000E+00  0.00000000E+00 -1.75131829E-02  0.00000000E+00  0.00000000E+00
  0.00000000E+00  0.00000000E+00  0.00000000E+00  0.00000000E+00  0.00000000E+00
  1.77683014E-01  0.00000000E+00  0.00000000E+00  0.00000000E+00  0.00000000E+00
  9.63817451E-03  0.00000000E+00  0.00000000E+00  1.53003357E-01  0.00000000E+00
  0.00000000E+00  6.32665670E-01  0.00000000E+00  0.00000000E+00  0.00000000E+00
  3.74963314E-02  0.00000000E+00  0.00000000E+00  0.00000000E+00  0.00000000E+00
  6.76975891E-01  0.00000000E+00  0.00000000E+00  0.00000000E+00  0.00000000E+00
  0.00000000E+00  0.00000000E+00  0.00000000E+00  1.90159864E-01  0.00000000E+00
  0.00000000E+00  1.02526780E+00  0.00000000E+00  0.00000000E+00  1.39674380E+00
  0.00000000E+00  0.00000000E+00  0.00000000E+00  3.03098794E-01  0.00000000E+00
  0.00000000E+00  0.00000000E+00  0.00000000E+00  1.48677828E+00  0.00000000E+00
  0.00000000E+00  0.00000000E+00  0.00000000E+00  0.00000000E+00  0.00000000E+00
  0.00000000E+00  5.13863703E-01  0.00000000E+00  0.00000000E+00  1.93298969E+00
  0.00000000E+00  0.00000000E+00  0.00000000E+00  0.00000000E+00  0.00000000E+00
  3.21272484E-03  0.00000000E+00  0.00000000E+00  5.10011191E-02  0.00000000E+00
  0.00000000E+00  2.10888557E-01  0.00000000E+00  0.00000000E+00  0.00000000E+00
  1.24987771E-02  0.00000000E+00  0.00000000E+00  0.00000000E+00  0.00000000E+00
  2.25658630E-01  0.00000000E+00  0.00000000E+00  0.00000000E+00  0.00000000E+00
  0.00000000E+00  0.00000000E+00  0.00000000E+00  6.33866214E-02  0.00000000E+00
  0.00000000E+00  3.41755934E-01  0.00000000E+00  0.00000000E+00  4.65581267E-01
  0.00000000E+00  0.00000000E+00  0.00000000E+00  1.01032931E-01  0.00000000E+00
  0.00000000E+00  0.00000000E+00  0.00000000E+00  4.95592759E-01  0.00000000E+00
  0.00000000E+00  0.00000000E+00  0.00000000E+00  0.00000000E+00  0.00000000E+00
  0.00000000E+00  1.71287901E-01  0.00000000E+00  0.00000000E+00  6.44329897E-01
 -1.70180468E-02 -1.41381897E-01 -2.43835808E-01 -8.10227464E-02  0.00000000E+00
  0.00000000E+00 -2.23363174E-02  0.00000000E+00  0.00000000E+00 -2.07713613E-01
  0.00000000E+00  0.00000000E+00 -2.34489232E-01 -1.94623725E-02  0.00000000E+00
  0.00000000E+00 -3.40495037E-02  0.00000000E+00 -1.70638737E-01  0.00000000E+00
  0.00000000E+00 -1.43653819E-01  0.00000000E+00 -1.49199146E-01 -4.01346245E-01
 -2.70323806E-01 -5.11184892E-02  0.00000000E+00  0.00000000E+00 -6.26377656E-02
  0.00000000E+00  0.00000000E+00 -9.16685230E-02  0.00000000E+00  0.00000000E+00
  2.19755765E-01  1.67343420E-01  0.00000000E+00  0.00000000E+00 -2.75236620E-01
  0.00000000E+00  4.72108771E-01  0.00000000E+00  0.00000000E+00 -3.15493329E-01
  0.00000000E+00  0.00000000E+00  0.00000000E+00  0.00000000E+00  0.00000000E+00
  0.00000000E+00  0.00000000E+00  1.71287901E-01  0.00000000E+00  0.00000000E+00
  6.44329897E-01  0.00000000E+00  0.00000000E+00  0.00000000E+00  0.00000000E+00
  5.12112227E-02  0.00000000E+00  0.00000000E+00  6.32665670E-01  0.00000000E+00
  0.00000000E+00  3.77471348E+00  0.00000000E+00  0.00000000E+00  0.00000000E+00
  6.06488579E-02  0.00000000E+00  0.00000000E+00  0.00000000E+00  0.00000000E+00
  1.38633516E+00  0.00000000E+00  0.00000000E+00  0.00000000E+00  0.00000000E+00
  0.00000000E+00  0.00000000E+00  0.00000000E+00  1.30126323E-01  0.00000000E+00
  0.00000000E+00  1.39674380E+00  0.00000000E+00  0.00000000E+00  6.22392238E+00
  0.00000000E+00  0.00000000E+00  0.00000000E+00  7.54977866E-02  0.00000000E+00
  0.00000000E+00  0.00000000E+00  0.00000000E+00  1.40688570E+00  0.00000000E+00
  0.00000000E+00  0.00000000E+00  0.00000000E+00  0.00000000E+00  0.00000000E+00
  0.00000000E+00  1.77570879E-01  0.00000000E+00  0.00000000E+00  1.81873674E+00
  0.00000000E+00  0.00000000E+00  7.35294118E+00  0.00000000E+00  0.00000000E+00
  0.00000000E+00  0.00000000E+00  0.00000000E+00  1.70704076E-02  0.00000000E+00
  0.00000000E+00  2.10888557E-01  0.00000000E+00  0.00000000E+00  1.25823783E+00
  0.00000000E+00  0.00000000E+00  0.00000000E+00  2.02162860E-02  0.00000000E+00
  0.00000000E+00  0.00000000E+00  0.00000000E+00  4.62111720E-01  0.00000000E+00
  0.00000000E+00  0.00000000E+00  0.00000000E+00  0.00000000E+00  0.00000000E+00
  0.00000000E+00  4.33754408E-02  0.00000000E+00  0.00000000E+00  4.65581267E-01
  0.00000000E+00  0.00000000E+00  2.07464079E+00  0.00000000E+00  0.00000000E+00
  0.00000000E+00  2.51659289E-02  0.00000000E+00  0.00000000E+00  0.00000000E+00
  0.00000000E+00  4.68961899E-01  0.00000000E+00  0.00000000E+00  0.00000000E+00
  0.00000000E+00  0.00000000E+00  0.00000000E+00  0.00000000E+00  5.91902931E-02
  0.00000000E+00  0.00000000E+00  6.06245580E-01  0.00000000E+00  0.00000000E+00
  2.45098039E+00 -8.64401981E-02 -5.85807311E-01 -1.44966799E+00 -9.84871691E-01
  0.00000000E+00  0.00000000E+00 -2.53806626E-02  0.00000000E+00  0.00000000E+00
 -2.34489232E-01  0.00000000E+00  0.00000000E+00 -4.19687527E-01  1.15906010E-01
  0.00000000E+00  0.00000000E+00 -2.09496218E-01  0.00000000E+00  6.76061972E-01
  0.00000000E+00  0.00000000E+00 -1.11903524E+00  0.00000000E+00 -1.08503291E-01
 -6.27377457E-01 -1.19720729E+00 -6.00584811E-01  0.00000000E+00  0.00000000E+00
  1.64077009E-02  0.00000000E+00  0.00000000E+00  2.19755765E-01  0.00000000E+00
  0.00000000E+00  1.38295523E+00  1.70789521E-01  0.00000000E+00  0.00000000E+00
 -2.60788106E-01  0.00000000E+00  1.06938853E+00  0.00000000E+00  0.00000000E+00
 -1.13562342E+00  0.00000000E+00  0.00000000E+00  0.00000000E+00  0.00000000E+00
  0.00000000E+00  0.00000000E+00  0.00000000E+00  5.91902931E-02  0.00000000E+00
  0.00000000E+00  6.06245580E-01  0.00000000E+00  0.00000000E+00  2.45098039E+00
  1.14261482E-03  9.68799115E-03 -4.35669278E-02 -6.16530313E-02  0.00000000E+00
  0.00000000E+00  2.36341700E-03  0.00000000E+00  0.00000000E+00  1.94623725E-02
  0.00000000E+00  0.00000000E+00 -1.15906010E-01  8.89661917E-03  0.00000000E+00
  0.00000000E+00  1.61094577E-03  0.00000000E+00 -4.83260093E-02  0.00000000E+00
  0.00000000E+00 -5.34591145E-03  0.00000000E+00  5.44974736E-02 -5.50864606E-02
 -1.34612714E-01 -7.94478322E-02  0.00000000E+00  0.00000000E+00  4.02697786E-02
  0.00000000E+00  0.00000000E+00 -1.67343420E-01  0.00000000E+00  0.00000000E+00
 -1.70789521E-01 -5.31494836E-02  0.00000000E+00  0.00000000E+00  3.53117186E-02
  0.00000000E+00 -1.25362350E-01  0.00000000E+00  0.00000000E+00 -8.30527673E-02
  0.00000000E+00 -1.07745898E-01 -2.49557776E-01 -1.94349589E-01 -8.64529820E-02
  0.00000000E+00  0.00000000E+00  0.00000000E+00  0.00000000E+00  0.00000000E+00
  0.00000000E+00  0.00000000E+00  0.00000000E+00  0.00000000E+00  3.94197414E-01
  0.00000000E+00  0.00000000E+00  0.00000000E+00  0.00000000E+00 -9.42421687E-04
  0.00000000E+00  0.00000000E+00 -3.74963314E-02  0.00000000E+00  0.00000000E+00
 -6.06488579E-02  0.00000000E+00  0.00000000E+00  0.00000000E+00 -9.07894695E-03
  0.00000000E+00  0.00000000E+00  0.00000000E+00  0.00000000E+00 -1.51482188E-01
  0.00000000E+00  0.00000000E+00  0.00000000E+00  0.00000000E+00  0.00000000E+00
  0.00000000E+00  0.00000000E+00 -1.75182649E-01  0.00000000E+00  0.00000000E+00
 -3.03098794E-01  0.00000000E+00  0.00000000E+00 -7.54977866E-02  0.00000000E+00
  0.00000000E+00  0.00000000E+00 -3.09596781E-01  0.00000000E+00  0.00000000E+00
  0.00000000E+00  0.00000000E+00 -7.86742744E-02  0.00000000E+00  0.00000000E+00
  0.00000000E+00  0.00000000E+00  0.00000000E+00  0.00000000E+00  0.00000000E+00
  0.00000000E+00  0.00000000E+00  0.00000000E+00  0.00000000E+00  0.00000000E+00
  0.00000000E+00  0.00000000E+00  0.00000000E+00  0.00000000E+00  0.00000000E+00
  7.09555345E-01  0.00000000E+00  0.00000000E+00  0.00000000E+00  0.00000000E+00
  0.00000000E+00 -3.14140562E-04  0.00000000E+00  0.00000000E+00 -1.24987771E-02
  0.00000000E+00  0.00000000E+00 -2.02162860E-02  0.00000000E+00  0.00000000E+00
  0.00000000E+00 -3.02631565E-03  0.00000000E+00  0.00000000E+00  0.00000000E+00
  0.00000000E+00 -5.04940626E-02  0.00000000E+00  0.00000000E+00  0.00000000E+00
  0.00000000E+00  0.00000000E+00  0.00000000E+00  0.00000000E+00 -5.83942163E-02
  0.00000000E+00  0.00000000E+00 -1.01032931E-01  0.00000000E+00  0.00000000E+00
 -2.51659289E-02  0.00000000E+00  0.00000000E+00  0.00000000E+00 -1.03198927E-01
  0.00000000E+00  0.00000000E+00  0.00000000E+00  0.00000000E+00 -2.62247581E-02
  0.00000000E+00  0.00000000E+00  0.00000000E+00  0.00000000E+00  0.00000000E+00
  0.00000000E+00  0.00000000E+00  0.00000000E+00  0.00000000E+00  0.00000000E+00
  0.00000000E+00  0.00000000E+00  0.00000000E+00  0.00000000E+00  0.00000000E+00
  0.00000000E+00  0.00000000E+00  2.36518448E-01  1.33030381E-04  1.66607619E-02
  9.90047034E-02  1.08458186E-01  0.00000000E+00  0.00000000E+00  2.35996144E-04
  0.00000000E+00  0.00000000E+00  3.40495037E-02  0.00000000E+00  0.00000000E+00
  2.09496218E-01  1.61094577E-03  0.00000000E+00  0.00000000E+00  7.08227199E-04
  0.00000000E+00  1.40444688E-01  0.00000000E+00  0.00000000E+00  3.57673417E-02
  0.00000000E+00  3.02604226E-02  1.91517993E-01  2.47894725E-01  1.38140097E-01
  0.00000000E+00  0.00000000E+00  4.38682918E-02  0.00000000E+00  0.00000000E+00
  2.75236620E-01  0.00000000E+00  0.00000000E+00  2.60788106E-01  3.53117186E-02
  0.00000000E+00  0.00000000E+00  1.26111709E-01  0.00000000E+00  1.76534573E-01
  0.00000000E+00  0.00000000E+00  2.54732731E-01  0.00000000E+00  1.86621370E-01
  4.32246747E-01  3.36623363E-01  1.49740957E-01  0.00000000E+00  0.00000000E+00
  0.00000000E+00  0.00000000E+00  0.00000000E+00  0.00000000E+00  0.00000000E+00
  0.00000000E+00  0.00000000E+00 -2.73107980E-01  0.00000000E+00  0.00000000E+00
  7.09555345E-01  0.00000000E+00  0.00000000E+00  0.00000000E+00  0.00000000E+00
  0.00000000E+00  0.00000000E+00  0.00000000E+00  0.00000000E+00  0.00000000E+00
  0.00000000E+00  0.00000000E+00  0.00000000E+00  0.00000000E+00  0.00000000E+00
  0.00000000E+00  0.00000000E+00  0.00000000E+00  7.08227199E-04  0.00000000E+00
  0.00000000E+00  0.00000000E+00  0.00000000E+00  3.57673417E-02  0.00000000E+00
  0.00000000E+00  0.00000000E+00  0.00000000E+00  0.00000000E+00  0.00000000E+00
  0.00000000E+00  0.00000000E+00  0.00000000E+00  0.00000000E+00  0.00000000E+00
  0.00000000E+00  0.00000000E+00  0.00000000E+00  0.00000000E+00  0.00000000E+00
  0.00000000E+00  1.26111709E-01  0.00000000E+00  0.00000000E+00  0.00000000E+00
  0.00000000E+00  2.54732731E-01  0.00000000E+00  0.00000000E+00  0.00000000E+00
  0.00000000E+00  0.00000000E+00  0.00000000E+00  0.00000000E+00  0.00000000E+00
  0.00000000E+00  0.00000000E+00  0.00000000E+00  0.00000000E+00  0.00000000E+00
  0.00000000E+00  0.00000000E+00  0.00000000E+00  0.00000000E+00  7.09555345E-01
  6.98418805E-02  2.62519125E-01 -8.29987503E-02 -5.91565027E-01  0.00000000E+00
  0.00000000E+00  4.87092958E-02  0.00000000E+00  0.00000000E+00  1.70638737E-01
  0.00000000E+00  0.00000000E+00 -6.76061972E-01 -4.83260093E-02  0.00000000E+00
  0.00000000E+00  1.40444688E-01  0.00000000E+00 -2.64975137E-01  0.00000000E+00
  0.00000000E+00  1.42923944E-01  0.00000000E+00  1.13764372E-01  5.72296388E-02
 -6.42093291E-01 -7.76872038E-01  0.00000000E+00  0.00000000E+00 -4.61918067E-02
  0.00000000E+00  0.00000000E+00 -4.72108771E-01  0.00000000E+00  0.00000000E+00
 -1.06938853E+00 -1.25362350E-01  0.00000000E+00  0.00000000E+00  1.76534573E-01
  0.00000000E+00  1.81996114E-01  0.00000000E+00  0.00000000E+00 -4.65458354E-01
  0.00000000E+00 -4.10760608E-02 -4.28456575E-01 -1.01378802E+00 -8.50326284E-01
  0.00000000E+00  0.00000000E+00  0.00000000E+00  0.00000000E+00  0.00000000E+00
  0.00000000E+00  0.00000000E+00  0.00000000E+00  0.00000000E+00  2.72286101E-01
  0.00000000E+00  0.00000000E+00 -1.88645345E-01  0.00000000E+00  1.68690958E+00
  0.00000000E+00  0.00000000E+00  0.00000000E+00  0.00000000E+00 -7.62689228E-02
  0.00000000E+00  0.00000000E+00 -6.76975891E-01  0.00000000E+00  0.00000000E+00
 -1.38633516E+00  0.00000000E+00  0.00000000E+00  0.00000000E+00 -1.51482188E-01
  0.00000000E+00  0.00000000E+00  0.00000000E+00  0.00000000E+00 -1.34678889E+00
  0.00000000E+00  0.00000000E+00  0.00000000E+00  0.00000000E+00  0.00000000E+00
  0.00000000E+00  0.00000000E+00 -2.99283987E-01  0.00000000E+00  0.00000000E+00
 -1.48677828E+00  0.00000000E+00  0.00000000E+00 -1.40688570E+00  0.00000000E+00
  0.00000000E+00  0.00000000E+00 -7.86742744E-02  0.00000000E+00  0.00000000E+00
  0.00000000E+00  0.00000000E+00  3.90675481E-01  0.00000000E+00  0.00000000E+00
  0.00000000E+00  0.00000000E+00  0.00000000E+00  0.00000000E+00  0.00000000E+00
  0.00000000E+00  0.00000000E+00  0.00000000E+00  0.00000000E+00  0.00000000E+00
  0.00000000E+00  0.00000000E+00  0.00000000E+00  0.00000000E+00  0.00000000E+00
  4.90114982E-01  0.00000000E+00  0.00000000E+00  0.00000000E+00  0.00000000E+00
  3.03643725E+00  0.00000000E+00  0.00000000E+00  0.00000000E+00  0.00000000E+00
  0.00000000E+00 -2.54229743E-02  0.00000000E+00  0.00000000E+00 -2.25658630E-01
  0.00000000E+00  0.00000000E+00 -4.62111720E-01  0.00000000E+00  0.00000000E+00
  0.00000000E+00 -5.04940626E-02  0.00000000E+00  0.00000000E+00  0.00000000E+00
  0.00000000E+00 -4.48929630E-01  0.00000000E+00  0.00000000E+00  0.00000000E+00
  0.00000000E+00  0.00000000E+00  0.00000000E+00  0.00000000E+00 -9.97613291E-02
  0.00000000E+00  0.00000000E+00 -4.95592759E-01  0.00000000E+00  0.00000000E+00
 -4.68961899E-01  0.00000000E+00  0.00000000E+00  0.00000000E+00 -2.62247581E-02
  0.00000000E+00  0.00000000E+00  0.00000000E+00  0.00000000E+00  1.30225160E-01
  0.00000000E+00  0.00000000E+00  0.00000000E+00  0.00000000E+00  0.00000000E+00
  0.00000000E+00  0.00000000E+00  0.00000000E+00  0.00000000E+00  0.00000000E+00
  0.00000000E+00  0.00000000E+00  0.00000000E+00  0.00000000E+00  0.00000000E+00
  0.00000000E+00  0.00000000E+00  1.63371661E-01  0.00000000E+00  0.00000000E+00
  0.00000000E+00  0.00000000E+00  1.01214575E+00  4.95597291E-03  1.18241087E-01
  6.80193425E-01  1.09150894E+00  0.00000000E+00  0.00000000E+00  4.46302391E-03
  0.00000000E+00  0.00000000E+00  1.43653819E-01  0.00000000E+00  0.00000000E+00
  1.11903524E+00 -5.34591145E-03  0.00000000E+00  0.00000000E+00  3.57673417E-02
  0.00000000E+00  1.42923944E-01  0.00000000E+00  0.00000000E+00  6.04134294E-01
  0.00000000E+00  3.65465179E-02  4.68851583E-01  1.38527238E+00  1.36651784E+00
  0.00000000E+00  0.00000000E+00  1.75131829E-02  0.00000000E+00  0.00000000E+00
  3.15493329E-01  0.00000000E+00  0.00000000E+00  1.13562342E+00 -8.30527673E-02
  0.00000000E+00  0.00000000E+00  2.54732731E-01  0.00000000E+00 -4.65458354E-01
  0.00000000E+00  0.00000000E+00  2.02791707E+00  0.00000000E+00  7.11458243E-02
  7.42108557E-01  1.75593236E+00  1.47280833E+00  0.00000000E+00  0.00000000E+00
  0.00000000E+00  0.00000000E+00  0.00000000E+00  0.00000000E+00  0.00000000E+00
  0.00000000E+00  0.00000000E+00 -1.88645345E-01  0.00000000E+00  0.00000000E+00
  4.90114982E-01  0.00000000E+00 -1.16872524E+00  0.00000000E+00  0.00000000E+00
  3.03643725E+00  0.00000000E+00  0.00000000E+00  0.00000000E+00  0.00000000E+00
  0.00000000E+00  0.00000000E+00  0.00000000E+00  0.00000000E+00  0.00000000E+00
  0.00000000E+00  0.00000000E+00  0.00000000E+00  0.00000000E+00  0.00000000E+00
  0.00000000E+00  0.00000000E+00  0.00000000E+00  3.57673417E-02  0.00000000E+00
  0.00000000E+00  0.00000000E+00  0.00000000E+00  6.04134294E-01  0.00000000E+00
  0.00000000E+00  0.00000000E+00  0.00000000E+00  0.00000000E+00  0.00000000E+00
  0.00000000E+00  0.00000000E+00  0.00000000E+00  0.00000000E+00  0.00000000E+00
  0.00000000E+00  0.00000000E+00  0.00000000E+00  0.00000000E+00  0.00000000E+00
  0.00000000E+00  2.54732731E-01  0.00000000E+00  0.00000000E+00  0.00000000E+00
  0.00000000E+00  2.02791707E+00  0.00000000E+00  0.00000000E+00  0.00000000E+00
  0.00000000E+00  0.00000000E+00  0.00000000E+00  0.00000000E+00  0.00000000E+00
  0.00000000E+00  0.00000000E+00  0.00000000E+00  0.00000000E+00  0.00000000E+00
  0.00000000E+00  0.00000000E+00  0.00000000E+00  0.00000000E+00  4.90114982E-01
  0.00000000E+00  0.00000000E+00  0.00000000E+00  0.00000000E+00  3.03643725E+00
Multipole Matrix (1,1,0)                   R   N=        2415
  0.00000000E+00  0.00000000E+00  0.00000000E+00  0.00000000E+00  0.00000000E+00
  0.00000000E+00  0.00000000E+00  0.00000000E+00  0.00000000E+00  0.00000000E+00
  0.00000000E+00  0.00000000E+00  0.00000000E+00  0.00000000E+00  0.00000000E+00
  0.00000000E+00  0.00000000E+00  0.00000000E+00  0.00000000E+00  1.77683014E-01
  0.00000000E+00  0.00000000E+00  0.00000000E+00  0.00000000E+00  0.00000000E+00
  0.00000000E+00  0.00000000E+00  0.00000000E+00  0.00000000E+00  0.00000000E+00
  0.00000000E+00  0.00000000E+00  0.00000000E+00  1.71287901E-01  0.00000000E+00
  0.00000000E+00  0.00000000E+00  0.00000000E+00  0.00000000E+00  0.00000000E+00
  1.71287901E-01  0.00000000E+00  0.00000000E+00  6.44329897E-01  0.00000000E+00
  0.00000000E+00  0.00000000E+00  0.00000000E+00  0.00000000E+00  0.00000000E+00
  0.00000000E+00  0.00000000E+00  0.00000000E+00  0.00000000E+00  0.00000000E+00
  0.00000000E+00  0.00000000E+00  0.00000000E+00  0.00000000E+00  0.00000000E+00
  5.91902931E-02  0.00000000E+00  0.00000000E+00  6.06245580E-01  0.00000000E+00
  0.00000000E+00  0.00000000E+00  0.00000000E+00  0.00000000E+00  0.00000000E+00
  5.91902931E-02  0.00000000E+00  0.00000000E+00  6.06245580E-01  0.00000000E+00
  0.00000000E+00  2.45098039E+00  0.00000000E+00  0.00000000E+00  0.00000000E+00
  0.00000000E+00  0.00000000E+00  0.00000000E+00  0.00000000E+00  0.00000000E+00
  0.00000000E+00  0.00000000E+00  0.00000000E+00  0.00000000E+00  0.00000000E+00
  0.00000000E+00  0.00000000E+00  0.00000000E+00  0.00000000E+00  0.00000000E+00
  0.00000000E+00  0.00000000E+00  0.00000000E+00  0.00000000E+00  0.00000000E+00
  0.00000000E+00  0.00000000E+00  0.00000000E+00  0.00000000E+00  0.00000000E+00
  0.00000000E+00  0.00000000E+00  0.00000000E+00  0.00000000E+00  0.00000000E+00
  0.00000000E+00  0.00000000E+00  0.00000000E+00  0.00000000E+00  0.00000000E+00
  0.00000000E+00  0.00000000E+00  0.00000000E+00  0.00000000E+00  0.00000000E+00
  0.00000000E+00  0.00000000E+00  0.00000000E+00  0.00000000E+00  0.00000000E+00
  0.00000000E+00  0.00000000E+00  0.00000000E+00  0.00000000E+00  0.00000000E+00
  0.00000000E+00  0.00000000E+00  0.00000000E+00  0.00000000E+00  2.36518448E-01
  0.00000000E+00  0.00000000E+00  0.00000000E+00  0.00000000E+00  0.00000000E+00
  0.00000000E+00  0.00000000E+00  0.00000000E+00  0.00000000E+00  0.00000000E+00
  0.00000000E+00  0.00000000E+00  0.00000000E+00  0.00000000E+00  0.00000000E+00
  0.00000000E+00  0.00000000E+00  0.00000000E+00  1.86621370E-01  4.32246747E-01
  3.36623363E-01  1.49740957E-01  0.00000000E+00  0.00000000E+00  0.00000000E+00
  0.00000000E+00  0.00000000E+00  0.00000000E+00  0.00000000E+00  0.00000000E+00
  0.00000000E+00 -2.73107980E-01  0.00000000E+00  0.00000000E+00 -1.36344984E-17
  0.00000000E+00  0.00000000E+00  0.00000000E+00  0.00000000E+00  0.00000000E+00
  0.00000000E+00  0.00000000E+00  0.00000000E+00  0.00000000E+00  0.00000000E+00
  0.00000000E+00  0.00000000E+00  0.00000000E+00  0.00000000E+00  0.00000000E+00
  0.00000000E+00  0.00000000E+00  0.00000000E+00 -1.88645345E-01  0.00000000E+00
  0.00000000E+00  0.00000000E+00  0.00000000E+00  0.00000000E+00  0.00000000E+00
  0.00000000E+00  0.00000000E+00  0.00000000E+00  0.00000000E+00  0.00000000E+00
  0.00000000E+00  0.00000000E+00  0.00000000E+00  0.00000000E+00  0.00000000E+00
  1.63371661E-01  0.00000000E+00  0.00000000E+00  0.00000000E+00  0.00000000E+00
  0.00000000E+00  0.00000000E+00  0.00000000E+00  0.00000000E+00  0.00000000E+00
  0.00000000E+00  0.00000000E+00  0.00000000E+00  0.00000000E+00  0.00000000E+00
  0.00000000E+00  0.00000000E+00  0.00000000E+00  0.00000000E+00  1.63371661E-01
  0.00000000E+00  0.00000000E+00  0.00000000E+00  0.00000000E+00  1.01214575E+00
  0.00000000E+00  0.00000000E+00  0.00000000E+00  0.00000000E+00  0.00000000E+00
  0.00000000E+00  0.00000000E+00  0.00000000E+00  0.00000000E+00  0.00000000E+00
  0.00000000E+00  0.00000000E+00  0.00000000E+00  0.00000000E+00  0.00000000E+00
  0.00000000E+00  0.00000000E+00  0.00000000E+00 -7.53121970E-18  0.00000000E+00
  0.00000000E+00  0.00000000E+00  0.00000000E+00  7.11458243E-02  7.42108557E-01
  1.75593236E+00  1.47280833E+00  0.00000000E+00  0.00000000E+00  0.00000000E+00
  0.00000000E+00  0.00000000E+00  0.00000000E+00  0.00000000E+00  0.00000000E+00
  0.00000000E+00 -1.88645345E-01  0.00000000E+00  0.00000000E+00 -7.53121970E-18
  0.00000000E+00 -1.16872524E+00  0.00000000E+00  0.00000000E+00 -1.53212036E-17
  0.00000000E+00  0.00000000E+00  0.00000000E+00  0.00000000E+00  0.00000000E+00
  0.00000000E+00  0.00000000E+00  0.00000000E+00  0.00000000E+00  0.00000000E+00
  0.00000000E+00  0.00000000E+00  0.00000000E+00  0.00000000E+00  0.00000000E+00
  0.00000000E+00  0.00000000E+00  0.00000000E+00  3.02644390E-02  0.00000000E+00
  0.00000000E+00  0.00000000E+00  0.00000000E+00  3.65482991E-02  0.00000000E+00
  0.00000000E+00  0.00000000E+00  0.00000000E+00  0.00000000E+00  0.00000000E+00
  0.00000000E+00  0.00000000E+00  0.00000000E+00  0.00000000E+00  0.00000000E+00
  0.00000000E+00  0.00000000E+00  0.00000000E+00  0.00000000E+00  0.00000000E+00
  0.00000000E+00  0.00000000E+00  1.91529400E-01  0.00000000E+00  0.00000000E+00
  0.00000000E+00  0.00000000E+00  4.68867336E-01  0.00000000E+00  0.00000000E+00
  0.00000000E+00  0.00000000E+00  0.00000000E+00  0.00000000E+00  0.00000000E+00
  0.00000000E+00  0.00000000E+00  0.00000000E+00  0.00000000E+00  0.00000000E+00
  0.00000000E+00  0.00000000E+00  0.00000000E+00  0.00000000E+00  0.00000000E+00
  0.00000000E+00  0.00000000E+00  2.47900275E-01  0.00000000E+00  0.00000000E+00
  0.00000000E+00  0.00000000E+00  1.38529641E+00  0.00000000E+00  0.00000000E+00
  0.00000000E+00  0.00000000E+00  0.00000000E+00  0.00000000E+00  0.00000000E+00
  0.00000000E+00  0.00000000E+00  0.00000000E+00  0.00000000E+00  0.00000000E+00
  0.00000000E+00  0.00000000E+00  0.00000000E+00  0.00000000E+00  0.00000000E+00
  0.00000000E+00  0.00000000E+00  0.00000000E+00  1.38140912E-01  0.00000000E+00
  0.00000000E+00  0.00000000E+00  0.00000000E+00  1.36652533E+00  0.00000000E+00
  0.00000000E+00  0.00000000E+00  0.00000000E+00  0.00000000E+00  0.00000000E+00
  0.00000000E+00  0.00000000E+00  0.00000000E+00  1.78265498E-02  0.00000000E+00
  0.00000000E+00  6.33912319E-02  0.00000000E+00  0.00000000E+00  4.33764274E-02
  0.00000000E+00  0.00000000E+00  0.00000000E+00  5.84005092E-02  0.00000000E+00
  0.00000000E+00  0.00000000E+00  0.00000000E+00  9.97626923E-02  0.00000000E+00
  0.00000000E+00  0.00000000E+00  0.00000000E+00  0.00000000E+00  0.00000000E+00
  0.00000000E+00  0.00000000E+00  0.00000000E+00  0.00000000E+00  0.00000000E+00
  1.78265498E-02  0.00000000E+00  0.00000000E+00  6.33912319E-02  0.00000000E+00
  0.00000000E+00  4.33764274E-02  0.00000000E+00  0.00000000E+00  0.00000000E+00
  5.84005092E-02  0.00000000E+00  0.00000000E+00  0.00000000E+00  0.00000000E+00
  9.97626923E-02  0.00000000E+00  0.00000000E+00  0.00000000E+00  0.00000000E+00
  0.00000000E+00  0.00000000E+00  0.00000000E+00  1.77683014E-01  0.00000000E+00
  0.00000000E+00  0.00000000E+00  0.00000000E+00  0.00000000E+00  0.00000000E+00
  0.00000000E+00  0.00000000E+00  0.00000000E+00  0.00000000E+00  0.00000000E+00
  0.00000000E+00  0.00000000E+00  0.00000000E+00  0.00000000E+00  0.00000000E+00
  0.00000000E+00  0.00000000E+00 -4.38730193E-02  0.00000000E+00  0.00000000E+00
  0.00000000E+00  0.00000000E+00 -1.75134222E-02  0.00000000E+00  0.00000000E+00
  0.00000000E+00  0.00000000E+00  0.00000000E+00  0.00000000E+00  0.00000000E+00
  0.00000000E+00  0.00000000E+00  0.00000000E+00  0.00000000E+00  0.00000000E+00
  6.33912319E-02  0.00000000E+00  0.00000000E+00  3.41771790E-01  0.00000000E+00
  0.00000000E+00  4.65590260E-01  0.00000000E+00  0.00000000E+00  0.00000000E+00
  1.01036093E-01  0.00000000E+00  0.00000000E+00  0.00000000E+00  0.00000000E+00
  4.95592516E-01  0.00000000E+00  0.00000000E+00  0.00000000E+00  0.00000000E+00
  0.00000000E+00  0.00000000E+00  0.00000000E+00  1.71287901E-01  0.00000000E+00
  0.00000000E+00  0.00000000E+00  0.00000000E+00  0.00000000E+00  0.00000000E+00
  6.33912319E-02  0.00000000E+00  0.00000000E+00  3.41771790E-01  0.00000000E+00
  0.00000000E+00  4.65590260E-01  0.00000000E+00  0.00000000E+00  0.00000000E+00
  1.01036093E-01  0.00000000E+00  0.00000000E+00  0.00000000E+00  0.00000000E+00
  4.95592516E-01  0.00000000E+00  0.00000000E+00  0.00000000E+00  0.00000000E+00
  0.00000000E+00  0.00000000E+00  0.00000000E+00  1.71287901E-01  0.00000000E+00
  0.00000000E+00  6.44329897E-01  0.00000000E+00  0.00000000E+00  0.00000000E+00
  0.00000000E+00  0.00000000E+00  0.00000000E+00  0.00000000E+00  0.00000000E+00
  0.00000000E+00  0.00000000E+00  0.00000000E+00  0.00000000E+00  0.00000000E+00
  0.00000000E+00  0.00000000E+00  0.00000000E+00  0.00000000E+00  0.00000000E+00
 -2.75245232E-01  0.00000000E+00  0.00000000E+00  0.00000000E+00  0.00000000E+00
 -3.15493174E-01  0.00000000E+00  0.00000000E+00  0.00000000E+00  0.00000000E+00
  0.00000000E+00  0.00000000E+00  0.00000000E+00  0.00000000E+00  0.00000000E+00
  0.00000000E+00  0.00000000E+00  0.00000000E+00  0.00000000E+00  0.00000000E+00
  0.00000000E+00  4.33764274E-02  0.00000000E+00  0.00000000E+00  4.65590260E-01
  0.00000000E+00  0.00000000E+00  2.07466610E+00  0.00000000E+00  0.00000000E+00
  0.00000000E+00  2.51655680E-02  0.00000000E+00  0.00000000E+00  0.00000000E+00
  0.00000000E+00  4.68952839E-01  0.00000000E+00  0.00000000E+00  0.00000000E+00
  0.00000000E+00  0.00000000E+00  0.00000000E+00  0.00000000E+00  5.91902931E-02
  0.00000000E+00  0.00000000E+00  6.06245580E-01  0.00000000E+00  0.00000000E+00
  0.00000000E+00  0.00000000E+00  0.00000000E+00  0.00000000E+00  4.33764274E-02
  0.00000000E+00  0.00000000E+00  4.65590260E-01  0.00000000E+00  0.00000000E+00
  2.07466610E+00  0.00000000E+00  0.00000000E+00  0.00000000E+00  2.51655680E-02
  0.00000000E+00  0.00000000E+00  0.00000000E+00  0.00000000E+00  4.68952839E-01
  0.00000000E+00  0.00000000E+00  0.00000000E+00  0.00000000E+00  0.00000000E+00
  0.00000000E+00  0.00000000E+00  5.91902931E-02  0.00000000E+00  0.00000000E+00
  6.06245580E-01  0.00000000E+00  0.00000000E+00  2.45098039E+00  0.00000000E+00
  0.00000000E+00  0.00000000E+00  0.00000000E+00  0.00000000E+00  0.00000000E+00
  0.00000000E+00  0.00000000E+00  0.00000000E+00  0.00000000E+00  0.00000000E+00
  0.00000000E+00  0.00000000E+00  0.00000000E+00  0.00000000E+00  0.00000000E+00
  0.00000000E+00  0.00000000E+00 -2.60784367E-01  0.00000000E+00  0.00000000E+00
  0.00000000E+00  0.00000000E+00 -1.13560148E+00  0.00000000E+00  0.00000000E+00
  0.00000000E+00  0.00000000E+00  0.00000000E+00  0.00000000E+00  0.00000000E+00
  0.00000000E+00  0.00000000E+00  0.00000000E+00  0.00000000E+00  0.00000000E+00
  0.00000000E+00  0.00000000E+00  0.00000000E+00  0.00000000E+00  0.00000000E+00
  0.00000000E+00  0.00000000E+00  0.00000000E+00  0.00000000E+00  0.00000000E+00
  0.00000000E+00  0.00000000E+00  0.00000000E+00  0.00000000E+00  0.00000000E+00
  0.00000000E+00  0.00000000E+00  0.00000000E+00  3.53100461E-02  0.00000000E+00
  0.00000000E+00  0.00000000E+00  0.00000000E+00 -8.30578411E-02  0.00000000E+00
  0.00000000E+00  0.00000000E+00  0.00000000E+00  0.00000000E+00  0.00000000E+00
  0.00000000E+00  0.00000000E+00  0.00000000E+00  0.00000000E+00  0.00000000E+00
  0.00000000E+00  0.00000000E+00  0.00000000E+00  0.00000000E+00  0.00000000E+00
  0.00000000E+00  0.00000000E+00  0.00000000E+00 -5.84005092E-02  0.00000000E+00
  0.00000000E+00 -1.01036093E-01  0.00000000E+00  0.00000000E+00 -2.51655680E-02
  0.00000000E+00  0.00000000E+00  0.00000000E+00 -1.03201344E-01  0.00000000E+00
  0.00000000E+00  0.00000000E+00  0.00000000E+00 -2.62178822E-02  0.00000000E+00
  0.00000000E+00  0.00000000E+00  0.00000000E+00  0.00000000E+00  0.00000000E+00
  0.00000000E+00  0.00000000E+00  0.00000000E+00  0.00000000E+00  0.00000000E+00
  0.00000000E+00  0.00000000E+00  0.00000000E+00  0.00000000E+00  0.00000000E+00
  0.00000000E+00  0.00000000E+00  0.00000000E+00  0.00000000E+00  0.00000000E+00
 -5.84005092E-02  0.00000000E+00  0.00000000E+00 -1.01036093E-01  0.00000000E+00
  0.00000000E+00 -2.51655680E-02  0.00000000E+00  0.00000000E+00  0.00000000E+00
 -1.03201344E-01  0.00000000E+00  0.00000000E+00  0.00000000E+00  0.00000000E+00
 -2.62178822E-02  0.00000000E+00  0.00000000E+00  0.00000000E+00  0.00000000E+00
  0.00000000E+00  0.00000000E+00  0.00000000E+00  0.00000000E+00  0.00000000E+00
  0.00000000E+00  0.00000000E+00  0.00000000E+00  0.00000000E+00  0.00000000E+00
  0.00000000E+00  0.00000000E+00  0.00000000E+00  2.36518448E-01  0.00000000E+00
  0.00000000E+00  0.00000000E+00  0.00000000E+00  0.00000000E+00  0.00000000E+00
  0.00000000E+00  0.00000000E+00  0.00000000E+00  0.00000000E+00  0.00000000E+00
  0.00000000E+00  0.00000000E+00  0.00000000E+00  0.00000000E+00  0.00000000E+00
  0.00000000E+00  0.00000000E+00 -2.20544414E-18  0.00000000E+00  0.00000000E+00
  0.00000000E+00  0.00000000E+00 -6.43280355E-19  0.00000000E+00  0.00000000E+00
  0.00000000E+00  0.00000000E+00  0.00000000E+00  0.00000000E+00  0.00000000E+00
  0.00000000E+00  0.00000000E+00  0.00000000E+00  0.00000000E+00  0.00000000E+00
  0.00000000E+00  0.00000000E+00  0.00000000E+00  0.00000000E+00  0.00000000E+00
  3.02644390E-02  1.91529400E-01  2.47900275E-01  1.38140912E-01  0.00000000E+00
  0.00000000E+00  4.38730193E-02  0.00000000E+00  0.00000000E+00  2.75245232E-01
  0.00000000E+00  0.00000000E+00  2.60784367E-01  3.53100461E-02  0.00000000E+00
  0.00000000E+00 -2.20544414E-18  0.00000000E+00  1.76522935E-01  0.00000000E+00
  0.00000000E+00 -6.43280355E-19  0.00000000E+00  1.86621370E-01  4.32246747E-01
  3.36623363E-01  1.49740957E-01  0.00000000E+00  0.00000000E+00  0.00000000E+00
  0.00000000E+00  0.00000000E+00  0.00000000E+00  0.00000000E+00  0.00000000E+00
  0.00000000E+00 -2.73107980E-01  0.00000000E+00  0.00000000E+00 -1.36344984E-17
  0.00000000E+00  0.00000000E+00  0.00000000E+00  0.00000000E+00  0.00000000E+00
  0.00000000E+00  0.00000000E+00  0.00000000E+00  0.00000000E+00  0.00000000E+00
  0.00000000E+00  0.00000000E+00  0.00000000E+00  0.00000000E+00  0.00000000E+00
  0.00000000E+00  0.00000000E+00  0.00000000E+00  1.76522935E-01  0.00000000E+00
  0.00000000E+00  0.00000000E+00  0.00000000E+00 -4.65495156E-01  0.00000000E+00
  0.00000000E+00  0.00000000E+00  0.00000000E+00  0.00000000E+00  0.00000000E+00
  0.00000000E+00  0.00000000E+00  0.00000000E+00  0.00000000E+00  0.00000000E+00
  0.00000000E+00  0.00000000E+00  0.00000000E+00  0.00000000E+00  0.00000000E+00
  0.00000000E+00 -1.88645345E-01  0.00000000E+00  0.00000000E+00  0.00000000E+00
  0.00000000E+00  0.00000000E+00  0.00000000E+00 -9.97626923E-02  0.00000000E+00
  0.00000000E+00 -4.95592516E-01  0.00000000E+00  0.00000000E+00 -4.68952839E-01
  0.00000000E+00  0.00000000E+00  0.00000000E+00 -2.62178822E-02  0.00000000E+00
  0.00000000E+00  0.00000000E+00  0.00000000E+00  1.30268937E-01  0.00000000E+00
  0.00000000E+00  0.00000000E+00  0.00000000E+00  0.00000000E+00  0.00000000E+00
  0.00000000E+00  0.00000000E+00  0.00000000E+00  0.00000000E+00  0.00000000E+00
  0.00000000E+00  0.00000000E+00  0.00000000E+00  0.00000000E+00  0.00000000E+00
  0.00000000E+00  1.63371661E-01  0.00000000E+00  0.00000000E+00  0.00000000E+00
  0.00000000E+00  0.00000000E+00  0.00000000E+00  0.00000000E+00  0.00000000E+00
 -9.97626923E-02  0.00000000E+00  0.00000000E+00 -4.95592516E-01  0.00000000E+00
  0.00000000E+00 -4.68952839E-01  0.00000000E+00  0.00000000E+00  0.00000000E+00
 -2.62178822E-02  0.00000000E+00  0.00000000E+00  0.00000000E+00  0.00000000E+00
  1.30268937E-01  0.00000000E+00  0.00000000E+00  0.00000000E+00  0.00000000E+00
  0.00000000E+00  0.00000000E+00  0.00000000E+00  0.00000000E+00  0.00000000E+00
  0.00000000E+00  0.00000000E+00  0.00000000E+00  0.00000000E+00  0.00000000E+00
  0.00000000E+00  0.00000000E+00  0.00000000E+00  1.63371661E-01  0.00000000E+00
  0.00000000E+00  0.00000000E+00  0.00000000E+00  1.01214575E+00  0.00000000E+00
  0.00000000E+00  0.00000000E+00  0.00000000E+00  0.00000000E+00  0.00000000E+00
  0.00000000E+00  0.00000000E+00  0.00000000E+00  0.00000000E+00  0.00000000E+00
  0.00000000E+00  0.00000000E+00  0.00000000E+00  0.00000000E+00  0.00000000E+00
  0.00000000E+00  0.00000000E+00  3.07526168E-18  0.00000000E+00  0.00000000E+00
  0.00000000E+00  0.00000000E+00  4.72091252E-17  0.00000000E+00  0.00000000E+00
  0.00000000E+00  0.00000000E+00  0.00000000E+00  0.00000000E+00  0.00000000E+00
  0.00000000E+00  0.00000000E+00  0.00000000E+00  0.00000000E+00  0.00000000E+00
  0.00000000E+00  0.00000000E+00  0.00000000E+00  0.00000000E+00  0.00000000E+00
 -7.53121970E-18  0.00000000E+00  0.00000000E+00  0.00000000E+00  0.00000000E+00
  3.65482991E-02  4.68867336E-01  1.38529641E+00  1.36652533E+00  0.00000000E+00
  0.00000000E+00  1.75134222E-02  0.00000000E+00  0.00000000E+00  3.15493174E-01
  0.00000000E+00  0.00000000E+00  1.13560148E+00 -8.30578411E-02  0.00000000E+00
  0.00000000E+00  3.07526168E-18  0.00000000E+00 -4.65495156E-01  0.00000000E+00
  0.00000000E+00  4.72091252E-17  0.00000000E+00  7.11458243E-02  7.42108557E-01
  1.75593236E+00  1.47280833E+00  0.00000000E+00  0.00000000E+00  0.00000000E+00
  0.00000000E+00  0.00000000E+00  0.00000000E+00  0.00000000E+00  0.00000000E+00
  0.00000000E+00 -1.88645345E-01  0.00000000E+00  0.00000000E+00 -7.53121970E-18
  0.00000000E+00 -1.16872524E+00  0.00000000E+00  0.00000000E+00 -1.53212036E-17
  0.00000000E+00  0.00000000E+00  0.00000000E+00  0.00000000E+00  0.00000000E+00
  0.00000000E+00  0.00000000E+00  0.00000000E+00  0.00000000E+00  0.00000000E+00
  0.00000000E+00  0.00000000E+00  0.00000000E+00  0.00000000E+00  0.00000000E+00
  0.00000000E+00  0.00000000E+00  0.00000000E+00  1.33030381E-04  0.00000000E+00
  0.00000000E+00  0.00000000E+00  0.00000000E+00  4.95597291E-03  0.00000000E+00
  0.00000000E+00  0.00000000E+00  0.00000000E+00  0.00000000E+00  0.00000000E+00
  0.00000000E+00  0.00000000E+00  0.00000000E+00  0.00000000E+00  0.00000000E+00
  0.00000000E+00  0.00000000E+00  0.00000000E+00  0.00000000E+00  0.00000000E+00
  0.00000000E+00  3.02604226E-02  0.00000000E+00  0.00000000E+00  0.00000000E+00
  0.00000000E+00  3.65465179E-02  0.00000000E+00  0.00000000E+00  0.00000000E+00
  0.00000000E+00  0.00000000E+00  0.00000000E+00  0.00000000E+00  0.00000000E+00
  0.00000000E+00  0.00000000E+00  0.00000000E+00  0.00000000E+00  0.00000000E+00
  0.00000000E+00  0.00000000E+00  0.00000000E+00  0.00000000E+00  0.00000000E+00
  1.66607619E-02  0.00000000E+00  0.00000000E+00  0.00000000E+00  0.00000000E+00
  1.18241087E-01  0.00000000E+00  0.00000000E+00  0.00000000E+00  0.00000000E+00
  0.00000000E+00  0.00000000E+00  0.00000000E+00  0.00000000E+00  0.00000000E+00
  0.00000000E+00  0.00000000E+00  0.00000000E+00  0.00000000E+00  0.00000000E+00
  0.00000000E+00  0.00000000E+00  0.00000000E+00  1.91517993E-01  0.00000000E+00
  0.00000000E+00  0.00000000E+00  0.00000000E+00  4.68851583E-01  0.00000000E+00
  0.00000000E+00  0.00000000E+00  0.00000000E+00  0.00000000E+00  0.00000000E+00
  0.00000000E+00  0.00000000E+00  0.00000000E+00  0.00000000E+00  0.00000000E+00
  0.00000000E+00  0.00000000E+00  0.00000000E+00  0.00000000E+00  0.00000000E+00
  0.00000000E+00  0.00000000E+00  0.00000000E+00  9.90047034E-02  0.00000000E+00
  0.00000000E+00  0.00000000E+00  0.00000000E+00  6.80193425E-01  0.00000000E+00
  0.00000000E+00  0.00000000E+00  0.00000000E+00  0.00000000E+00  0.00000000E+00
  0.00000000E+00  0.00000000E+00  0.00000000E+00  0.00000000E+00  0.00000000E+00
  0.00000000E+00  0.00000000E+00  0.00000000E+00  0.00000000E+00  0.00000000E+00
  0.00000000E+00  2.47894725E-01  0.00000000E+00  0.00000000E+00  0.00000000E+00
  0.00000000E+00  1.38527238E+00  0.00000000E+00  0.00000000E+00  0.00000000E+00
  0.00000000E+00  0.00000000E+00  0.00000000E+00  0.00000000E+00  0.00000000E+00
  0.00000000E+00  0.00000000E+00  0.00000000E+00  0.00000000E+00  0.00000000E+00
  0.00000000E+00  0.00000000E+00  0.00000000E+00  0.00000000E+00  0.00000000E+00
  0.00000000E+00  0.00000000E+00  1.08458186E-01  0.00000000E+00  0.00000000E+00
  0.00000000E+00  0.00000000E+00  1.09150894E+00  0.00000000E+00  0.00000000E+00
  0.00000000E+00  0.00000000E+00  0.00000000E+00  0.00000000E+00  0.00000000E+00
  0.00000000E+00  0.00000000E+00  0.00000000E+00  0.00000000E+00  0.00000000E+00
  0.00000000E+00  0.00000000E+00  0.00000000E+00  0.00000000E+00  0.00000000E+00
  1.38140097E-01  0.00000000E+00  0.00000000E+00  0.00000000E+00  0.00000000E+00
  1.36651784E+00  0.00000000E+00  0.00000000E+00  0.00000000E+00  0.00000000E+00
  0.00000000E+00  0.00000000E+00  0.00000000E+00  0.00000000E+00  0.00000000E+00
  1.79963870E-05  0.00000000E+00  0.00000000E+00  3.21272484E-03  0.00000000E+00
  0.00000000E+00  1.70704076E-02  0.00000000E+00  0.00000000E+00  0.00000000E+00
  3.14140562E-04  0.00000000E+00  0.00000000E+00  0.00000000E+00  0.00000000E+00
  2.54229743E-02  0.00000000E+00  0.00000000E+00  0.00000000E+00  0.00000000E+00
  0.00000000E+00  0.00000000E+00  0.00000000E+00  1.78235509E-02  0.00000000E+00
  0.00000000E+00  6.33866214E-02  0.00000000E+00  0.00000000E+00  4.33754408E-02
  0.00000000E+00  0.00000000E+00  0.00000000E+00  5.83942163E-02  0.00000000E+00
  0.00000000E+00  0.00000000E+00  0.00000000E+00  9.97613291E-02  0.00000000E+00
  0.00000000E+00  0.00000000E+00  0.00000000E+00  0.00000000E+00  0.00000000E+00
  0.00000000E+00  0.00000000E+00  0.00000000E+00  0.00000000E+00  0.00000000E+00
  1.79963870E-05  0.00000000E+00  0.00000000E+00  3.21272484E-03  0.00000000E+00
  0.00000000E+00  1.70704076E-02  0.00000000E+00  0.00000000E+00  0.00000000E+00
  3.14140562E-04  0.00000000E+00  0.00000000E+00  0.00000000E+00  0.00000000E+00
  2.54229743E-02  0.00000000E+00  0.00000000E+00  0.00000000E+00  0.00000000E+00
  0.00000000E+00  0.00000000E+00  0.00000000E+00  1.78235509E-02  0.00000000E+00
  0.00000000E+00  6.33866214E-02  0.00000000E+00  0.00000000E+00  4.33754408E-02
  0.00000000E+00  0.00000000E+00  0.00000000E+00  5.83942163E-02  0.00000000E+00
  0.00000000E+00  0.00000000E+00  0.00000000E+00  9.97613291E-02  0.00000000E+00
  0.00000000E+00  0.00000000E+00  0.00000000E+00  0.00000000E+00  0.00000000E+00
  0.00000000E+00  1.77683014E-01  0.00000000E+00  0.00000000E+00  0.00000000E+00
  0.00000000E+00  0.00000000E+00  0.00000000E+00  0.00000000E+00  0.00000000E+00
  0.00000000E+00  0.00000000E+00  0.00000000E+00  0.00000000E+00  0.00000000E+00
  0.00000000E+00  0.00000000E+00  0.00000000E+00  0.00000000E+00  0.00000000E+00
 -2.35996144E-04  0.00000000E+00  0.00000000E+00  0.00000000E+00  0.00000000E+00
 -4.46302391E-03  0.00000000E+00  0.00000000E+00  0.00000000E+00  0.00000000E+00
  0.00000000E+00  0.00000000E+00  0.00000000E+00  0.00000000E+00  0.00000000E+00
  0.00000000E+00  0.00000000E+00  0.00000000E+00  0.00000000E+00  0.00000000E+00
  0.00000000E+00  0.00000000E+00  0.00000000E+00 -4.38682918E-02  0.00000000E+00
  0.00000000E+00  0.00000000E+00  0.00000000E+00 -1.75131829E-02  0.00000000E+00
  0.00000000E+00  0.00000000E+00  0.00000000E+00  0.00000000E+00  0.00000000E+00
  0.00000000E+00  0.00000000E+00  0.00000000E+00  0.00000000E+00  0.00000000E+00
  0.00000000E+00  3.21272484E-03  0.00000000E+00  0.00000000E+00  5.10011191E-02
  0.00000000E+00  0.00000000E+00  2.10888557E-01  0.00000000E+00  0.00000000E+00
  0.00000000E+00  1.24987771E-02  0.00000000E+00  0.00000000E+00  0.00000000E+00
  0.00000000E+00  2.25658630E-01  0.00000000E+00  0.00000000E+00  0.00000000E+00
  0.00000000E+00  0.00000000E+00  0.00000000E+00  0.00000000E+00  6.33866214E-02
  0.00000000E+00  0.00000000E+00  3.41755934E-01  0.00000000E+00  0.00000000E+00
  4.65581267E-01  0.00000000E+00  0.00000000E+00  0.00000000E+00  1.01032931E-01
  0.00000000E+00  0.00000000E+00  0.00000000E+00  0.00000000E+00  4.95592759E-01
  0.00000000E+00  0.00000000E+00  0.00000000E+00  0.00000000E+00  0.00000000E+00
  0.00000000E+00  0.00000000E+00  1.71287901E-01  0.00000000E+00  0.00000000E+00
  0.00000000E+00  0.00000000E+00  0.00000000E+00  0.00000000E+00  3.21272484E-03
  0.00000000E+00  0.00000000E+00  5.10011191E-02  0.00000000E+00  0.00000000E+00
  2.10888557E-01  0.00000000E+00  0.00000000E+00  0.00000000E+00  1.24987771E-02
  0.00000000E+00  0.00000000E+00  0.00000000E+00  0.00000000E+00  2.25658630E-01
  0.00000000E+00  0.00000000E+00  0.00000000E+00  0.00000000E+00  0.00000000E+00
  0.00000000E+00  0.00000000E+00  6.33866214E-02  0.00000000E+00  0.00000000E+00
  3.41755934E-01  0.00000000E+00  0.00000000E+00  4.65581267E-01  0.00000000E+00
  0.00000000E+00  0.00000000E+00  1.01032931E-01  0.00000000E+00  0.00000000E+00
  0.00000000E+00  0.00000000E+00  4.95592759E-01  0.00000000E+00  0.00000000E+00
  0.00000000E+00  0.00000000E+00  0.00000000E+00  0.00000000E+00  0.00000000E+00
  1.71287901E-01  0.00000000E+00  0.00000000E+00  6.44329897E-01  0.00000000E+00
  0.00000000E+00  0.00000000E+00  0.00000000E+00  0.00000000E+00  0.00000000E+00
  0.00000000E+00  0.00000000E+00  0.00000000E+00  0.00000000E+00  0.00000000E+00
  0.00000000E+00  0.00000000E+00  0.00000000E+00  0.00000000E+00  0.00000000E+00
  0.00000000E+00  0.00000000E+00 -3.40495037E-02  0.00000000E+00  0.00000000E+00
  0.00000000E+00  0.00000000E+00 -1.43653819E-01  0.00000000E+00  0.00000000E+00
  0.00000000E+00  0.00000000E+00  0.00000000E+00  0.00000000E+00  0.00000000E+00
  0.00000000E+00  0.00000000E+00  0.00000000E+00  0.00000000E+00  0.00000000E+00
  0.00000000E+00  0.00000000E+00  0.00000000E+00  0.00000000E+00  0.00000000E+00
 -2.75236620E-01  0.00000000E+00  0.00000000E+00  0.00000000E+00  0.00000000E+00
 -3.15493329E-01  0.00000000E+00  0.00000000E+00  0.00000000E+00  0.00000000E+00
  0.00000000E+00  0.00000000E+00  0.00000000E+00  0.00000000E+00  0.00000000E+00
  0.00000000E+00  0.00000000E+00  0.00000000E+00  0.00000000E+00  0.00000000E+00
  0.00000000E+00  1.70704076E-02  0.00000000E+00  0.00000000E+00  2.10888557E-01
  0.00000000E+00  0.00000000E+00  1.25823783E+00  0.00000000E+00  0.00000000E+00
  0.00000000E+00  2.02162860E-02  0.00000000E+00  0.00000000E+00  0.00000000E+00
  0.00000000E+00  4.62111720E-01  0.00000000E+00  0.00000000E+00  0.00000000E+00
  0.00000000E+00  0.00000000E+00  0.00000000E+00  0.00000000E+00  4.33754408E-02
  0.00000000E+00  0.00000000E+00  4.65581267E-01  0.00000000E+00  0.00000000E+00
  2.07464079E+00  0.00000000E+00  0.00000000E+00  0.00000000E+00  2.51659289E-02
  0.00000000E+00  0.00000000E+00  0.00000000E+00  0.00000000E+00  4.68961899E-01
  0.00000000E+00  0.00000000E+00  0.00000000E+00  0.00000000E+00  0.00000000E+00
  0.00000000E+00  0.00000000E+00  5.91902931E-02  0.00000000E+00  0.00000000E+00
  6.06245580E-01  0.00000000E+00  0.00000000E+00  0.00000000E+00  0.00000000E+00
  0.00000000E+00  0.00000000E+00  1.70704076E-02  0.00000000E+00  0.00000000E+00
  2.10888557E-01  0.00000000E+00  0.00000000E+00  1.25823783E+00  0.00000000E+00
  0.00000000E+00  0.00000000E+00  2.02162860E-02  0.00000000E+00  0.00000000E+00
  0.00000000E+00  0.00000000E+00  4.62111720E-01  0.00000000E+00  0.00000000E+00
  0.00000000E+00  0.00000000E+00  0.00000000E+00  0.00000000E+00  0.00000000E+00
  4.33754408E-02  0.00000000E+00  0.00000000E+00  4.65581267E-01  0.00000000E+00
  0.00000000E+00  2.07464079E+00  0.00000000E+00  0.00000000E+00  0.00000000E+00
  2.51659289E-02  0.00000000E+00  0.00000000E+00  0.00000000E+00  0.00000000E+00
  4.68961899E-01  0.00000000E+00  0.00000000E+00  0.00000000E+00  0.00000000E+00
  0.00000000E+00  0.00000000E+00  0.00000000E+00  5.91902931E-02  0.00000000E+00
  0.00000000E+00  6.06245580E-01  0.00000000E+00  0.00000000E+00  2.45098039E+00
  0.00000000E+00  0.00000000E+00  0.00000000E+00  0.00000000E+00  0.00000000E+00
  0.00000000E+00  0.00000000E+00  0.00000000E+00  0.00000000E+00  0.00000000E+00
  0.00000000E+00  0.00000000E+00  0.00000000E+00  0.00000000E+00  0.00000000E+00
  0.00000000E+00  0.00000000E+00  0.00000000E+00 -2.09496218E-01  0.00000000E+00
  0.00000000E+00  0.00000000E+00  0.00000000E+00 -1.11903524E+00  0.00000000E+00
  0.00000000E+00  0.00000000E+00  0.00000000E+00  0.00000000E+00  0.00000000E+00
  0.00000000E+00  0.00000000E+00  0.00000000E+00  0.00000000E+00  0.00000000E+00
  0.00000000E+00  0.00000000E+00  0.00000000E+00  0.00000000E+00  0.00000000E+00
  0.00000000E+00 -2.60788106E-01  0.00000000E+00  0.00000000E+00  0.00000000E+00
  0.00000000E+00 -1.13562342E+00  0.00000000E+00  0.00000000E+00  0.00000000E+00
  0.00000000E+00  0.00000000E+00  0.00000000E+00  0.00000000E+00  0.00000000E+00
  0.00000000E+00  0.00000000E+00  0.00000000E+00  0.00000000E+00  0.00000000E+00
  0.00000000E+00  0.00000000E+00  0.00000000E+00  0.00000000E+00  0.00000000E+00
  0.00000000E+00  0.00000000E+00  0.00000000E+00  0.00000000E+00  0.00000000E+00
  0.00000000E+00  0.00000000E+00  0.00000000E+00  0.00000000E+00  0.00000000E+00
  0.00000000E+00  0.00000000E+00  1.61094577E-03  0.00000000E+00  0.00000000E+00
  0.00000000E+00  0.00000000E+00 -5.34591145E-03  0.00000000E+00  0.00000000E+00
  0.00000000E+00  0.00000000E+00  0.00000000E+00  0.00000000E+00  0.00000000E+00
  0.00000000E+00  0.00000000E+00  0.00000000E+00  0.00000000E+00  0.00000000E+00
  0.00000000E+00  0.00000000E+00  0.00000000E+00  0.00000000E+00  0.00000000E+00
  3.53117186E-02  0.00000000E+00  0.00000000E+00  0.00000000E+00  0.00000000E+00
 -8.30527673E-02  0.00000000E+00  0.00000000E+00  0.00000000E+00  0.00000000E+00
  0.00000000E+00  0.00000000E+00  0.00000000E+00  0.00000000E+00  0.00000000E+00
  0.00000000E+00  0.00000000E+00  0.00000000E+00  0.00000000E+00  0.00000000E+00
  0.00000000E+00  0.00000000E+00  0.00000000E+00  0.00000000E+00  0.00000000E+00
 -3.14140562E-04  0.00000000E+00  0.00000000E+00 -1.24987771E-02  0.00000000E+00
  0.00000000E+00 -2.02162860E-02  0.00000000E+00  0.00000000E+00  0.00000000E+00
 -3.02631565E-03  0.00000000E+00  0.00000000E+00  0.00000000E+00  0.00000000E+00
 -5.04940626E-02  0.00000000E+00  0.00000000E+00  0.00000000E+00  0.00000000E+00
  0.00000000E+00  0.00000000E+00  0.00000000E+00 -5.83942163E-02  0.00000000E+00
  0.00000000E+00 -1.01032931E-01  0.00000000E+00  0.00000000E+00 -2.51659289E-02
  0.00000000E+00  0.00000000E+00  0.00000000E+00 -1.03198927E-01  0.00000000E+00
  0.00000000E+00  0.00000000E+00  0.00000000E+00 -2.62247581E-02  0.00000000E+00
  0.00000000E+00  0.00000000E+00  0.00000000E+00  0.00000000E+00  0.00000000E+00
  0.00000000E+00  0.00000000E+00  0.00000000E+00  0.00000000E+00  0.00000000E+00
  0.00000000E+00  0.00000000E+00  0.00000000E+00  0.00000000E+00  0.00000000E+00
  0.00000000E+00  0.00000000E+00  0.00000000E+00  0.00000000E+00  0.00000000E+00
 -3.14140562E-04  0.00000000E+00  0.00000000E+00 -1.24987771E-02  0.00000000E+00
  0.00000000E+00 -2.02162860E-02  0.00000000E+00  0.00000000E+00  0.00000000E+00
 -3.02631565E-03  0.00000000E+00  0.00000000E+00  0.00000000E+00  0.00000000E+00
 -5.04940626E-02  0.00000000E+00  0.00000000E+00  0.00000000E+00  0.00000000E+00
  0.00000000E+00  0.00000000E+00  0.00000000E+00 -5.83942163E-02  0.00000000E+00
  0.00000000E+00 -1.01032931E-01  0.00000000E+00  0.00000000E+00 -2.51659289E-02
  0.00000000E+00  0.00000000E+00  0.00000000E+00 -1.03198927E-01  0.00000000E+00
  0.00000000E+00  0.00000000E+00  0.00000000E+00 -2.62247581E-02  0.00000000E+00
  0.00000000E+00  0.00000000E+00  0.00000000E+00  0.00000000E+00  0.00000000E+00
  0.00000000E+00  0.00000000E+00  0.00000000E+00  0.00000000E+00  0.00000000E+00
  0.00000000E+00  0.00000000E+00  0.00000000E+00  0.00000000E+00  0.00000000E+00
  0.00000000E+00  2.36518448E-01  0.00000000E+00  0.00000000E+00  0.00000000E+00
  0.00000000E+00  0.00000000E+00  0.00000000E+00  0.00000000E+00  0.00000000E+00
  0.00000000E+00  0.00000000E+00  0.00000000E+00  0.00000000E+00  0.00000000E+00
  0.00000000E+00  0.00000000E+00  0.00000000E+00  0.00000000E+00  0.00000000E+00
 -1.58501380E-20  0.00000000E+00  0.00000000E+00  0.00000000E+00  0.00000000E+00
  8.21893513E-19  0.00000000E+00  0.00000000E+00  0.00000000E+00  0.00000000E+00
  0.00000000E+00  0.00000000E+00  0.00000000E+00  0.00000000E+00  0.00000000E+00
  0.00000000E+00  0.00000000E+00  0.00000000E+00  0.00000000E+00  0.00000000E+00
  0.00000000E+00  0.00000000E+00  0.00000000E+00  2.26363102E-18  0.00000000E+00
  0.00000000E+00  0.00000000E+00  0.00000000E+00  9.84624936E-18  0.00000000E+00
  0.00000000E+00  0.00000000E+00  0.00000000E+00  0.00000000E+00  0.00000000E+00
  0.00000000E+00  0.00000000E+00  0.00000000E+00  0.00000000E+00  0.00000000E+00
  0.00000000E+00  0.00000000E+00  0.00000000E+00  0.00000000E+00  0.00000000E+00
  0.00000000E+00  1.33030381E-04  1.66607619E-02  9.90047034E-02  1.08458186E-01
  0.00000000E+00  0.00000000E+00  2.35996144E-04  0.00000000E+00  0.00000000E+00
  3.40495037E-02  0.00000000E+00  0.00000000E+00  2.09496218E-01  1.61094577E-03
  0.00000000E+00  0.00000000E+00 -1.58501380E-20  0.00000000E+00  1.40444688E-01
  0.00000000E+00  0.00000000E+00  8.21893513E-19  0.00000000E+00  3.02604226E-02
  1.91517993E-01  2.47894725E-01  1.38140097E-01  0.00000000E+00  0.00000000E+00
  4.38682918E-02  0.00000000E+00  0.00000000E+00  2.75236620E-01  0.00000000E+00
  0.00000000E+00  2.60788106E-01  3.53117186E-02  0.00000000E+00  0.00000000E+00
  2.26363102E-18  0.00000000E+00  1.76534573E-01  0.00000000E+00  0.00000000E+00
  9.84624936E-18  0.00000000E+00  1.86621370E-01  4.32246747E-01  3.36623363E-01
  1.49740957E-01  0.00000000E+00  0.00000000E+00  0.00000000E+00  0.00000000E+00
  0.00000000E+00  0.00000000E+00  0.00000000E+00  0.00000000E+00  0.00000000E+00
 -2.73107980E-01  0.00000000E+00  0.00000000E+00 -1.36344984E-17  0.00000000E+00
  0.00000000E+00  0.00000000E+00  0.00000000E+00  0.00000000E+00  0.00000000E+00
  0.00000000E+00  0.00000000E+00  0.00000000E+00  0.00000000E+00  0.00000000E+00
  0.00000000E+00  0.00000000E+00  0.00000000E+00  0.00000000E+00  0.00000000E+00
  0.00000000E+00  0.00000000E+00  1.40444688E-01  0.00000000E+00  0.00000000E+00
  0.00000000E+00  0.00000000E+00  1.42923944E-01  0.00000000E+00  0.00000000E+00
  0.00000000E+00  0.00000000E+00  0.00000000E+00  0.00000000E+00  0.00000000E+00
  0.00000000E+00  0.00000000E+00  0.00000000E+00  0.00000000E+00  0.00000000E+00
  0.00000000E+00  0.00000000E+00  0.00000000E+00  0.00000000E+00  0.00000000E+00
  1.76534573E-01  0.00000000E+00  0.00000000E+00  0.00000000E+00  0.00000000E+00
 -4.65458354E-01  0.00000000E+00  0.00000000E+00  0.00000000E+00  0.00000000E+00
  0.00000000E+00  0.00000000E+00  0.00000000E+00  0.00000000E+00  0.00000000E+00
  0.00000000E+00  0.00000000E+00  0.00000000E+00  0.00000000E+00  0.00000000E+00
  0.00000000E+00  0.00000000E+00  0.00000000E+00 -1.88645345E-01  0.00000000E+00
  0.00000000E+00  0.00000000E+00  0.00000000E+00  0.00000000E+00  0.00000000E+00
 -2.54229743E-02  0.00000000E+00  0.00000000E+00 -2.25658630E-01  0.00000000E+00
  0.00000000E+00 -4.62111720E-01  0.00000000E+00  0.00000000E+00  0.00000000E+00
 -5.04940626E-02  0.00000000E+00  0.00000000E+00  0.00000000E+00  0.00000000E+00
 -4.48929630E-01  0.00000000E+00  0.00000000E+00  0.00000000E+00  0.00000000E+00
  0.00000000E+00  0.00000000E+00  0.00000000E+00 -9.97613291E-02  0.00000000E+00
  0.00000000E+00 -4.95592759E-01  0.00000000E+00  0.00000000E+00 -4.68961899E-01
  0.00000000E+00  0.00000000E+00  0.00000000E+00 -2.62247581E-02  0.00000000E+00
  0.00000000E+00  0.00000000E+00  0.00000000E+00  1.30225160E-01  0.00000000E+00
  0.00000000E+00  0.00000000E+00  0.00000000E+00  0.00000000E+00  0.00000000E+00
  0.00000000E+00  0.00000000E+00  0.00000000E+00  0.00000000E+00  0.00000000E+00
  0.00000000E+00  0.00000000E+00  0.00000000E+00  0.00000000E+00  0.00000000E+00
  0.00000000E+00  1.63371661E-01  0.00000000E+00  0.00000000E+00  0.00000000E+00
  0.00000000E+00  0.00000000E+00  0.00000000E+00  0.00000000E+00  0.00000000E+00
 -2.54229743E-02  0.00000000E+00  0.00000000E+00 -2.25658630E-01  0.00000000E+00
  0.00000000E+00 -4.62111720E-01  0.00000000E+00  0.00000000E+00  0.00000000E+00
 -5.04940626E-02  0.00000000E+00  0.00000000E+00  0.00000000E+00  0.00000000E+00
 -4.48929630E-01  0.00000000E+00  0.00000000E+00  0.00000000E+00  0.00000000E+00
  0.00000000E+00  0.00000000E+00  0.00000000E+00 -9.97613291E-02  0.00000000E+00
  0.00000000E+00 -4.95592759E-01  0.00000000E+00  0.00000000E+00 -4.68961899E-01
  0.00000000E+00  0.00000000E+00  0.00000000E+00 -2.62247581E-02  0.00000000E+00
  0.00000000E+00  0.00000000E+00  0.00000000E+00  1.30225160E-01  0.00000000E+00
  0.00000000E+00  0.00000000E+00  0.00000000E+00  0.00000000E+00  0.00000000E+00
  0.00000000E+00  0.00000000E+00  0.00000000E+00  0.00000000E+00  0.00000000E+00
  0.00000000E+00  0.00000000E+00  0.00000000E+00  0.00000000E+00  0.00000000E+00
  0.00000000E+00  1.63371661E-01  0.00000000E+00  0.00000000E+00  0.00000000E+00
  0.00000000E+00  1.01214575E+00  0.00000000E+00  0.00000000E+00  0.00000000E+00
  0.00000000E+00  0.00000000E+00  0.00000000E+00  0.00000000E+00  0.00000000E+00
  0.00000000E+00  0.00000000E+00  0.00000000E+00  0.00000000E+00  0.00000000E+00
  0.00000000E+00  0.00000000E+00  0.00000000E+00  0.00000000E+00  0.00000000E+00
  3.57075759E-19  0.00000000E+00  0.00000000E+00  0.00000000E+00  0.00000000E+00
  2.30711951E-17  0.00000000E+00  0.00000000E+00  0.00000000E+00  0.00000000E+00
  0.00000000E+00  0.00000000E+00  0.00000000E+00  0.00000000E+00  0.00000000E+00
  0.00000000E+00  0.00000000E+00  0.00000000E+00  0.00000000E+00  0.00000000E+00
  0.00000000E+00  0.00000000E+00  0.00000000E+00  9.84624936E-18  0.00000000E+00
  0.00000000E+00  0.00000000E+00  0.00000000E+00 -7.25451449E-17  0.00000000E+00
  0.00000000E+00  0.00000000E+00  0.00000000E+00  0.00000000E+00  0.00000000E+00
  0.00000000E+00  0.00000000E+00  0.00000000E+00  0.00000000E+00  0.00000000E+00
  0.00000000E+00  0.00000000E+00  0.00000000E+00  0.00000000E+00  0.00000000E+00
  0.00000000E+00 -7.53121970E-18  0.00000000E+00  0.00000000E+00  0.00000000E+00
  0.00000000E+00  4.95597291E-03  1.18241087E-01  6.80193425E-01  1.09150894E+00
  0.00000000E+00  0.00000000E+00  4.46302391E-03  0.00000000E+00  0.00000000E+00
  1.43653819E-01  0.00000000E+00  0.00000000E+00  1.11903524E+00 -5.34591145E-03
  0.00000000E+00  0.00000000E+00  3.57075759E-19  0.00000000E+00  1.42923944E-01
  0.00000000E+00  0.00000000E+00  2.30711951E-17  0.00000000E+00  3.65465179E-02
  4.68851583E-01  1.38527238E+00  1.36651784E+00  0.00000000E+00  0.00000000E+00
  1.75131829E-02  0.00000000E+00  0.00000000E+00  3.15493329E-01  0.00000000E+00
  0.00000000E+00  1.13562342E+00 -8.30527673E-02  0.00000000E+00  0.00000000E+00
  9.84624936E-18  0.00000000E+00 -4.65458354E-01  0.00000000E+00  0.00000000E+00
 -7.25451449E-17  0.00000000E+00  7.11458243E-02  7.42108557E-01  1.75593236E+00
  1.47280833E+00  0.00000000E+00  0.00000000E+00  0.00000000E+00  0.00000000E+00
  0.00000000E+00  0.00000000E+00  0.00000000E+00  0.00000000E+00  0.00000000E+00
 -1.88645345E-01  0.00000000E+00  0.00000000E+00 -7.53121970E-18  0.00000000E+00
 -1.16872524E+00  0.00000000E+00  0.00000000E+00 -1.53212036E-17  0.00000000E+00
Multipole Matrix (0,2,0)                   R   N=        2415
  1.76393444E-01  2.21880681E-01  7.67341928E-01  1.39282807E-01  9.20511195E-01
  2.43427459E+00  5.68664226E-02  5.29175765E-01  2.77544267E+00  9.89707047E+00
  0.00000000E+00  0.00000000E+00  0.00000000E+00  0.00000000E+00  1.77683014E-01
  0.00000000E+00  0.00000000E+00  0.00000000E+00  0.00000000E+00  0.00000000E+00
  5.33049041E-01  0.00000000E+00  0.00000000E+00  0.00000000E+00  0.00000000E+00
  0.00000000E+00  0.00000000E+00  1.77683014E-01  0.00000000E+00  0.00000000E+00
  0.00000000E+00  0.00000000E+00  1.71287901E-01  0.00000000E+00  0.00000000E+00
  6.44329897E-01  0.00000000E+00  0.00000000E+00  0.00000000E+00  0.00000000E+00
  0.00000000E+00  5.13863703E-01  0.00000000E+00  0.00000000E+00  1.93298969E+00
  0.00000000E+00  0.00000000E+00  0.00000000E+00  0.00000000E+00  0.00000000E+00
  0.00000000E+00  1.71287901E-01  0.00000000E+00  0.00000000E+00  6.44329897E-01
  0.00000000E+00  0.00000000E+00  0.00000000E+00  0.00000000E+00  5.91902931E-02
  0.00000000E+00  0.00000000E+00  6.06245580E-01  0.00000000E+00  0.00000000E+00
  2.45098039E+00  0.00000000E+00  0.00000000E+00  0.00000000E+00  0.00000000E+00
  0.00000000E+00  1.77570879E-01  0.00000000E+00  0.00000000E+00  1.81873674E+00
  0.00000000E+00  0.00000000E+00  7.35294118E+00  0.00000000E+00  0.00000000E+00
  0.00000000E+00  0.00000000E+00  0.00000000E+00  0.00000000E+00  5.91902931E-02
  0.00000000E+00  0.00000000E+00  6.06245580E-01  0.00000000E+00  0.00000000E+00
  2.45098039E+00 -1.07745898E-01 -2.49557776E-01 -1.94349589E-01 -8.64529820E-02
  0.00000000E+00  0.00000000E+00  0.00000000E+00  0.00000000E+00  0.00000000E+00
  0.00000000E+00  0.00000000E+00  0.00000000E+00  0.00000000E+00  3.94197414E-01
  0.00000000E+00  0.00000000E+00  0.00000000E+00  0.00000000E+00  0.00000000E+00
  0.00000000E+00  0.00000000E+00  0.00000000E+00  0.00000000E+00  0.00000000E+00
  0.00000000E+00  0.00000000E+00  0.00000000E+00  0.00000000E+00  2.36518448E-01
  0.00000000E+00  0.00000000E+00  0.00000000E+00  0.00000000E+00  0.00000000E+00
  0.00000000E+00  0.00000000E+00  0.00000000E+00  0.00000000E+00  0.00000000E+00
  0.00000000E+00  0.00000000E+00  0.00000000E+00  0.00000000E+00  0.00000000E+00
  7.09555345E-01 -1.86621370E-01 -4.32246747E-01 -3.36623363E-01 -1.49740957E-01
  0.00000000E+00  0.00000000E+00  0.00000000E+00  0.00000000E+00  0.00000000E+00
  0.00000000E+00  0.00000000E+00  0.00000000E+00  0.00000000E+00  2.73107980E-01
  0.00000000E+00  0.00000000E+00  7.09555345E-01  0.00000000E+00  0.00000000E+00
  0.00000000E+00  0.00000000E+00  0.00000000E+00  0.00000000E+00  0.00000000E+00
  0.00000000E+00  0.00000000E+00  0.00000000E+00  0.00000000E+00  0.00000000E+00
  0.00000000E+00  0.00000000E+00  0.00000000E+00  0.00000000E+00  0.00000000E+00
  7.09555345E-01 -4.10760608E-02 -4.28456575E-01 -1.01378802E+00 -8.50326284E-01
  0.00000000E+00  0.00000000E+00  0.00000000E+00  0.00000000E+00  0.00000000E+00
  0.00000000E+00  0.00000000E+00  0.00000000E+00  0.00000000E+00  2.72286101E-01
  0.00000000E+00  0.00000000E+00  1.88645345E-01  0.00000000E+00  1.68690958E+00
  0.00000000E+00  0.00000000E+00  0.00000000E+00  0.00000000E+00  0.00000000E+00
  0.00000000E+00  0.00000000E+00  0.00000000E+00  0.00000000E+00  0.00000000E+00
  0.00000000E+00  0.00000000E+00  0.00000000E+00  0.00000000E+00  1.63371661E-01
  0.00000000E+00  0.00000000E+00  0.00000000E+00  0.00000000E+00  1.01214575E+00
  0.00000000E+00  0.00000000E+00  0.00000000E+00  0.00000000E+00  0.00000000E+00
  0.00000000E+00  0.00000000E+00  0.00000000E+00  0.00000000E+00  0.00000000E+00
  0.00000000E+00  0.00000000E+00  0.00000000E+00  0.00000000E+00  0.00000000E+00
  4.90114982E-01  0.00000000E+00  0.00000000E+00  0.00000000E+00  0.00000000E+00
  3.03643725E+00 -7.11458243E-02 -7.42108557E-01 -1.75593236E+00 -1.47280833E+00
  0.00000000E+00  0.00000000E+00  0.00000000E+00  0.00000000E+00  0.00000000E+00
  0.00000000E+00  0.00000000E+00  0.00000000E+00  0.00000000E+00  1.88645345E-01
  0.00000000E+00  0.00000000E+00  4.90114982E-01  0.00000000E+00  1.16872524E+00
  0.00000000E+00  0.00000000E+00  3.03643725E+00  0.00000000E+00  0.00000000E+00
  0.00000000E+00  0.00000000E+00  0.00000000E+00  0.00000000E+00  0.00000000E+00
  0.00000000E+00  0.00000000E+00  0.00000000E+00  0.00000000E+00  0.00000000E+00
  0.00000000E+00  0.00000000E+00  0.00000000E+00  0.00000000E+00  0.00000000E+00
  4.90114982E-01  0.00000000E+00  0.00000000E+00  0.00000000E+00  0.00000000E+00
  3.03643725E+00  2.43841542E-02  9.62419617E-02  1.02285429E-01  5.24511974E-02
  0.00000000E+00  0.00000000E+00  4.10260438E-02  0.00000000E+00  0.00000000E+00
  1.49204129E-01  0.00000000E+00  0.00000000E+00  1.08501758E-01  5.44996509E-02
  0.00000000E+00  0.00000000E+00 -3.02644390E-02  0.00000000E+00  1.13760072E-01
  0.00000000E+00  0.00000000E+00 -3.65482991E-02  0.00000000E+00  1.76393444E-01
  9.62419617E-02  4.50569258E-01  7.13166657E-01  4.90145143E-01  0.00000000E+00
  0.00000000E+00  6.77049009E-02  0.00000000E+00  0.00000000E+00  4.01348560E-01
  0.00000000E+00  0.00000000E+00  6.27366160E-01 -5.50938015E-02  0.00000000E+00
  0.00000000E+00 -1.91529400E-01  0.00000000E+00  5.72075684E-02  0.00000000E+00
  0.00000000E+00 -4.68867336E-01  0.00000000E+00  2.21880681E-01  7.67341928E-01
  1.02285429E-01  7.13166657E-01  2.05816948E+00  2.59749737E+00  0.00000000E+00
  0.00000000E+00  2.52551753E-02  0.00000000E+00  0.00000000E+00  2.70319166E-01
  0.00000000E+00  0.00000000E+00  1.19717814E+00 -1.34616351E-01  0.00000000E+00
  0.00000000E+00 -2.47900275E-01  0.00000000E+00 -6.42115968E-01  0.00000000E+00
  0.00000000E+00 -1.38529641E+00  0.00000000E+00  1.39282807E-01  9.20511195E-01
  2.43427459E+00  5.24511974E-02  4.90145143E-01  2.59749737E+00  9.49683930E+00
  0.00000000E+00  0.00000000E+00  3.28880849E-03  0.00000000E+00  0.00000000E+00
  5.11169090E-02  0.00000000E+00  0.00000000E+00  6.00565747E-01 -7.94483234E-02
  0.00000000E+00  0.00000000E+00 -1.38140912E-01  0.00000000E+00 -7.76877180E-01
  0.00000000E+00  0.00000000E+00 -1.36652533E+00  0.00000000E+00  5.68664226E-02
  5.29175765E-01  2.77544267E+00  9.89707047E+00  0.00000000E+00  0.00000000E+00
  0.00000000E+00  0.00000000E+00  1.78265498E-02  0.00000000E+00  0.00000000E+00
  6.33912319E-02  0.00000000E+00  0.00000000E+00  4.33764274E-02  0.00000000E+00
  0.00000000E+00  0.00000000E+00  5.84005092E-02  0.00000000E+00  0.00000000E+00
  0.00000000E+00  0.00000000E+00  9.97626923E-02  0.00000000E+00  0.00000000E+00
  0.00000000E+00  0.00000000E+00  0.00000000E+00  0.00000000E+00  0.00000000E+00
  1.77683014E-01  0.00000000E+00  0.00000000E+00  0.00000000E+00  0.00000000E+00
  0.00000000E+00  5.34796495E-02  0.00000000E+00  0.00000000E+00  1.90173696E-01
  0.00000000E+00  0.00000000E+00  1.30129282E-01  0.00000000E+00  0.00000000E+00
  0.00000000E+00  1.75201528E-01  0.00000000E+00  0.00000000E+00  0.00000000E+00
  0.00000000E+00  2.99288077E-01  0.00000000E+00  0.00000000E+00  0.00000000E+00
  0.00000000E+00  0.00000000E+00  0.00000000E+00  0.00000000E+00  5.33049041E-01
 -4.10260438E-02 -6.77049009E-02 -2.52551753E-02 -3.28880849E-03  0.00000000E+00
  0.00000000E+00 -6.41510583E-02  0.00000000E+00  0.00000000E+00 -6.26331004E-02
  0.00000000E+00  0.00000000E+00  1.64100473E-02 -4.02643844E-02  0.00000000E+00
  0.00000000E+00  4.38730193E-02  0.00000000E+00  4.61982263E-02  0.00000000E+00
  0.00000000E+00  1.75134222E-02  0.00000000E+00  0.00000000E+00  0.00000000E+00
  0.00000000E+00  0.00000000E+00  0.00000000E+00  0.00000000E+00  1.77683014E-01
  0.00000000E+00  0.00000000E+00  0.00000000E+00  0.00000000E+00  6.33912319E-02
  0.00000000E+00  0.00000000E+00  3.41771790E-01  0.00000000E+00  0.00000000E+00
  4.65590260E-01  0.00000000E+00  0.00000000E+00  0.00000000E+00  1.01036093E-01
  0.00000000E+00  0.00000000E+00  0.00000000E+00  0.00000000E+00  4.95592516E-01
  0.00000000E+00  0.00000000E+00  0.00000000E+00  0.00000000E+00  0.00000000E+00
  0.00000000E+00  0.00000000E+00  1.71287901E-01  0.00000000E+00  0.00000000E+00
  6.44329897E-01  0.00000000E+00  0.00000000E+00  0.00000000E+00  0.00000000E+00
  0.00000000E+00  1.90173696E-01  0.00000000E+00  0.00000000E+00  1.02531537E+00
  0.00000000E+00  0.00000000E+00  1.39677078E+00  0.00000000E+00  0.00000000E+00
  0.00000000E+00  3.03108279E-01  0.00000000E+00  0.00000000E+00  0.00000000E+00
  0.00000000E+00  1.48677755E+00  0.00000000E+00  0.00000000E+00  0.00000000E+00
  0.00000000E+00  0.00000000E+00  0.00000000E+00  0.00000000E+00  5.13863703E-01
  0.00000000E+00  0.00000000E+00  1.93298969E+00 -1.49204129E-01 -4.01348560E-01
 -2.70319166E-01 -5.11169090E-02  0.00000000E+00  0.00000000E+00 -6.26331004E-02
  0.00000000E+00  0.00000000E+00 -9.16410629E-02  0.00000000E+00  0.00000000E+00
  2.19777996E-01  1.67356575E-01  0.00000000E+00  0.00000000E+00  2.75245232E-01
  0.00000000E+00  4.72129194E-01  0.00000000E+00  0.00000000E+00  3.15493174E-01
  0.00000000E+00  0.00000000E+00  0.00000000E+00  0.00000000E+00  0.00000000E+00
  0.00000000E+00  0.00000000E+00  1.71287901E-01  0.00000000E+00  0.00000000E+00
  6.44329897E-01  0.00000000E+00  0.00000000E+00  0.00000000E+00  0.00000000E+00
  4.33764274E-02  0.00000000E+00  0.00000000E+00  4.65590260E-01  0.00000000E+00
  0.00000000E+00  2.07466610E+00  0.00000000E+00  0.00000000E+00  0.00000000E+00
  2.51655680E-02  0.00000000E+00  0.00000000E+00  0.00000000E+00  0.00000000E+00
  4.68952839E-01  0.00000000E+00  0.00000000E+00  0.00000000E+00  0.00000000E+00
  0.00000000E+00  0.00000000E+00  0.00000000E+00  5.91902931E-02  0.00000000E+00
  0.00000000E+00  6.06245580E-01  0.00000000E+00  0.00000000E+00  2.45098039E+00
  0.00000000E+00  0.00000000E+00  0.00000000E+00  0.00000000E+00  0.00000000E+00
  1.30129282E-01  0.00000000E+00  0.00000000E+00  1.39677078E+00  0.00000000E+00
  0.00000000E+00  6.22399830E+00  0.00000000E+00  0.00000000E+00  0.00000000E+00
  7.54967041E-02  0.00000000E+00  0.00000000E+00  0.00000000E+00  0.00000000E+00
  1.40685852E+00  0.00000000E+00  0.00000000E+00  0.00000000E+00  0.00000000E+00
  0.00000000E+00  0.00000000E+00  0.00000000E+00  1.77570879E-01  0.00000000E+00
  0.00000000E+00  1.81873674E+00  0.00000000E+00  0.00000000E+00  7.35294118E+00
 -1.08501758E-01 -6.27366160E-01 -1.19717814E+00 -6.00565747E-01  0.00000000E+00
  0.00000000E+00  1.64100473E-02  0.00000000E+00  0.00000000E+00  2.19777996E-01
  0.00000000E+00  0.00000000E+00  1.38302271E+00  1.70787719E-01  0.00000000E+00
  0.00000000E+00  2.60784367E-01  0.00000000E+00  1.06937722E+00  0.00000000E+00
  0.00000000E+00  1.13560148E+00  0.00000000E+00  0.00000000E+00  0.00000000E+00
  0.00000000E+00  0.00000000E+00  0.00000000E+00  0.00000000E+00  5.91902931E-02
  0.00000000E+00  0.00000000E+00  6.06245580E-01  0.00000000E+00  0.00000000E+00
  2.45098039E+00  5.44996509E-02 -5.50938015E-02 -1.34616351E-01 -7.94483234E-02
  0.00000000E+00  0.00000000E+00  4.02643844E-02  0.00000000E+00  0.00000000E+00
 -1.67356575E-01  0.00000000E+00  0.00000000E+00 -1.70787719E-01 -5.31594241E-02
  0.00000000E+00  0.00000000E+00 -3.53100461E-02  0.00000000E+00 -1.25352373E-01
  0.00000000E+00  0.00000000E+00  8.30578411E-02  0.00000000E+00 -1.07745898E-01
 -2.49557776E-01 -1.94349589E-01 -8.64529820E-02  0.00000000E+00  0.00000000E+00
  0.00000000E+00  0.00000000E+00  0.00000000E+00  0.00000000E+00  0.00000000E+00
  0.00000000E+00  0.00000000E+00  3.94197414E-01  0.00000000E+00  0.00000000E+00
  0.00000000E+00  0.00000000E+00 -5.84005092E-02  0.00000000E+00  0.00000000E+00
 -1.01036093E-01  0.00000000E+00  0.00000000E+00 -2.51655680E-02  0.00000000E+00
  0.00000000E+00  0.00000000E+00 -1.03201344E-01  0.00000000E+00  0.00000000E+00
  0.00000000E+00  0.00000000E+00 -2.62178822E-02  0.00000000E+00  0.00000000E+00
  0.00000000E+00  0.00000000E+00  0.00000000E+00  0.00000000E+00  0.00000000E+00
  0.00000000E+00  0.00000000E+00  0.00000000E+00  0.00000000E+00  0.00000000E+00
  0.00000000E+00  0.00000000E+00  0.00000000E+00  0.00000000E+00  0.00000000E+00
  2.36518448E-01  0.00000000E+00  0.00000000E+00  0.00000000E+00  0.00000000E+00
  0.00000000E+00 -1.75201528E-01  0.00000000E+00  0.00000000E+00 -3.03108279E-01
  0.00000000E+00  0.00000000E+00 -7.54967041E-02  0.00000000E+00  0.00000000E+00
  0.00000000E+00 -3.09604031E-01  0.00000000E+00  0.00000000E+00  0.00000000E+00
  0.00000000E+00 -7.86536465E-02  0.00000000E+00  0.00000000E+00  0.00000000E+00
  0.00000000E+00  0.00000000E+00  0.00000000E+00  0.00000000E+00  0.00000000E+00
  0.00000000E+00  0.00000000E+00  0.00000000E+00  0.00000000E+00  0.00000000E+00
  0.00000000E+00  0.00000000E+00  0.00000000E+00  0.00000000E+00  7.09555345E-01
 -3.02644390E-02 -1.91529400E-01 -2.47900275E-01 -1.38140912E-01  0.00000000E+00
  0.00000000E+00 -4.38730193E-02  0.00000000E+00  0.00000000E+00 -2.75245232E-01
  0.00000000E+00  0.00000000E+00 -2.60784367E-01 -3.53100461E-02  0.00000000E+00
  0.00000000E+00  1.26127650E-01  0.00000000E+00 -1.76522935E-01  0.00000000E+00
  0.00000000E+00  2.54744929E-01  0.00000000E+00 -1.86621370E-01 -4.32246747E-01
 -3.36623363E-01 -1.49740957E-01  0.00000000E+00  0.00000000E+00  0.00000000E+00
  0.00000000E+00  0.00000000E+00  0.00000000E+00  0.00000000E+00  0.00000000E+00
  0.00000000E+00  2.73107980E-01  0.00000000E+00  0.00000000E+00  7.09555345E-01
  0.00000000E+00  0.00000000E+00  0.00000000E+00  0.00000000E+00  0.00000000E+00
  0.00000000E+00  0.00000000E+00  0.00000000E+00  0.00000000E+00  0.00000000E+00
  0.00000000E+00  0.00000000E+00  0.00000000E+00  0.00000000E+00  0.00000000E+00
  0.00000000E+00  0.00000000E+00  1.26127650E-01  0.00000000E+00  0.00000000E+00
  0.00000000E+00  0.00000000E+00  2.54744929E-01  0.00000000E+00  0.00000000E+00
  0.00000000E+00  0.00000000E+00  0.00000000E+00  0.00000000E+00  0.00000000E+00
  0.00000000E+00  0.00000000E+00  0.00000000E+00  0.00000000E+00  0.00000000E+00
  0.00000000E+00  0.00000000E+00  0.00000000E+00  0.00000000E+00  0.00000000E+00
  7.09555345E-01  1.13760072E-01  5.72075684E-02 -6.42115968E-01 -7.76877180E-01
  0.00000000E+00  0.00000000E+00 -4.61982263E-02  0.00000000E+00  0.00000000E+00
 -4.72129194E-01  0.00000000E+00  0.00000000E+00 -1.06937722E+00 -1.25352373E-01
  0.00000000E+00  0.00000000E+00 -1.76522935E-01  0.00000000E+00  1.82059860E-01
  0.00000000E+00  0.00000000E+00  4.65495156E-01  0.00000000E+00 -4.10760608E-02
 -4.28456575E-01 -1.01378802E+00 -8.50326284E-01  0.00000000E+00  0.00000000E+00
  0.00000000E+00  0.00000000E+00  0.00000000E+00  0.00000000E+00  0.00000000E+00
  0.00000000E+00  0.00000000E+00  2.72286101E-01  0.00000000E+00  0.00000000E+00
  1.88645345E-01  0.00000000E+00  1.68690958E+00  0.00000000E+00  0.00000000E+00
  0.00000000E+00  0.00000000E+00 -9.97626923E-02  0.00000000E+00  0.00000000E+00
 -4.95592516E-01  0.00000000E+00  0.00000000E+00 -4.68952839E-01  0.00000000E+00
  0.00000000E+00  0.00000000E+00 -2.62178822E-02  0.00000000E+00  0.00000000E+00
  0.00000000E+00  0.00000000E+00  1.30268937E-01  0.00000000E+00  0.00000000E+00
  0.00000000E+00  0.00000000E+00  0.00000000E+00  0.00000000E+00  0.00000000E+00
  0.00000000E+00  0.00000000E+00  0.00000000E+00  0.00000000E+00  0.00000000E+00
  0.00000000E+00  0.00000000E+00  0.00000000E+00  0.00000000E+00  0.00000000E+00
  1.63371661E-01  0.00000000E+00  0.00000000E+00  0.00000000E+00  0.00000000E+00
  1.01214575E+00  0.00000000E+00  0.00000000E+00  0.00000000E+00  0.00000000E+00
  0.00000000E+00 -2.99288077E-01  0.00000000E+00  0.00000000E+00 -1.48677755E+00
  0.00000000E+00  0.00000000E+00 -1.40685852E+00  0.00000000E+00  0.00000000E+00
  0.00000000E+00 -7.86536465E-02  0.00000000E+00  0.00000000E+00  0.00000000E+00
  0.00000000E+00  3.90806812E-01  0.00000000E+00  0.00000000E+00  0.00000000E+00
  0.00000000E+00  0.00000000E+00  0.00000000E+00  0.00000000E+00  0.00000000E+00
  0.00000000E+00  0.00000000E+00  0.00000000E+00  0.00000000E+00  0.00000000E+00
  0.00000000E+00  0.00000000E+00  0.00000000E+00  0.00000000E+00  4.90114982E-01
  0.00000000E+00  0.00000000E+00  0.00000000E+00  0.00000000E+00  3.03643725E+00
 -3.65482991E-02 -4.68867336E-01 -1.38529641E+00 -1.36652533E+00  0.00000000E+00
  0.00000000E+00 -1.75134222E-02  0.00000000E+00  0.00000000E+00 -3.15493174E-01
  0.00000000E+00  0.00000000E+00 -1.13560148E+00  8.30578411E-02  0.00000000E+00
  0.00000000E+00  2.54744929E-01  0.00000000E+00  4.65495156E-01  0.00000000E+00
  0.00000000E+00  2.02797697E+00  0.00000000E+00 -7.11458243E-02 -7.42108557E-01
 -1.75593236E+00 -1.47280833E+00  0.00000000E+00  0.00000000E+00  0.00000000E+00
  0.00000000E+00  0.00000000E+00  0.00000000E+00  0.00000000E+00  0.00000000E+00
  0.00000000E+00  1.88645345E-01  0.00000000E+00  0.00000000E+00  4.90114982E-01
  0.00000000E+00  1.16872524E+00  0.00000000E+00  0.00000000E+00  3.03643725E+00
  0.00000000E+00  0.00000000E+00  0.00000000E+00  0.00000000E+00  0.00000000E+00
  0.00000000E+00  0.00000000E+00  0.00000000E+00  0.00000000E+00  0.00000000E+00
  0.00000000E+00  0.00000000E+00  0.00000000E+00  0.00000000E+00  0.00000000E+00
  0.00000000E+00  0.00000000E+00  2.54744929E-01  0.00000000E+00  0.00000000E+00
  0.00000000E+00  0.00000000E+00  2.02797697E+00  0.00000000E+00  0.00000000E+00
  0.00000000E+00  0.00000000E+00  0.00000000E+00  0.00000000E+00  0.00000000E+00
  0.00000000E+00  0.00000000E+00  0.00000000E+00  0.00000000E+00  0.00000000E+00
  0.00000000E+00  0.00000000E+00  0.00000000E+00  0.00000000E+00  0.00000000E+00
  4.90114982E-01  0.00000000E+00  0.00000000E+00  0.00000000E+00  0.00000000E+00
  3.03643725E+00  8.03394379E-05  7.87986578E-03  4.05101196E-02  4.11574870E-02
  0.00000000E+00  0.00000000E+00  1.57433390E-04  0.00000000E+00  0.00000000E+00
  1.70180468E-02  0.00000000E+00  0.00000000E+00  8.64401981E-02  1.14261482E-03
  0.00000000E+00  0.00000000E+00 -1.33030381E-04  0.00000000E+00  6.98418805E-02
  0.00000000E+00  0.00000000E+00 -4.95597291E-03  0.00000000E+00  2.43807037E-02
  9.62360821E-02  1.02283118E-01  5.24508873E-02  0.00000000E+00  0.00000000E+00
  4.10211972E-02  0.00000000E+00  0.00000000E+00  1.49199146E-01  0.00000000E+00
  0.00000000E+00  1.08503291E-01  5.44974736E-02  0.00000000E+00  0.00000000E+00
 -3.02604226E-02  0.00000000E+00  1.13764372E-01  0.00000000E+00  0.00000000E+00
 -3.65465179E-02  0.00000000E+00  1.76393444E-01  7.87986578E-03  9.12106610E-02
  3.31635242E-01  3.89488020E-01  0.00000000E+00  0.00000000E+00  1.01178967E-02
  0.00000000E+00  0.00000000E+00  1.41381897E-01  0.00000000E+00  0.00000000E+00
  5.85807311E-01  9.68799115E-03  0.00000000E+00  0.00000000E+00 -1.66607619E-02
  0.00000000E+00  2.62519125E-01  0.00000000E+00  0.00000000E+00 -1.18241087E-01
  0.00000000E+00  9.62360821E-02  4.50551705E-01  7.13153339E-01  4.90142395E-01
  0.00000000E+00  0.00000000E+00  6.77030944E-02  0.00000000E+00  0.00000000E+00
  4.01346245E-01  0.00000000E+00  0.00000000E+00  6.27377457E-01 -5.50864606E-02
  0.00000000E+00  0.00000000E+00 -1.91517993E-01  0.00000000E+00  5.72296388E-02
  0.00000000E+00  0.00000000E+00 -4.68851583E-01  0.00000000E+00  2.21880681E-01
  7.67341928E-01  4.05101196E-02  3.31635242E-01  1.24395644E+00  2.12921476E+00
  0.00000000E+00  0.00000000E+00  1.97600499E-02  0.00000000E+00  0.00000000E+00
  2.43835808E-01  0.00000000E+00  0.00000000E+00  1.44966799E+00 -4.35669278E-02
  0.00000000E+00  0.00000000E+00 -9.90047034E-02  0.00000000E+00 -8.29987503E-02
  0.00000000E+00  0.00000000E+00 -6.80193425E-01  0.00000000E+00  1.02283118E-01
  7.13153339E-01  2.05814420E+00  2.59748477E+00  0.00000000E+00  0.00000000E+00
  2.52555211E-02  0.00000000E+00  0.00000000E+00  2.70323806E-01  0.00000000E+00
  0.00000000E+00  1.19720729E+00 -1.34612714E-01  0.00000000E+00  0.00000000E+00
 -2.47894725E-01  0.00000000E+00 -6.42093291E-01  0.00000000E+00  0.00000000E+00
 -1.38527238E+00  0.00000000E+00  1.39282807E-01  9.20511195E-01  2.43427459E+00
  4.11574870E-02  3.89488020E-01  2.12921476E+00  8.39061406E+00  0.00000000E+00
  0.00000000E+00  5.15706973E-03  0.00000000E+00  0.00000000E+00  8.10227464E-02
  0.00000000E+00  0.00000000E+00  9.84871691E-01 -6.16530313E-02  0.00000000E+00
  0.00000000E+00 -1.08458186E-01  0.00000000E+00 -5.91565027E-01  0.00000000E+00
  0.00000000E+00 -1.09150894E+00  0.00000000E+00  5.24508873E-02  4.90142395E-01
  2.59748477E+00  9.49681061E+00  0.00000000E+00  0.00000000E+00  3.28890929E-03
  0.00000000E+00  0.00000000E+00  5.11184892E-02  0.00000000E+00  0.00000000E+00
  6.00584811E-01 -7.94478322E-02  0.00000000E+00  0.00000000E+00 -1.38140097E-01
  0.00000000E+00 -7.76872038E-01  0.00000000E+00  0.00000000E+00 -1.36651784E+00
  0.00000000E+00  5.68664226E-02  5.29175765E-01  2.77544267E+00  9.89707047E+00
  0.00000000E+00  0.00000000E+00  0.00000000E+00  0.00000000E+00  1.79963870E-05
  0.00000000E+00  0.00000000E+00  3.21272484E-03  0.00000000E+00  0.00000000E+00
  1.70704076E-02  0.00000000E+00  0.00000000E+00  0.00000000E+00  3.14140562E-04
  0.00000000E+00  0.00000000E+00  0.00000000E+00  0.00000000E+00  2.54229743E-02
  0.00000000E+00  0.00000000E+00  0.00000000E+00  0.00000000E+00  0.00000000E+00
  0.00000000E+00  0.00000000E+00  1.78235509E-02  0.00000000E+00  0.00000000E+00
  6.33866214E-02  0.00000000E+00  0.00000000E+00  4.33754408E-02  0.00000000E+00
  0.00000000E+00  0.00000000E+00  5.83942163E-02  0.00000000E+00  0.00000000E+00
  0.00000000E+00  0.00000000E+00  9.97613291E-02  0.00000000E+00  0.00000000E+00
  0.00000000E+00  0.00000000E+00  0.00000000E+00  0.00000000E+00  0.00000000E+00
  1.77683014E-01  0.00000000E+00  0.00000000E+00  0.00000000E+00  0.00000000E+00
  0.00000000E+00  5.39891611E-05  0.00000000E+00  0.00000000E+00  9.63817451E-03
  0.00000000E+00  0.00000000E+00  5.12112227E-02  0.00000000E+00  0.00000000E+00
  0.00000000E+00  9.42421687E-04  0.00000000E+00  0.00000000E+00  0.00000000E+00
  0.00000000E+00  7.62689228E-02  0.00000000E+00  0.00000000E+00  0.00000000E+00
  0.00000000E+00  0.00000000E+00  0.00000000E+00  0.00000000E+00  5.34706527E-02
  0.00000000E+00  0.00000000E+00  1.90159864E-01  0.00000000E+00  0.00000000E+00
  1.30126323E-01  0.00000000E+00  0.00000000E+00  0.00000000E+00  1.75182649E-01
  0.00000000E+00  0.00000000E+00  0.00000000E+00  0.00000000E+00  2.99283987E-01
  0.00000000E+00  0.00000000E+00  0.00000000E+00  0.00000000E+00  0.00000000E+00
  0.00000000E+00  0.00000000E+00  5.33049041E-01 -1.57433390E-04 -1.01178967E-02
 -1.97600499E-02 -5.15706973E-03  0.00000000E+00  0.00000000E+00 -3.13050226E-04
  0.00000000E+00  0.00000000E+00 -2.23363174E-02  0.00000000E+00  0.00000000E+00
 -2.53806626E-02 -2.36341700E-03  0.00000000E+00  0.00000000E+00  2.35996144E-04
  0.00000000E+00 -4.87092958E-02  0.00000000E+00  0.00000000E+00  4.46302391E-03
  0.00000000E+00 -4.10211972E-02 -6.77030944E-02 -2.52555211E-02 -3.28890929E-03
  0.00000000E+00  0.00000000E+00 -6.41462636E-02  0.00000000E+00  0.00000000E+00
 -6.26377656E-02  0.00000000E+00  0.00000000E+00  1.64077009E-02 -4.02697786E-02
  0.00000000E+00  0.00000000E+00  4.38682918E-02  0.00000000E+00  4.61918067E-02
  0.00000000E+00  0.00000000E+00  1.75131829E-02  0.00000000E+00  0.00000000E+00
  0.00000000E+00  0.00000000E+00  0.00000000E+00  0.00000000E+00  0.00000000E+00
  1.77683014E-01  0.00000000E+00  0.00000000E+00  0.00000000E+00  0.00000000E+00
  3.21272484E-03  0.00000000E+00  0.00000000E+00  5.10011191E-02  0.00000000E+00
  0.00000000E+00  2.10888557E-01  0.00000000E+00  0.00000000E+00  0.00000000E+00
  1.24987771E-02  0.00000000E+00  0.00000000E+00  0.00000000E+00  0.00000000E+00
  2.25658630E-01  0.00000000E+00  0.00000000E+00  0.00000000E+00  0.00000000E+00
  0.00000000E+00  0.00000000E+00  0.00000000E+00  6.33866214E-02  0.00000000E+00
  0.00000000E+00  3.41755934E-01  0.00000000E+00  0.00000000E+00  4.65581267E-01
  0.00000000E+00  0.00000000E+00  0.00000000E+00  1.01032931E-01  0.00000000E+00
  0.00000000E+00  0.00000000E+00  0.00000000E+00  4.95592759E-01  0.00000000E+00
  0.00000000E+00  0.00000000E+00  0.00000000E+00  0.00000000E+00  0.00000000E+00
  0.00000000E+00  1.71287901E-01  0.00000000E+00  0.00000000E+00  6.44329897E-01
  0.00000000E+00  0.00000000E+00  0.00000000E+00  0.00000000E+00  0.00000000E+00
  9.63817451E-03  0.00000000E+00  0.00000000E+00  1.53003357E-01  0.00000000E+00
  0.00000000E+00  6.32665670E-01  0.00000000E+00  0.00000000E+00  0.00000000E+00
  3.74963314E-02  0.00000000E+00  0.00000000E+00  0.00000000E+00  0.00000000E+00
  6.76975891E-01  0.00000000E+00  0.00000000E+00  0.00000000E+00  0.00000000E+00
  0.00000000E+00  0.00000000E+00  0.00000000E+00  1.90159864E-01  0.00000000E+00
  0.00000000E+00  1.02526780E+00  0.00000000E+00  0.00000000E+00  1.39674380E+00
  0.00000000E+00  0.00000000E+00  0.00000000E+00  3.03098794E-01  0.00000000E+00
  0.00000000E+00  0.00000000E+00  0.00000000E+00  1.48677828E+00  0.00000000E+00
  0.00000000E+00  0.00000000E+00  0.00000000E+00  0.00000000E+00  0.00000000E+00
  0.00000000E+00  5.13863703E-01  0.00000000E+00  0.00000000E+00  1.93298969E+00
 -1.70180468E-02 -1.41381897E-01 -2.43835808E-01 -8.10227464E-02  0.00000000E+00
  0.00000000E+00 -2.23363174E-02  0.00000000E+00  0.00000000E+00 -2.07713613E-01
  0.00000000E+00  0.00000000E+00 -2.34489232E-01 -1.94623725E-02  0.00000000E+00
  0.00000000E+00  3.40495037E-02  0.00000000E+00 -1.70638737E-01  0.00000000E+00
  0.00000000E+00  1.43653819E-01  0.00000000E+00 -1.49199146E-01 -4.01346245E-01
 -2.70323806E-01 -5.11184892E-02  0.00000000E+00  0.00000000E+00 -6.26377656E-02
  0.00000000E+00  0.00000000E+00 -9.16685230E-02  0.00000000E+00  0.00000000E+00
  2.19755765E-01  1.67343420E-01  0.00000000E+00  0.00000000E+00  2.75236620E-01
  0.00000000E+00  4.72108771E-01  0.00000000E+00  0.00000000E+00  3.15493329E-01
  0.00000000E+00  0.00000000E+00  0.00000000E+00  0.00000000E+00  0.00000000E+00
  0.00000000E+00  0.00000000E+00  1.71287901E-01  0.00000000E+00  0.00000000E+00
  6.44329897E-01  0.00000000E+00  0.00000000E+00  0.00000000E+00  0.00000000E+00
  1.70704076E-02  0.00000000E+00  0.00000000E+00  2.10888557E-01  0.00000000E+00
  0.00000000E+00  1.25823783E+00  0.00000000E+00  0.00000000E+00  0.00000000E+00
  2.02162860E-02  0.00000000E+00  0.00000000E+00  0.00000000E+00  0.00000000E+00
  4.62111720E-01  0.00000000E+00  0.00000000E+00  0.00000000E+00  0.00000000E+00
  0.00000000E+00  0.00000000E+00  0.00000000E+00  4.33754408E-02  0.00000000E+00
  0.00000000E+00  4.65581267E-01  0.00000000E+00  0.00000000E+00  2.07464079E+00
  0.00000000E+00  0.00000000E+00  0.00000000E+00  2.51659289E-02  0.00000000E+00
  0.00000000E+00  0.00000000E+00  0.00000000E+00  4.68961899E-01  0.00000000E+00
  0.00000000E+00  0.00000000E+00  0.00000000E+00  0.00000000E+00  0.00000000E+00
  0.00000000E+00  5.91902931E-02  0.00000000E+00  0.00000000E+00  6.06245580E-01
  0.00000000E+00  0.00000000E+00  2.45098039E+00  0.00000000E+00  0.00000000E+00
  0.00000000E+00  0.00000000E+00  0.00000000E+00  5.12112227E-02  0.00000000E+00
  0.00000000E+00  6.32665670E-01  0.00000000E+00  0.00000000E+00  3.77471348E+00
  0.00000000E+00  0.00000000E+00  0.00000000E+00  6.06488579E-02  0.00000000E+00
  0.00000000E+00  0.00000000E+00  0.00000000E+00  1.38633516E+00  0.00000000E+00
  0.00000000E+00  0.00000000E+00  0.00000000E+00  0.00000000E+00  0.00000000E+00
  0.00000000E+00  1.30126323E-01  0.00000000E+00  0.00000000E+00  1.39674380E+00
  0.00000000E+00  0.00000000E+00  6.22392238E+00  0.00000000E+00  0.00000000E+00
  0.00000000E+00  7.54977866E-02  0.00000000E+00  0.00000000E+00  0.00000000E+00
  0.00000000E+00  1.40688570E+00  0.00000000E+00  0.00000000E+00  0.00000000E+00
  0.00000000E+00  0.00000000E+00  0.00000000E+00  0.00000000E+00  1.77570879E-01
  0.00000000E+00  0.00000000E+00  1.81873674E+00  0.00000000E+00  0.00000000E+00
  7.35294118E+00 -8.64401981E-02 -5.85807311E-01 -1.44966799E+00 -9.84871691E-01
  0.00000000E+00  0.00000000E+00 -2.53806626E-02  0.00000000E+00  0.00000000E+00
 -2.34489232E-01  0.00000000E+00  0.00000000E+00 -4.19687527E-01  1.15906010E-01
  0.00000000E+00  0.00000000E+00  2.09496218E-01  0.00000000E+00  6.76061972E-01
  0.00000000E+00  0.00000000E+00  1.11903524E+00  0.00000000E+00 -1.08503291E-01
 -6.27377457E-01 -1.19720729E+00 -6.00584811E-01  0.00000000E+00  0.00000000E+00
  1.64077009E-02  0.00000000E+00  0.00000000E+00  2.19755765E-01  0.00000000E+00
  0.00000000E+00  1.38295523E+00  1.70789521E-01  0.00000000E+00  0.00000000E+00
  2.60788106E-01  0.00000000E+00  1.06938853E+00  0.00000000E+00  0.00000000E+00
  1.13562342E+00  0.00000000E+00  0.00000000E+00  0.00000000E+00  0.00000000E+00
  0.00000000E+00  0.00000000E+00  0.00000000E+00  5.91902931E-02  0.00000000E+00
  0.00000000E+00  6.06245580E-01  0.00000000E+00  0.00000000E+00  2.45098039E+00
  1.14261482E-03  9.68799115E-03 -4.35669278E-02 -6.16530313E-02  0.00000000E+00
  0.00000000E+00  2.36341700E-03  0.00000000E+00  0.00000000E+00  1.94623725E-02
  0.00000000E+00  0.00000000E+00 -1.15906010E-01  8.89661917E-03  0.00000000E+00
  0.00000000E+00 -1.61094577E-03  0.00000000E+00 -4.83260093E-02  0.00000000E+00
  0.00000000E+00  5.34591145E-03  0.00000000E+00  5.44974736E-02 -5.50864606E-02
 -1.34612714E-01 -7.94478322E-02  0.00000000E+00  0.00000000E+00  4.02697786E-02
  0.00000000E+00  0.00000000E+00 -1.67343420E-01  0.00000000E+00  0.00000000E+00
 -1.70789521E-01 -5.31494836E-02  0.00000000E+00  0.00000000E+00 -3.53117186E-02
  0.00000000E+00 -1.25362350E-01  0.00000000E+00  0.00000000E+00  8.30527673E-02
  0.00000000E+00 -1.07745898E-01 -2.49557776E-01 -1.94349589E-01 -8.64529820E-02
  0.00000000E+00  0.00000000E+00  0.00000000E+00  0.00000000E+00  0.00000000E+00
  0.00000000E+00  0.00000000E+00  0.00000000E+00  0.00000000E+00  3.94197414E-01
  0.00000000E+00  0.00000000E+00  0.00000000E+00  0.00000000E+00 -3.14140562E-04
  0.00000000E+00  0.00000000E+00 -1.24987771E-02  0.00000000E+00  0.00000000E+00
 -2.02162860E-02  0.00000000E+00  0.00000000E+00  0.00000000E+00 -3.02631565E-03
  0.00000000E+00  0.00000000E+00  0.00000000E+00  0.00000000E+00 -5.04940626E-02
  0.00000000E+00  0.00000000E+00  0.00000000E+00  0.00000000E+00  0.00000000E+00
  0.00000000E+00  0.00000000E+00 -5.83942163E-02  0.00000000E+00  0.00000000E+00
 -1.01032931E-01  0.00000000E+00  0.00000000E+00 -2.51659289E-02  0.00000000E+00
  0.00000000E+00  0.00000000E+00 -1.03198927E-01  0.00000000E+00  0.00000000E+00
  0.00000000E+00  0.00000000E+00 -2.62247581E-02  0.00000000E+00  0.00000000E+00
  0.00000000E+00  0.00000000E+00  0.00000000E+00  0.00000000E+00  0.00000000E+00
  0.00000000E+00  0.00000000E+00  0.00000000E+00  0.00000000E+00  0.00000000E+00
  0.00000000E+00  0.00000000E+00  0.00000000E+00  0.00000000E+00  0.00000000E+00
  2.36518448E-01  0.00000000E+00  0.00000000E+00  0.00000000E+00  0.00000000E+00
  0.00000000E+00 -9.42421687E-04  0.00000000E+00  0.00000000E+00 -3.74963314E-02
  0.00000000E+00  0.00000000E+00 -6.06488579E-02  0.00000000E+00  0.00000000E+00
  0.00000000E+00 -9.07894695E-03  0.00000000E+00  0.00000000E+00  0.00000000E+00
  0.00000000E+00 -1.51482188E-01  0.00000000E+00  0.00000000E+00  0.00000000E+00
  0.00000000E+00  0.00000000E+00  0.00000000E+00  0.00000000E+00 -1.75182649E-01
  0.00000000E+00  0.00000000E+00 -3.03098794E-01  0.00000000E+00  0.00000000E+00
 -7.54977866E-02  0.00000000E+00  0.00000000E+00  0.00000000E+00 -3.09596781E-01
  0.00000000E+00  0.00000000E+00  0.00000000E+00  0.00000000E+00 -7.86742744E-02
  0.00000000E+00  0.00000000E+00  0.00000000E+00  0.00000000E+00  0.00000000E+00
  0.00000000E+00  0.00000000E+00  0.00000000E+00  0.00000000E+00  0.00000000E+00
  0.00000000E+00  0.00000000E+00  0.00000000E+00  0.00000000E+00  0.00000000E+00
  0.00000000E+00  0.00000000E+00  7.09555345E-01 -1.33030381E-04 -1.66607619E-02
 -9.90047034E-02 -1.08458186E-01  0.00000000E+00  0.00000000E+00 -2.35996144E-04
  0.00000000E+00  0.00000000E+00 -3.40495037E-02  0.00000000E+00  0.00000000E+00
 -2.09496218E-01 -1.61094577E-03  0.00000000E+00  0.00000000E+00  7.08227199E-04
  0.00000000E+00 -1.40444688E-01  0.00000000E+00  0.00000000E+00  3.57673417E-02
  0.00000000E+00 -3.02604226E-02 -1.91517993E-01 -2.47894725E-01 -1.38140097E-01
  0.00000000E+00  0.00000000E+00 -4.38682918E-02  0.00000000E+00  0.00000000E+00
 -2.75236620E-01  0.00000000E+00  0.00000000E+00 -2.60788106E-01 -3.53117186E-02
  0.00000000E+00  0.00000000E+00  1.26111709E-01  0.00000000E+00 -1.76534573E-01
  0.00000000E+00  0.00000000E+00  2.54732731E-01  0.00000000E+00 -1.86621370E-01
 -4.32246747E-01 -3.36623363E-01 -1.49740957E-01  0.00000000E+00  0.00000000E+00
  0.00000000E+00  0.00000000E+00  0.00000000E+00  0.00000000E+00  0.00000000E+00
  0.00000000E+00  0.00000000E+00  2.73107980E-01  0.00000000E+00  0.00000000E+00
  7.09555345E-01  0.00000000E+00  0.00000000E+00  0.00000000E+00  0.00000000E+00
  0.00000000E+00  0.00000000E+00  0.00000000E+00  0.00000000E+00  0.00000000E+00
  0.00000000E+00  0.00000000E+00  0.00000000E+00  0.00000000E+00  0.00000000E+00
  0.00000000E+00  0.00000000E+00  0.00000000E+00  7.08227199E-04  0.00000000E+00
  0.00000000E+00  0.00000000E+00  0.00000000E+00  3.57673417E-02  0.00000000E+00
  0.00000000E+00  0.00000000E+00  0.00000000E+00  0.00000000E+00  0.00000000E+00
  0.00000000E+00  0.00000000E+00  0.00000000E+00  0.00000000E+00  0.00000000E+00
  0.00000000E+00  0.00000000E+00  0.00000000E+00  0.00000000E+00  0.00000000E+00
  0.00000000E+00  1.26111709E-01  0.00000000E+00  0.00000000E+00  0.00000000E+00
  0.00000000E+00  2.54732731E-01  0.00000000E+00  0.00000000E+00  0.00000000E+00
  0.00000000E+00  0.00000000E+00  0.00000000E+00  0.00000000E+00  0.00000000E+00
  0.00000000E+00  0.00000000E+00  0.00000000E+00  0.00000000E+00  0.00000000E+00
  0.00000000E+00  0.00000000E+00  0.00000000E+00  0.00000000E+00  7.09555345E-01
  6.98418805E-02  2.62519125E-01 -8.29987503E-02 -5.91565027E-01  0.00000000E+00
  0.00000000E+00  4.87092958E-02  0.00000000E+00  0.00000000E+00  1.70638737E-01
  0.00000000E+00  0.00000000E+00 -6.76061972E-01 -4.83260093E-02  0.00000000E+00
  0.00000000E+00 -1.40444688E-01  0.00000000E+00 -2.64975137E-01  0.00000000E+00
  0.00000000E+00 -1.42923944E-01  0.00000000E+00  1.13764372E-01  5.72296388E-02
 -6.42093291E-01 -7.76872038E-01  0.00000000E+00  0.00000000E+00 -4.61918067E-02
  0.00000000E+00  0.00000000E+00 -4.72108771E-01  0.00000000E+00  0.00000000E+00
 -1.06938853E+00 -1.25362350E-01  0.00000000E+00  0.00000000E+00 -1.76534573E-01
  0.00000000E+00  1.81996114E-01  0.00000000E+00  0.00000000E+00  4.65458354E-01
  0.00000000E+00 -4.10760608E-02 -4.28456575E-01 -1.01378802E+00 -8.50326284E-01
  0.00000000E+00  0.00000000E+00  0.00000000E+00  0.00000000E+00  0.00000000E+00
  0.00000000E+00  0.00000000E+00  0.00000000E+00  0.00000000E+00  2.72286101E-01
  0.00000000E+00  0.00000000E+00  1.88645345E-01  0.00000000E+00  1.68690958E+00
  0.00000000E+00  0.00000000E+00  0.00000000E+00  0.00000000E+00 -2.54229743E-02
  0.00000000E+00  0.00000000E+00 -2.25658630E-01  0.00000000E+00  0.00000000E+00
 -4.62111720E-01  0.00000000E+00  0.00000000E+00  0.00000000E+00 -5.04940626E-02
  0.00000000E+00  0.00000000E+00  0.00000000E+00  0.00000000E+00 -4.48929630E-01
  0.00000000E+00  0.00000000E+00  0.00000000E+00  0.00000000E+00  0.00000000E+00
  0.00000000E+00  0.00000000E+00 -9.97613291E-02  0.00000000E+00  0.00000000E+00
 -4.95592759E-01  0.00000000E+00  0.00000000E+00 -4.68961899E-01  0.00000000E+00
  0.00000000E+00  0.00000000E+00 -2.62247581E-02  0.00000000E+00  0.00000000E+00
  0.00000000E+00  0.00000000E+00  1.30225160E-01  0.00000000E+00  0.00000000E+00
  0.00000000E+00  0.00000000E+00  0.00000000E+00  0.00000000E+00  0.00000000E+00
  0.00000000E+00  0.00000000E+00  0.00000000E+00  0.00000000E+00  0.00000000E+00
  0.00000000E+00  0.00000000E+00  0.00000000E+00  0.00000000E+00  0.00000000E+00
  1.63371661E-01  0.00000000E+00  0.00000000E+00  0.00000000E+00  0.00000000E+00
  1.01214575E+00  0.00000000E+00  0.00000000E+00  0.00000000E+00  0.00000000E+00
  0.00000000E+00 -7.62689228E-02  0.00000000E+00  0.00000000E+00 -6.76975891E-01
  0.00000000E+00  0.00000000E+00 -1.38633516E+00  0.00000000E+00  0.00000000E+00
  0.00000000E+00 -1.51482188E-01  0.00000000E+00  0.00000000E+00  0.00000000E+00
  0.00000000E+00 -1.34678889E+00  0.00000000E+00  0.00000000E+00  0.00000000E+00
  0.00000000E+00  0.00000000E+00  0.00000000E+00  0.00000000E+00 -2.99283987E-01
  0.00000000E+00  0.00000000E+00 -1.48677828E+00  0.00000000E+00  0.00000000E+00
 -1.40688570E+00  0.00000000E+00  0.00000000E+00  0.00000000E+00 -7.86742744E-02
  0.00000000E+00  0.00000000E+00  0.00000000E+00  0.00000000E+00  3.90675481E-01
  0.00000000E+00  0.00000000E+00  0.00000000E+00  0.00000000E+00  0.00000000E+00
  0.00000000E+00  0.00000000E+00  0.00000000E+00  0.00000000E+00  0.00000000E+00
  0.00000000E+00  0.00000000E+00  0.00000000E+00  0.00000000E+00  0.00000000E+00
  0.00000000E+00  0.00000000E+00  4.90114982E-01  0.00000000E+00  0.00000000E+00
  0.00000000E+00  0.00000000E+00  3.03643725E+00 -4.95597291E-03 -1.18241087E-01
 -6.80193425E-01 -1.09150894E+00  0.00000000E+00  0.00000000E+00 -4.46302391E-03
  0.00000000E+00  0.00000000E+00 -1.43653819E-01  0.00000000E+00  0.00000000E+00
 -1.11903524E+00  5.34591145E-03  0.00000000E+00  0.00000000E+00  3.57673417E-02
  0.00000000E+00 -1.42923944E-01  0.00000000E+00  0.00000000E+00  6.04134294E-01
  0.00000000E+00 -3.65465179E-02 -4.68851583E-01 -1.38527238E+00 -1.36651784E+00
  0.00000000E+00  0.00000000E+00 -1.75131829E-02  0.00000000E+00  0.00000000E+00
 -3.15493329E-01  0.00000000E+00  0.00000000E+00 -1.13562342E+00  8.30527673E-02
  0.00000000E+00  0.00000000E+00  2.54732731E-01  0.00000000E+00  4.65458354E-01
  0.00000000E+00  0.00000000E+00  2.02791707E+00  0.00000000E+00 -7.11458243E-02
 -7.42108557E-01 -1.75593236E+00 -1.47280833E+00  0.00000000E+00  0.00000000E+00
  0.00000000E+00  0.00000000E+00  0.00000000E+00  0.00000000E+00  0.00000000E+00
  0.00000000E+00  0.00000000E+00  1.88645345E-01  0.00000000E+00  0.00000000E+00
  4.90114982E-01  0.00000000E+00  1.16872524E+00  0.00000000E+00  0.00000000E+00
  3.03643725E+00  0.00000000E+00  0.00000000E+00  0.00000000E+00  0.00000000E+00
  0.00000000E+00  0.00000000E+00  0.00000000E+00  0.00000000E+00  0.00000000E+00
  0.00000000E+00  0.00000000E+00  0.00000000E+00  0.00000000E+00  0.00000000E+00
  0.00000000E+00  0.00000000E+00  0.00000000E+00  3.57673417E-02  0.00000000E+00
  0.00000000E+00  0.00000000E+00  0.00000000E+00  6.04134294E-01  0.00000000E+00
  0.00000000E+00  0.00000000E+00  0.00000000E+00  0.00000000E+00  0.00000000E+00
  0.00000000E+00  0.00000000E+00  0.00000000E+00  0.00000000E+00  0.00000000E+00
  0.00000000E+00  0.00000000E+00  0.00000000E+00  0.00000000E+00  0.00000000E+00
  0.00000000E+00  2.54732731E-01  0.00000000E+00  0.00000000E+00  0.00000000E+00
  0.00000000E+00  2.02791707E+00  0.00000000E+00  0.00000000E+00  0.00000000E+00
  0.00000000E+00  0.00000000E+00  0.00000000E+00  0.00000000E+00  0.00000000E+00
  0.00000000E+00  0.00000000E+00  0.00000000E+00  0.00000000E+00  0.00000000E+00
  0.00000000E+00  0.00000000E+00  0.00000000E+00  0.00000000E+00  4.90114982E-01
  0.00000000E+00  0.00000000E+00  0.00000000E+00  0.00000000E+00  3.03643725E+00
Multipole Matrix (1,0,1)                   R   N=        2415
  0.00000000E+00  0.00000000E+00  0.00000000E+00  0.00000000E+00  0.00000000E+00
  0.00000000E+00  0.00000000E+00  0.00000000E+00  0.00000000E+00  0.00000000E+00
 -7.54472341E-01 -8.54912665E-01 -5.07610660E-01 -2.02232006E-01  0.00000000E+00
  0.00000000E+00  0.00000000E+00  0.00000000E+00  0.00000000E+00  0.00000000E+00
  0.00000000E+00  0.00000000E+00  0.00000000E+00  0.00000000E+00  0.00000000E+00
  1.77683014E-01  0.00000000E+00  0.00000000E+00 -5.15179310E-01 -1.56864087E+00
 -1.68418293E+00 -9.03687251E-01  0.00000000E+00  0.00000000E+00  1.71287901E-01
  0.00000000E+00  0.00000000E+00  0.00000000E+00  0.00000000E+00  0.00000000E+00
  0.00000000E+00  0.00000000E+00  0.00000000E+00  0.00000000E+00  0.00000000E+00
  0.00000000E+00  0.00000000E+00  0.00000000E+00  0.00000000E+00  1.71287901E-01
  0.00000000E+00  0.00000000E+00  6.44329897E-01  0.00000000E+00  0.00000000E+00
 -1.60236147E-01 -1.06187523E+00 -2.82062505E+00 -3.23264001E+00  0.00000000E+00
  0.00000000E+00  5.91902931E-02  0.00000000E+00  0.00000000E+00  6.06245580E-01
  0.00000000E+00  0.00000000E+00  0.00000000E+00  0.00000000E+00  0.00000000E+00
  0.00000000E+00  0.00000000E+00  0.00000000E+00  0.00000000E+00  0.00000000E+00
  0.00000000E+00  0.00000000E+00  0.00000000E+00  0.00000000E+00  0.00000000E+00
  0.00000000E+00  0.00000000E+00  5.91902931E-02  0.00000000E+00  0.00000000E+00
  6.06245580E-01  0.00000000E+00  0.00000000E+00  2.45098039E+00  0.00000000E+00
  0.00000000E+00  0.00000000E+00  0.00000000E+00  0.00000000E+00  0.00000000E+00
  4.24558630E-01  0.00000000E+00  0.00000000E+00  5.49306459E-01  0.00000000E+00
  0.00000000E+00  2.23753946E-01  0.00000000E+00  0.00000000E+00  0.00000000E+00
  1.86621370E-01  4.32246747E-01  3.36623363E-01  1.49740957E-01  0.00000000E+00
  0.00000000E+00 -7.35357117E-01  0.00000000E+00  0.00000000E+00 -9.51426696E-01
  0.00000000E+00  0.00000000E+00 -3.87553202E-01  1.36553990E-01  0.00000000E+00
  0.00000000E+00  0.00000000E+00  0.00000000E+00  0.00000000E+00  0.00000000E+00
  0.00000000E+00  0.00000000E+00  0.00000000E+00  0.00000000E+00  0.00000000E+00
  0.00000000E+00  0.00000000E+00  0.00000000E+00  0.00000000E+00  0.00000000E+00
  0.00000000E+00  0.00000000E+00  0.00000000E+00  0.00000000E+00  0.00000000E+00
 -7.35357117E-01  0.00000000E+00  0.00000000E+00 -9.51426696E-01  0.00000000E+00
  0.00000000E+00 -3.87553202E-01  0.00000000E+00  0.00000000E+00  0.00000000E+00
  2.36518448E-01  0.00000000E+00  0.00000000E+00  0.00000000E+00  0.00000000E+00
  0.00000000E+00  0.00000000E+00  0.00000000E+00 -7.35357117E-01  0.00000000E+00
  0.00000000E+00 -9.51426696E-01  0.00000000E+00  0.00000000E+00 -3.87553202E-01
  0.00000000E+00  0.00000000E+00  0.00000000E+00  2.36518448E-01  0.00000000E+00
  0.00000000E+00  0.00000000E+00  0.00000000E+00  0.00000000E+00  0.00000000E+00
  1.34553286E-01  0.00000000E+00  0.00000000E+00  7.66889113E-01  0.00000000E+00
  0.00000000E+00  1.17290321E+00  0.00000000E+00  0.00000000E+00  0.00000000E+00
  9.43226723E-02  0.00000000E+00  0.00000000E+00  0.00000000E+00  0.00000000E+00
  7.11458243E-02  7.42108557E-01  1.75593236E+00  1.47280833E+00  0.00000000E+00
  0.00000000E+00 -2.33053127E-01  0.00000000E+00  0.00000000E+00 -1.32829091E+00
  0.00000000E+00  0.00000000E+00 -2.03152795E+00  9.43226723E-02  0.00000000E+00
  0.00000000E+00  1.63371661E-01  0.00000000E+00  5.84362621E-01  0.00000000E+00
  0.00000000E+00  0.00000000E+00  0.00000000E+00  0.00000000E+00  0.00000000E+00
  0.00000000E+00  0.00000000E+00  0.00000000E+00  0.00000000E+00  0.00000000E+00
  0.00000000E+00  0.00000000E+00  0.00000000E+00  0.00000000E+00  0.00000000E+00
  0.00000000E+00  0.00000000E+00  1.63371661E-01  0.00000000E+00  0.00000000E+00
  0.00000000E+00  0.00000000E+00  0.00000000E+00  0.00000000E+00  0.00000000E+00
 -2.33053127E-01  0.00000000E+00  0.00000000E+00 -1.32829091E+00  0.00000000E+00
  0.00000000E+00 -2.03152795E+00  0.00000000E+00  0.00000000E+00  0.00000000E+00
  1.63371661E-01  0.00000000E+00  0.00000000E+00  0.00000000E+00  0.00000000E+00
  1.01214575E+00  0.00000000E+00  0.00000000E+00  0.00000000E+00  0.00000000E+00
  0.00000000E+00  0.00000000E+00  0.00000000E+00 -2.33053127E-01  0.00000000E+00
  0.00000000E+00 -1.32829091E+00  0.00000000E+00  0.00000000E+00 -2.03152795E+00
  0.00000000E+00  0.00000000E+00  0.00000000E+00  1.63371661E-01  0.00000000E+00
  0.00000000E+00  0.00000000E+00  0.00000000E+00  1.01214575E+00  0.00000000E+00
  0.00000000E+00  0.00000000E+00  0.00000000E+00  0.00000000E+00  0.00000000E+00
 -4.88605901E-02  0.00000000E+00  0.00000000E+00 -4.88797369E-02  0.00000000E+00
  0.00000000E+00 -9.39939168E-03  0.00000000E+00  0.00000000E+00  0.00000000E+00
 -7.95229634E-02  0.00000000E+00  0.00000000E+00  0.00000000E+00  0.00000000E+00
 -1.21387872E-02  0.00000000E+00  0.00000000E+00  0.00000000E+00  0.00000000E+00
  0.00000000E+00  0.00000000E+00  0.00000000E+00  0.00000000E+00 -2.92390410E-01
  0.00000000E+00  0.00000000E+00 -4.77971888E-01  0.00000000E+00  0.00000000E+00
 -1.96412978E-01  0.00000000E+00  0.00000000E+00  0.00000000E+00 -1.20263332E-01
  0.00000000E+00  0.00000000E+00  0.00000000E+00  0.00000000E+00  3.82823866E-02
  0.00000000E+00  0.00000000E+00  0.00000000E+00  0.00000000E+00  0.00000000E+00
  0.00000000E+00  0.00000000E+00  0.00000000E+00  0.00000000E+00 -3.45998360E-01
  0.00000000E+00  0.00000000E+00 -1.02126423E+00  0.00000000E+00  0.00000000E+00
 -1.18901821E+00  0.00000000E+00  0.00000000E+00  0.00000000E+00  9.62159771E-02
  0.00000000E+00  0.00000000E+00  0.00000000E+00  0.00000000E+00  7.28428093E-01
  0.00000000E+00  0.00000000E+00  0.00000000E+00  0.00000000E+00  0.00000000E+00
  0.00000000E+00  0.00000000E+00  0.00000000E+00  0.00000000E+00  0.00000000E+00
 -1.83188977E-01  0.00000000E+00  0.00000000E+00 -7.85168674E-01  0.00000000E+00
  0.00000000E+00 -2.42508734E+00  0.00000000E+00  0.00000000E+00  0.00000000E+00
  1.15863595E-01  0.00000000E+00  0.00000000E+00  0.00000000E+00  0.00000000E+00
  1.16182055E+00  0.00000000E+00  0.00000000E+00  0.00000000E+00  0.00000000E+00
  0.00000000E+00  0.00000000E+00  0.00000000E+00 -4.10260438E-02 -6.77049009E-02
 -2.52551753E-02 -3.28880849E-03  0.00000000E+00  0.00000000E+00 -6.41510583E-02
  0.00000000E+00  0.00000000E+00 -6.26331004E-02  0.00000000E+00  0.00000000E+00
  1.64100473E-02 -4.02643844E-02  0.00000000E+00  0.00000000E+00 -4.38730193E-02
  0.00000000E+00  4.61982263E-02  0.00000000E+00  0.00000000E+00 -1.75134222E-02
  0.00000000E+00  0.00000000E+00  0.00000000E+00  0.00000000E+00  0.00000000E+00
  0.00000000E+00  0.00000000E+00  0.00000000E+00  0.00000000E+00  0.00000000E+00
  0.00000000E+00  0.00000000E+00  0.00000000E+00  0.00000000E+00  0.00000000E+00
  0.00000000E+00  0.00000000E+00  0.00000000E+00  0.00000000E+00  0.00000000E+00
  0.00000000E+00  0.00000000E+00  0.00000000E+00 -4.38730193E-02  0.00000000E+00
  0.00000000E+00  0.00000000E+00  0.00000000E+00 -1.75134222E-02  0.00000000E+00
  0.00000000E+00  0.00000000E+00  0.00000000E+00  0.00000000E+00  0.00000000E+00
  0.00000000E+00  0.00000000E+00  0.00000000E+00  0.00000000E+00  9.98041579E-02
  0.00000000E+00  0.00000000E+00  9.81442105E-02  0.00000000E+00  0.00000000E+00
  4.53313462E-02  0.00000000E+00  0.00000000E+00  0.00000000E+00  1.43751553E-01
  0.00000000E+00  0.00000000E+00  0.00000000E+00  0.00000000E+00  8.87900196E-02
  0.00000000E+00  0.00000000E+00  0.00000000E+00  0.00000000E+00  0.00000000E+00
  0.00000000E+00  0.00000000E+00  1.77683014E-01  0.00000000E+00  0.00000000E+00
 -1.49204129E-01 -4.01348560E-01 -2.70319166E-01 -5.11169090E-02  0.00000000E+00
  0.00000000E+00 -6.26331004E-02  0.00000000E+00  0.00000000E+00 -9.16410629E-02
  0.00000000E+00  0.00000000E+00  2.19777996E-01  1.67356575E-01  0.00000000E+00
  0.00000000E+00 -2.75245232E-01  0.00000000E+00  4.72129194E-01  0.00000000E+00
  0.00000000E+00 -3.15493174E-01  0.00000000E+00  0.00000000E+00  0.00000000E+00
  0.00000000E+00  0.00000000E+00  0.00000000E+00  0.00000000E+00  1.71287901E-01
  0.00000000E+00  0.00000000E+00  0.00000000E+00  0.00000000E+00  0.00000000E+00
  0.00000000E+00  0.00000000E+00  0.00000000E+00  0.00000000E+00  0.00000000E+00
  0.00000000E+00  0.00000000E+00  0.00000000E+00  0.00000000E+00  0.00000000E+00
  0.00000000E+00  0.00000000E+00  0.00000000E+00 -2.75245232E-01  0.00000000E+00
  0.00000000E+00  0.00000000E+00  0.00000000E+00 -3.15493174E-01  0.00000000E+00
  0.00000000E+00  0.00000000E+00  0.00000000E+00  0.00000000E+00  0.00000000E+00
  0.00000000E+00  0.00000000E+00  0.00000000E+00  0.00000000E+00  0.00000000E+00
  0.00000000E+00  0.00000000E+00  5.20391839E-01  0.00000000E+00  0.00000000E+00
  7.75184643E-01  0.00000000E+00  0.00000000E+00  5.30211010E-01  0.00000000E+00
  0.00000000E+00  0.00000000E+00  6.11946615E-02  0.00000000E+00  0.00000000E+00
  0.00000000E+00  0.00000000E+00  1.75855741E-01  0.00000000E+00  0.00000000E+00
  0.00000000E+00  0.00000000E+00  0.00000000E+00  0.00000000E+00  0.00000000E+00
  1.71287901E-01  0.00000000E+00  0.00000000E+00  6.44329897E-01  0.00000000E+00
  0.00000000E+00 -1.08501758E-01 -6.27366160E-01 -1.19717814E+00 -6.00565747E-01
  0.00000000E+00  0.00000000E+00  1.64100473E-02  0.00000000E+00  0.00000000E+00
  2.19777996E-01  0.00000000E+00  0.00000000E+00  1.38302271E+00  1.70787719E-01
  0.00000000E+00  0.00000000E+00 -2.60784367E-01  0.00000000E+00  1.06937722E+00
  0.00000000E+00  0.00000000E+00 -1.13560148E+00  0.00000000E+00  0.00000000E+00
  0.00000000E+00  0.00000000E+00  0.00000000E+00  0.00000000E+00  0.00000000E+00
  5.91902931E-02  0.00000000E+00  0.00000000E+00  6.06245580E-01  0.00000000E+00
  0.00000000E+00  0.00000000E+00  0.00000000E+00  0.00000000E+00  0.00000000E+00
  0.00000000E+00  0.00000000E+00  0.00000000E+00  0.00000000E+00  0.00000000E+00
  0.00000000E+00  0.00000000E+00  0.00000000E+00  0.00000000E+00  0.00000000E+00
  0.00000000E+00  0.00000000E+00 -2.60784367E-01  0.00000000E+00  0.00000000E+00
  0.00000000E+00  0.00000000E+00 -1.13560148E+00  0.00000000E+00  0.00000000E+00
  0.00000000E+00  0.00000000E+00  0.00000000E+00  0.00000000E+00  0.00000000E+00
  0.00000000E+00  0.00000000E+00  0.00000000E+00  0.00000000E+00  0.00000000E+00
  0.00000000E+00  0.00000000E+00  0.00000000E+00  0.00000000E+00  4.15353847E-01
  0.00000000E+00  0.00000000E+00  1.40064083E+00  0.00000000E+00  0.00000000E+00
  2.76630949E+00  0.00000000E+00  0.00000000E+00  0.00000000E+00 -3.37827290E-01
  0.00000000E+00  0.00000000E+00  0.00000000E+00  0.00000000E+00 -1.26637760E+00
  0.00000000E+00  0.00000000E+00  0.00000000E+00  0.00000000E+00  0.00000000E+00
  0.00000000E+00  0.00000000E+00  5.91902931E-02  0.00000000E+00  0.00000000E+00
  6.06245580E-01  0.00000000E+00  0.00000000E+00  2.45098039E+00  0.00000000E+00
  0.00000000E+00  0.00000000E+00  0.00000000E+00  0.00000000E+00  0.00000000E+00
 -2.10796664E-01  0.00000000E+00  0.00000000E+00 -9.80592634E-02  0.00000000E+00
  0.00000000E+00 -1.53819112E-02  0.00000000E+00  0.00000000E+00  0.00000000E+00
 -9.77119161E-02  0.00000000E+00  0.00000000E+00  0.00000000E+00  0.00000000E+00
  1.02208346E-02  0.00000000E+00  0.00000000E+00  0.00000000E+00  0.00000000E+00
  0.00000000E+00  0.00000000E+00  0.00000000E+00  0.00000000E+00  0.00000000E+00
  0.00000000E+00  0.00000000E+00  0.00000000E+00  0.00000000E+00  0.00000000E+00
  0.00000000E+00  0.00000000E+00  0.00000000E+00  1.54925042E-01  2.87633536E-01
  2.62638191E-01  1.38673292E-01  0.00000000E+00  0.00000000E+00  1.57485998E-01
  0.00000000E+00  0.00000000E+00  2.60620374E-01  0.00000000E+00  0.00000000E+00
  2.25755728E-01 -2.14547311E-02  0.00000000E+00  0.00000000E+00  1.87286444E-01
  0.00000000E+00  1.35929192E-01  0.00000000E+00  0.00000000E+00  1.10884528E-01
  0.00000000E+00  1.86621370E-01  4.32246747E-01  3.36623363E-01  1.49740957E-01
  0.00000000E+00  0.00000000E+00  0.00000000E+00  0.00000000E+00  0.00000000E+00
  0.00000000E+00  0.00000000E+00  0.00000000E+00  0.00000000E+00  1.36553990E-01
  0.00000000E+00  0.00000000E+00  0.00000000E+00  0.00000000E+00  0.00000000E+00
  0.00000000E+00  0.00000000E+00  0.00000000E+00  0.00000000E+00  0.00000000E+00
  0.00000000E+00  0.00000000E+00  0.00000000E+00  0.00000000E+00  0.00000000E+00
  0.00000000E+00  0.00000000E+00  0.00000000E+00  1.87286444E-01  0.00000000E+00
  0.00000000E+00  0.00000000E+00  0.00000000E+00  1.10884528E-01  0.00000000E+00
  0.00000000E+00  0.00000000E+00  0.00000000E+00  0.00000000E+00  0.00000000E+00
  0.00000000E+00  0.00000000E+00  0.00000000E+00  0.00000000E+00  0.00000000E+00
  0.00000000E+00  0.00000000E+00  0.00000000E+00  0.00000000E+00  0.00000000E+00
  0.00000000E+00  0.00000000E+00  0.00000000E+00  0.00000000E+00 -5.84005092E-02
  0.00000000E+00  0.00000000E+00 -1.01036093E-01  0.00000000E+00  0.00000000E+00
 -2.51655680E-02  0.00000000E+00  0.00000000E+00  0.00000000E+00 -1.03201344E-01
  0.00000000E+00  0.00000000E+00  0.00000000E+00  0.00000000E+00 -2.62178822E-02
  0.00000000E+00  0.00000000E+00  0.00000000E+00  0.00000000E+00  0.00000000E+00
  0.00000000E+00  0.00000000E+00  0.00000000E+00  0.00000000E+00  0.00000000E+00
  0.00000000E+00  0.00000000E+00  0.00000000E+00  0.00000000E+00  0.00000000E+00
  0.00000000E+00  0.00000000E+00  2.36518448E-01  0.00000000E+00  0.00000000E+00
  0.00000000E+00  0.00000000E+00  0.00000000E+00  0.00000000E+00  0.00000000E+00
 -5.84005092E-02  0.00000000E+00  0.00000000E+00 -1.01036093E-01  0.00000000E+00
  0.00000000E+00 -2.51655680E-02  0.00000000E+00  0.00000000E+00  0.00000000E+00
 -1.03201344E-01  0.00000000E+00  0.00000000E+00  0.00000000E+00  0.00000000E+00
 -2.62178822E-02  0.00000000E+00  0.00000000E+00  0.00000000E+00  0.00000000E+00
  0.00000000E+00  0.00000000E+00  0.00000000E+00  0.00000000E+00  0.00000000E+00
  0.00000000E+00  0.00000000E+00  0.00000000E+00  0.00000000E+00  0.00000000E+00
  0.00000000E+00  0.00000000E+00  0.00000000E+00  2.36518448E-01  0.00000000E+00
  0.00000000E+00  0.00000000E+00  0.00000000E+00  0.00000000E+00  0.00000000E+00
 -5.08232132E-01  0.00000000E+00  0.00000000E+00 -7.29552927E-01  0.00000000E+00
  0.00000000E+00 -3.23510353E-01  0.00000000E+00  0.00000000E+00  0.00000000E+00
  4.49235651E-01  0.00000000E+00  0.00000000E+00  0.00000000E+00  0.00000000E+00
  7.66074996E-01  0.00000000E+00  0.00000000E+00  0.00000000E+00  0.00000000E+00
  0.00000000E+00  0.00000000E+00  0.00000000E+00  0.00000000E+00  0.00000000E+00
  0.00000000E+00  0.00000000E+00  0.00000000E+00  0.00000000E+00  0.00000000E+00
  0.00000000E+00  0.00000000E+00  0.00000000E+00  9.43226723E-02  0.00000000E+00
  0.00000000E+00  0.00000000E+00  0.00000000E+00  2.70134823E-01  1.03682109E+00
  1.65841535E+00  1.38745992E+00  0.00000000E+00  0.00000000E+00 -4.49908309E-02
  0.00000000E+00  0.00000000E+00 -1.86765404E-01  0.00000000E+00  0.00000000E+00
  4.18987294E-01 -3.83232361E-01  0.00000000E+00  0.00000000E+00  5.60491621E-01
  0.00000000E+00 -6.15653384E-01  0.00000000E+00  0.00000000E+00  1.22171571E+00
  0.00000000E+00  7.11458243E-02  7.42108557E-01  1.75593236E+00  1.47280833E+00
  0.00000000E+00  0.00000000E+00  0.00000000E+00  0.00000000E+00  0.00000000E+00
  0.00000000E+00  0.00000000E+00  0.00000000E+00  0.00000000E+00  9.43226723E-02
  0.00000000E+00  0.00000000E+00  1.63371661E-01  0.00000000E+00  5.84362621E-01
  0.00000000E+00  0.00000000E+00  0.00000000E+00  0.00000000E+00  0.00000000E+00
  0.00000000E+00  0.00000000E+00  0.00000000E+00  0.00000000E+00  0.00000000E+00
  0.00000000E+00  0.00000000E+00  0.00000000E+00  0.00000000E+00  0.00000000E+00
  0.00000000E+00  0.00000000E+00  0.00000000E+00  5.60491621E-01  0.00000000E+00
  0.00000000E+00  0.00000000E+00  0.00000000E+00  1.22171571E+00  0.00000000E+00
  0.00000000E+00  0.00000000E+00  0.00000000E+00  0.00000000E+00  0.00000000E+00
  0.00000000E+00  0.00000000E+00  0.00000000E+00  0.00000000E+00  0.00000000E+00
  0.00000000E+00  0.00000000E+00  0.00000000E+00  0.00000000E+00  0.00000000E+00
  0.00000000E+00  1.63371661E-01  0.00000000E+00  0.00000000E+00  0.00000000E+00
  0.00000000E+00  0.00000000E+00  0.00000000E+00  0.00000000E+00 -9.97626923E-02
  0.00000000E+00  0.00000000E+00 -4.95592516E-01  0.00000000E+00  0.00000000E+00
 -4.68952839E-01  0.00000000E+00  0.00000000E+00  0.00000000E+00 -2.62178822E-02
  0.00000000E+00  0.00000000E+00  0.00000000E+00  0.00000000E+00  1.30268937E-01
  0.00000000E+00  0.00000000E+00  0.00000000E+00  0.00000000E+00  0.00000000E+00
  0.00000000E+00  0.00000000E+00  0.00000000E+00  0.00000000E+00  0.00000000E+00
  0.00000000E+00  0.00000000E+00  0.00000000E+00  0.00000000E+00  0.00000000E+00
  0.00000000E+00  0.00000000E+00  1.63371661E-01  0.00000000E+00  0.00000000E+00
  0.00000000E+00  0.00000000E+00  1.01214575E+00  0.00000000E+00  0.00000000E+00
  0.00000000E+00  0.00000000E+00  0.00000000E+00  0.00000000E+00  0.00000000E+00
 -9.97626923E-02  0.00000000E+00  0.00000000E+00 -4.95592516E-01  0.00000000E+00
  0.00000000E+00 -4.68952839E-01  0.00000000E+00  0.00000000E+00  0.00000000E+00
 -2.62178822E-02  0.00000000E+00  0.00000000E+00  0.00000000E+00  0.00000000E+00
  1.30268937E-01  0.00000000E+00  0.00000000E+00  0.00000000E+00  0.00000000E+00
  0.00000000E+00  0.00000000E+00  0.00000000E+00  0.00000000E+00  0.00000000E+00
  0.00000000E+00  0.00000000E+00  0.00000000E+00  0.00000000E+00  0.00000000E+00
  0.00000000E+00  0.00000000E+00  0.00000000E+00  1.63371661E-01  0.00000000E+00
  0.00000000E+00  0.00000000E+00  0.00000000E+00  1.01214575E+00  0.00000000E+00
  0.00000000E+00  0.00000000E+00  0.00000000E+00  0.00000000E+00  0.00000000E+00
 -1.68214663E-05  0.00000000E+00  0.00000000E+00  5.69178483E-03  0.00000000E+00
  0.00000000E+00  3.94733692E-02  0.00000000E+00  0.00000000E+00  0.00000000E+00
  2.27458768E-04  0.00000000E+00  0.00000000E+00  0.00000000E+00  0.00000000E+00
  5.47188702E-02  0.00000000E+00  0.00000000E+00  0.00000000E+00  0.00000000E+00
  0.00000000E+00  0.00000000E+00  0.00000000E+00  4.10211972E-02  0.00000000E+00
  0.00000000E+00  1.49199146E-01  0.00000000E+00  0.00000000E+00  1.08503291E-01
  0.00000000E+00  0.00000000E+00  0.00000000E+00  1.54913238E-01  0.00000000E+00
  0.00000000E+00  0.00000000E+00  0.00000000E+00  2.70138708E-01  0.00000000E+00
  0.00000000E+00  0.00000000E+00  0.00000000E+00  0.00000000E+00  0.00000000E+00
  0.00000000E+00  0.00000000E+00 -1.67881357E-02  0.00000000E+00  0.00000000E+00
 -1.34931062E-02  0.00000000E+00  0.00000000E+00  2.01209730E-01  0.00000000E+00
  0.00000000E+00  0.00000000E+00 -2.08639575E-02  0.00000000E+00  0.00000000E+00
  0.00000000E+00  0.00000000E+00  1.87537406E-01  0.00000000E+00  0.00000000E+00
  0.00000000E+00  0.00000000E+00  0.00000000E+00  0.00000000E+00  0.00000000E+00
  6.77030944E-02  0.00000000E+00  0.00000000E+00  4.01346245E-01  0.00000000E+00
  0.00000000E+00  6.27377457E-01  0.00000000E+00  0.00000000E+00  0.00000000E+00
  2.87623437E-01  0.00000000E+00  0.00000000E+00  0.00000000E+00  0.00000000E+00
  1.03682781E+00  0.00000000E+00  0.00000000E+00  0.00000000E+00  0.00000000E+00
  0.00000000E+00  0.00000000E+00  0.00000000E+00  0.00000000E+00  0.00000000E+00
 -1.25474622E-01  0.00000000E+00  0.00000000E+00 -3.38676570E-01  0.00000000E+00
  0.00000000E+00  4.96687294E-03  0.00000000E+00  0.00000000E+00  0.00000000E+00
 -1.03822711E-02  0.00000000E+00  0.00000000E+00  0.00000000E+00  0.00000000E+00
  3.03347306E-01  0.00000000E+00  0.00000000E+00  0.00000000E+00  0.00000000E+00
  0.00000000E+00  0.00000000E+00  0.00000000E+00  2.52555211E-02  0.00000000E+00
  0.00000000E+00  2.70323806E-01  0.00000000E+00  0.00000000E+00  1.19720729E+00
  0.00000000E+00  0.00000000E+00  0.00000000E+00  2.62633390E-01  0.00000000E+00
  0.00000000E+00  0.00000000E+00  0.00000000E+00  1.65840656E+00  0.00000000E+00
  0.00000000E+00  0.00000000E+00  0.00000000E+00  0.00000000E+00  0.00000000E+00
  0.00000000E+00  0.00000000E+00  0.00000000E+00  0.00000000E+00 -1.41045020E-01
  0.00000000E+00  0.00000000E+00 -5.81741460E-01  0.00000000E+00  0.00000000E+00
 -1.49597706E+00  0.00000000E+00  0.00000000E+00  0.00000000E+00  7.43125083E-02
  0.00000000E+00  0.00000000E+00  0.00000000E+00  0.00000000E+00  7.97932756E-01
  0.00000000E+00  0.00000000E+00  0.00000000E+00  0.00000000E+00  0.00000000E+00
  0.00000000E+00  0.00000000E+00  3.28890929E-03  0.00000000E+00  0.00000000E+00
  5.11184892E-02  0.00000000E+00  0.00000000E+00  6.00584811E-01  0.00000000E+00
  0.00000000E+00  0.00000000E+00  1.38672512E-01  0.00000000E+00  0.00000000E+00
  0.00000000E+00  0.00000000E+00  1.38745385E+00  0.00000000E+00  0.00000000E+00
  0.00000000E+00  0.00000000E+00  0.00000000E+00  0.00000000E+00  0.00000000E+00
  1.68278413E-05  1.67891200E-02  1.25479936E-01  1.41050369E-01  0.00000000E+00
  0.00000000E+00  1.80024425E-05  0.00000000E+00  0.00000000E+00  3.67633858E-02
  0.00000000E+00  0.00000000E+00  2.88638144E-01  8.14146611E-04  0.00000000E+00
  0.00000000E+00  3.90772408E-05  0.00000000E+00  2.12671741E-01  0.00000000E+00
  0.00000000E+00  1.04802485E-02  0.00000000E+00  4.88549211E-02  2.92382609E-01
  3.46003098E-01  1.83194591E-01  0.00000000E+00  0.00000000E+00  9.97933654E-02
  0.00000000E+00  0.00000000E+00  5.20387427E-01  0.00000000E+00  0.00000000E+00
  4.15371618E-01  2.10786905E-01  0.00000000E+00  0.00000000E+00  5.83942163E-02
  0.00000000E+00  5.08258160E-01  0.00000000E+00  0.00000000E+00  9.97613291E-02
  0.00000000E+00  7.54499943E-01  8.54943942E-01  5.07629231E-01  2.02239405E-01
  0.00000000E+00  0.00000000E+00  0.00000000E+00  0.00000000E+00  0.00000000E+00
  0.00000000E+00  0.00000000E+00  0.00000000E+00  0.00000000E+00  0.00000000E+00
  0.00000000E+00  0.00000000E+00  0.00000000E+00  0.00000000E+00  0.00000000E+00
  0.00000000E+00  0.00000000E+00  0.00000000E+00  3.90772408E-05  0.00000000E+00
  0.00000000E+00  0.00000000E+00  0.00000000E+00  1.04802485E-02  0.00000000E+00
  0.00000000E+00  0.00000000E+00  0.00000000E+00  0.00000000E+00  0.00000000E+00
  0.00000000E+00  0.00000000E+00  0.00000000E+00  0.00000000E+00  0.00000000E+00
  0.00000000E+00  0.00000000E+00  0.00000000E+00  0.00000000E+00  0.00000000E+00
  0.00000000E+00  5.83942163E-02  0.00000000E+00  0.00000000E+00  0.00000000E+00
  0.00000000E+00  9.97613291E-02  0.00000000E+00  0.00000000E+00  0.00000000E+00
  0.00000000E+00  0.00000000E+00  0.00000000E+00  0.00000000E+00  0.00000000E+00
  0.00000000E+00  0.00000000E+00  1.79903315E-05  0.00000000E+00  0.00000000E+00
 -6.03934087E-03  0.00000000E+00  0.00000000E+00 -2.61680576E-03  0.00000000E+00
  0.00000000E+00  0.00000000E+00 -4.99503968E-04  0.00000000E+00  0.00000000E+00
  0.00000000E+00  0.00000000E+00 -2.61391633E-02  0.00000000E+00  0.00000000E+00
  0.00000000E+00  0.00000000E+00  0.00000000E+00  0.00000000E+00  0.00000000E+00
 -6.41462636E-02  0.00000000E+00  0.00000000E+00 -6.26377656E-02  0.00000000E+00
  0.00000000E+00  1.64077009E-02  0.00000000E+00  0.00000000E+00  0.00000000E+00
 -1.57485886E-01  0.00000000E+00  0.00000000E+00  0.00000000E+00  0.00000000E+00
  4.49801903E-02  0.00000000E+00  0.00000000E+00  0.00000000E+00  0.00000000E+00
  0.00000000E+00  0.00000000E+00  0.00000000E+00  1.77683014E-01  0.00000000E+00
  0.00000000E+00 -5.69137047E-03  1.34987722E-02  3.38697881E-01  5.81765707E-01
  0.00000000E+00  0.00000000E+00 -6.03874465E-03  0.00000000E+00  0.00000000E+00
  5.10058516E-02  0.00000000E+00  0.00000000E+00  8.35310319E-01  3.70638921E-03
  0.00000000E+00  0.00000000E+00 -1.07749375E-02  0.00000000E+00  3.83655548E-01
  0.00000000E+00  0.00000000E+00  4.10057835E-02  0.00000000E+00  4.88781219E-02
  4.77969131E-01  1.02128176E+00  7.85192945E-01  0.00000000E+00  0.00000000E+00
  9.81396152E-02  0.00000000E+00  0.00000000E+00  7.75180391E-01  0.00000000E+00
  0.00000000E+00  1.40068220E+00  9.80591018E-02  0.00000000E+00  0.00000000E+00
  1.01032931E-01  0.00000000E+00  7.29585730E-01  0.00000000E+00  0.00000000E+00
  4.95592759E-01  0.00000000E+00  5.15198157E-01  1.56869826E+00  1.68424455E+00
  9.03720312E-01  0.00000000E+00  0.00000000E+00  1.71287901E-01  0.00000000E+00
  0.00000000E+00  0.00000000E+00  0.00000000E+00  0.00000000E+00  0.00000000E+00
  0.00000000E+00  0.00000000E+00  0.00000000E+00  0.00000000E+00  0.00000000E+00
  0.00000000E+00  0.00000000E+00  0.00000000E+00  0.00000000E+00  0.00000000E+00
  0.00000000E+00  0.00000000E+00 -1.07749375E-02  0.00000000E+00  0.00000000E+00
  0.00000000E+00  0.00000000E+00  4.10057835E-02  0.00000000E+00  0.00000000E+00
  0.00000000E+00  0.00000000E+00  0.00000000E+00  0.00000000E+00  0.00000000E+00
  0.00000000E+00  0.00000000E+00  0.00000000E+00  0.00000000E+00  0.00000000E+00
  0.00000000E+00  0.00000000E+00  0.00000000E+00  0.00000000E+00  0.00000000E+00
  1.01032931E-01  0.00000000E+00  0.00000000E+00  0.00000000E+00  0.00000000E+00
  4.95592759E-01  0.00000000E+00  0.00000000E+00  0.00000000E+00  0.00000000E+00
  0.00000000E+00  0.00000000E+00  0.00000000E+00  0.00000000E+00  0.00000000E+00
  0.00000000E+00  0.00000000E+00  0.00000000E+00  0.00000000E+00  3.67612237E-02
  0.00000000E+00  0.00000000E+00  5.09963867E-02  0.00000000E+00  0.00000000E+00
  4.67364438E-02  0.00000000E+00  0.00000000E+00  0.00000000E+00  4.76381222E-02
  0.00000000E+00  0.00000000E+00  0.00000000E+00  0.00000000E+00 -3.88122346E-02
  0.00000000E+00  0.00000000E+00  0.00000000E+00  0.00000000E+00  0.00000000E+00
  0.00000000E+00  0.00000000E+00 -6.26377656E-02  0.00000000E+00  0.00000000E+00
 -9.16685230E-02  0.00000000E+00  0.00000000E+00  2.19755765E-01  0.00000000E+00
  0.00000000E+00  0.00000000E+00 -2.60625934E-01  0.00000000E+00  0.00000000E+00
  0.00000000E+00  0.00000000E+00  1.86729720E-01  0.00000000E+00  0.00000000E+00
  0.00000000E+00  0.00000000E+00  0.00000000E+00  0.00000000E+00  0.00000000E+00
  1.71287901E-01  0.00000000E+00  0.00000000E+00  6.44329897E-01  0.00000000E+00
  0.00000000E+00 -3.94716509E-02 -2.01195660E-01 -4.91401892E-03  1.49606782E+00
  0.00000000E+00  0.00000000E+00 -2.61597295E-03  0.00000000E+00  0.00000000E+00
  4.67467324E-02  0.00000000E+00  0.00000000E+00  1.25826852E+00  6.51578480E-02
  0.00000000E+00  0.00000000E+00 -9.46378652E-02  0.00000000E+00  5.75414381E-01
  0.00000000E+00  0.00000000E+00 -3.28447301E-01  0.00000000E+00  9.39952475E-03
  1.96416515E-01  1.18904716E+00  2.42516432E+00  0.00000000E+00  0.00000000E+00
  4.53304582E-02  0.00000000E+00  0.00000000E+00  5.30205497E-01  0.00000000E+00
  0.00000000E+00  2.76632635E+00  1.53821942E-02  0.00000000E+00  0.00000000E+00
  2.51659289E-02  0.00000000E+00  3.23520464E-01  0.00000000E+00  0.00000000E+00
  4.68961899E-01  0.00000000E+00  1.60242009E-01  1.06191408E+00  2.82072824E+00
  3.23275828E+00  0.00000000E+00  0.00000000E+00  5.91902931E-02  0.00000000E+00
  0.00000000E+00  6.06245580E-01  0.00000000E+00  0.00000000E+00  0.00000000E+00
  0.00000000E+00  0.00000000E+00  0.00000000E+00  0.00000000E+00  0.00000000E+00
  0.00000000E+00  0.00000000E+00  0.00000000E+00  0.00000000E+00  0.00000000E+00
  0.00000000E+00  0.00000000E+00  0.00000000E+00  0.00000000E+00  0.00000000E+00
 -9.46378652E-02  0.00000000E+00  0.00000000E+00  0.00000000E+00  0.00000000E+00
 -3.28447301E-01  0.00000000E+00  0.00000000E+00  0.00000000E+00  0.00000000E+00
  0.00000000E+00  0.00000000E+00  0.00000000E+00  0.00000000E+00  0.00000000E+00
  0.00000000E+00  0.00000000E+00  0.00000000E+00  0.00000000E+00  0.00000000E+00
  0.00000000E+00  0.00000000E+00  0.00000000E+00  2.51659289E-02  0.00000000E+00
  0.00000000E+00  0.00000000E+00  0.00000000E+00  4.68961899E-01  0.00000000E+00
  0.00000000E+00  0.00000000E+00  0.00000000E+00  0.00000000E+00  0.00000000E+00
  0.00000000E+00  0.00000000E+00  0.00000000E+00  0.00000000E+00  0.00000000E+00
  0.00000000E+00  0.00000000E+00  0.00000000E+00  0.00000000E+00  0.00000000E+00
  2.88626657E-01  0.00000000E+00  0.00000000E+00  8.35271182E-01  0.00000000E+00
  0.00000000E+00  1.25820713E+00  0.00000000E+00  0.00000000E+00  0.00000000E+00
 -5.37225352E-02  0.00000000E+00  0.00000000E+00  0.00000000E+00  0.00000000E+00
 -3.65391626E-01  0.00000000E+00  0.00000000E+00  0.00000000E+00  0.00000000E+00
  0.00000000E+00  0.00000000E+00  0.00000000E+00  1.64077009E-02  0.00000000E+00
  0.00000000E+00  2.19755765E-01  0.00000000E+00  0.00000000E+00  1.38295523E+00
  0.00000000E+00  0.00000000E+00  0.00000000E+00 -2.25760084E-01  0.00000000E+00
  0.00000000E+00  0.00000000E+00  0.00000000E+00 -4.19011581E-01  0.00000000E+00
  0.00000000E+00  0.00000000E+00  0.00000000E+00  0.00000000E+00  0.00000000E+00
  0.00000000E+00  5.91902931E-02  0.00000000E+00  0.00000000E+00  6.06245580E-01
  0.00000000E+00  0.00000000E+00  2.45098039E+00  0.00000000E+00  0.00000000E+00
  0.00000000E+00  0.00000000E+00  0.00000000E+00  0.00000000E+00 -8.14030365E-04
  0.00000000E+00  0.00000000E+00 -3.70554162E-03  0.00000000E+00  0.00000000E+00
 -6.51597045E-02  0.00000000E+00  0.00000000E+00  0.00000000E+00 -1.74687139E-03
  0.00000000E+00  0.00000000E+00  0.00000000E+00  0.00000000E+00 -7.11855562E-02
  0.00000000E+00  0.00000000E+00  0.00000000E+00  0.00000000E+00  0.00000000E+00
  0.00000000E+00  0.00000000E+00  4.02697786E-02  0.00000000E+00  0.00000000E+00
 -1.67343420E-01  0.00000000E+00  0.00000000E+00 -1.70789521E-01  0.00000000E+00
  0.00000000E+00  0.00000000E+00 -2.14341688E-02  0.00000000E+00  0.00000000E+00
  0.00000000E+00  0.00000000E+00 -3.83239494E-01  0.00000000E+00  0.00000000E+00
  0.00000000E+00  0.00000000E+00  0.00000000E+00  0.00000000E+00  0.00000000E+00
 -4.24574162E-01  0.00000000E+00  0.00000000E+00 -5.49326555E-01  0.00000000E+00
  0.00000000E+00 -2.23762132E-01  0.00000000E+00  0.00000000E+00  0.00000000E+00
  2.27384953E-04 -2.08665538E-02 -1.03871344E-02  7.43111979E-02  0.00000000E+00
  0.00000000E+00  4.99355213E-04  0.00000000E+00  0.00000000E+00 -4.76435897E-02
  0.00000000E+00  0.00000000E+00  5.37165164E-02 -1.74761692E-03  0.00000000E+00
  0.00000000E+00  2.36016057E-04  0.00000000E+00 -8.83360270E-02  0.00000000E+00
  0.00000000E+00 -1.19937599E-02  0.00000000E+00 -7.95204099E-02 -1.20278982E-01
  9.62027246E-02  1.15861281E-01  0.00000000E+00  0.00000000E+00 -1.43748727E-01
  0.00000000E+00  0.00000000E+00 -6.12301101E-02  0.00000000E+00  0.00000000E+00
  3.37820530E-01 -9.77296879E-02  0.00000000E+00  0.00000000E+00 -1.03198927E-01
  0.00000000E+00  4.49217129E-01  0.00000000E+00  0.00000000E+00 -2.62247581E-02
  0.00000000E+00  1.86621370E-01  4.32246747E-01  3.36623363E-01  1.49740957E-01
  0.00000000E+00  0.00000000E+00  7.35384020E-01  0.00000000E+00  0.00000000E+00
  9.51461503E-01  0.00000000E+00  0.00000000E+00  3.87567381E-01  1.36553990E-01
  0.00000000E+00  0.00000000E+00  0.00000000E+00  0.00000000E+00  0.00000000E+00
  0.00000000E+00  0.00000000E+00  0.00000000E+00  0.00000000E+00  0.00000000E+00
  0.00000000E+00  0.00000000E+00  0.00000000E+00  0.00000000E+00  0.00000000E+00
  0.00000000E+00  0.00000000E+00  0.00000000E+00  2.36016057E-04  0.00000000E+00
  0.00000000E+00  0.00000000E+00  0.00000000E+00 -1.19937599E-02  0.00000000E+00
  0.00000000E+00  0.00000000E+00  0.00000000E+00  0.00000000E+00  0.00000000E+00
  0.00000000E+00  0.00000000E+00  0.00000000E+00  0.00000000E+00  0.00000000E+00
  0.00000000E+00  0.00000000E+00  0.00000000E+00  0.00000000E+00  0.00000000E+00
  0.00000000E+00 -1.03198927E-01  0.00000000E+00  0.00000000E+00  0.00000000E+00
  0.00000000E+00 -2.62247581E-02  0.00000000E+00  0.00000000E+00  0.00000000E+00
  0.00000000E+00  0.00000000E+00  0.00000000E+00  0.00000000E+00  0.00000000E+00
  0.00000000E+00  0.00000000E+00  0.00000000E+00  0.00000000E+00  0.00000000E+00
  0.00000000E+00  0.00000000E+00  0.00000000E+00  0.00000000E+00  0.00000000E+00
  0.00000000E+00  0.00000000E+00 -3.90671777E-05  0.00000000E+00  0.00000000E+00
  1.07757890E-02  0.00000000E+00  0.00000000E+00  9.46420671E-02  0.00000000E+00
  0.00000000E+00  0.00000000E+00  2.36135409E-04  0.00000000E+00  0.00000000E+00
  0.00000000E+00  0.00000000E+00  1.14268321E-01  0.00000000E+00  0.00000000E+00
  0.00000000E+00  0.00000000E+00  0.00000000E+00  0.00000000E+00  0.00000000E+00
  4.38682918E-02  0.00000000E+00  0.00000000E+00  2.75236620E-01  0.00000000E+00
  0.00000000E+00  2.60788106E-01  0.00000000E+00  0.00000000E+00  0.00000000E+00
  1.87273400E-01  0.00000000E+00  0.00000000E+00  0.00000000E+00  0.00000000E+00
  5.60499581E-01  0.00000000E+00  0.00000000E+00  0.00000000E+00  0.00000000E+00
  0.00000000E+00  0.00000000E+00  0.00000000E+00  7.35384020E-01  0.00000000E+00
  0.00000000E+00  9.51461503E-01  0.00000000E+00  0.00000000E+00  3.87567381E-01
  0.00000000E+00  0.00000000E+00  0.00000000E+00  2.36518448E-01  0.00000000E+00
  0.00000000E+00  0.00000000E+00  0.00000000E+00  0.00000000E+00  0.00000000E+00
  0.00000000E+00 -3.90671777E-05  0.00000000E+00  0.00000000E+00  1.07757890E-02
  0.00000000E+00  0.00000000E+00  9.46420671E-02  0.00000000E+00  0.00000000E+00
  0.00000000E+00  2.36135409E-04  0.00000000E+00  0.00000000E+00  0.00000000E+00
  0.00000000E+00  1.14268321E-01  0.00000000E+00  0.00000000E+00  0.00000000E+00
  0.00000000E+00  0.00000000E+00  0.00000000E+00  0.00000000E+00  4.38682918E-02
  0.00000000E+00  0.00000000E+00  2.75236620E-01  0.00000000E+00  0.00000000E+00
  2.60788106E-01  0.00000000E+00  0.00000000E+00  0.00000000E+00  1.87273400E-01
  0.00000000E+00  0.00000000E+00  0.00000000E+00  0.00000000E+00  5.60499581E-01
  0.00000000E+00  0.00000000E+00  0.00000000E+00  0.00000000E+00  0.00000000E+00
  0.00000000E+00  0.00000000E+00  7.35384020E-01  0.00000000E+00  0.00000000E+00
  9.51461503E-01  0.00000000E+00  0.00000000E+00  3.87567381E-01  0.00000000E+00
  0.00000000E+00  0.00000000E+00  2.36518448E-01  0.00000000E+00  0.00000000E+00
  0.00000000E+00  0.00000000E+00  0.00000000E+00  0.00000000E+00 -2.12662179E-01
  0.00000000E+00  0.00000000E+00 -3.83635270E-01  0.00000000E+00  0.00000000E+00
 -5.75418063E-01  0.00000000E+00  0.00000000E+00  0.00000000E+00 -8.83255816E-02
  0.00000000E+00  0.00000000E+00  0.00000000E+00  0.00000000E+00 -2.59188068E-01
  0.00000000E+00  0.00000000E+00  0.00000000E+00  0.00000000E+00  0.00000000E+00
  0.00000000E+00  0.00000000E+00 -4.61918067E-02  0.00000000E+00  0.00000000E+00
 -4.72108771E-01  0.00000000E+00  0.00000000E+00 -1.06938853E+00  0.00000000E+00
  0.00000000E+00  0.00000000E+00  1.35935186E-01  0.00000000E+00  0.00000000E+00
  0.00000000E+00  0.00000000E+00 -6.15690192E-01  0.00000000E+00  0.00000000E+00
  0.00000000E+00  0.00000000E+00  0.00000000E+00  0.00000000E+00  0.00000000E+00
 -1.34558208E-01  0.00000000E+00  0.00000000E+00 -7.66917169E-01  0.00000000E+00
  0.00000000E+00 -1.17294612E+00  0.00000000E+00  0.00000000E+00  0.00000000E+00
  9.43226723E-02  0.00000000E+00  0.00000000E+00  0.00000000E+00  0.00000000E+00
  5.47160838E-02  1.87518981E-01  3.03313894E-01  7.97919568E-01  0.00000000E+00
  0.00000000E+00  2.61367065E-02  0.00000000E+00  0.00000000E+00  3.87923306E-02
  0.00000000E+00  0.00000000E+00  3.65365955E-01 -7.11847071E-02  0.00000000E+00
  0.00000000E+00  1.14262294E-01  0.00000000E+00 -2.59191218E-01  0.00000000E+00
  0.00000000E+00  2.01366202E-01  0.00000000E+00 -1.21417576E-02  3.82495952E-02
  7.28367394E-01  1.16179920E+00  0.00000000E+00  0.00000000E+00 -8.87905663E-02
  0.00000000E+00  0.00000000E+00 -1.75878602E-01  0.00000000E+00  0.00000000E+00
  1.26636286E+00  1.02160701E-02  0.00000000E+00  0.00000000E+00 -2.62247581E-02
  0.00000000E+00  7.66061254E-01  0.00000000E+00  0.00000000E+00  1.30225160E-01
  0.00000000E+00  7.11458243E-02  7.42108557E-01  1.75593236E+00  1.47280833E+00
  0.00000000E+00  0.00000000E+00  2.33061653E-01  0.00000000E+00  0.00000000E+00
  1.32833950E+00  0.00000000E+00  0.00000000E+00  2.03160227E+00  9.43226723E-02
  0.00000000E+00  0.00000000E+00  1.63371661E-01  0.00000000E+00  5.84362621E-01
  0.00000000E+00  0.00000000E+00  0.00000000E+00  0.00000000E+00  0.00000000E+00
  0.00000000E+00  0.00000000E+00  0.00000000E+00  0.00000000E+00  0.00000000E+00
  0.00000000E+00  0.00000000E+00  0.00000000E+00  0.00000000E+00  0.00000000E+00
  0.00000000E+00  0.00000000E+00  0.00000000E+00  1.14262294E-01  0.00000000E+00
  0.00000000E+00  0.00000000E+00  0.00000000E+00  2.01366202E-01  0.00000000E+00
  0.00000000E+00  0.00000000E+00  0.00000000E+00  0.00000000E+00  0.00000000E+00
  0.00000000E+00  0.00000000E+00  0.00000000E+00  0.00000000E+00  0.00000000E+00
  0.00000000E+00  0.00000000E+00  0.00000000E+00  0.00000000E+00  0.00000000E+00
  0.00000000E+00 -2.62247581E-02  0.00000000E+00  0.00000000E+00  0.00000000E+00
  0.00000000E+00  1.30225160E-01  0.00000000E+00  0.00000000E+00  0.00000000E+00
  0.00000000E+00  0.00000000E+00  0.00000000E+00  0.00000000E+00  0.00000000E+00
  0.00000000E+00  0.00000000E+00  0.00000000E+00  0.00000000E+00  0.00000000E+00
  0.00000000E+00  0.00000000E+00  0.00000000E+00  0.00000000E+00  1.63371661E-01
  0.00000000E+00  0.00000000E+00  0.00000000E+00  0.00000000E+00  0.00000000E+00
  0.00000000E+00  0.00000000E+00 -1.04797018E-02  0.00000000E+00  0.00000000E+00
 -4.09990280E-02  0.00000000E+00  0.00000000E+00  3.28476223E-01  0.00000000E+00
  0.00000000E+00  0.00000000E+00 -1.19923514E-02  0.00000000E+00  0.00000000E+00
  0.00000000E+00  0.00000000E+00  2.01389993E-01  0.00000000E+00  0.00000000E+00
  0.00000000E+00  0.00000000E+00  0.00000000E+00  0.00000000E+00  0.00000000E+00
  1.75131829E-02  0.00000000E+00  0.00000000E+00  3.15493329E-01  0.00000000E+00
  0.00000000E+00  1.13562342E+00  0.00000000E+00  0.00000000E+00  0.00000000E+00
  1.10881119E-01  0.00000000E+00  0.00000000E+00  0.00000000E+00  0.00000000E+00
  1.22171955E+00  0.00000000E+00  0.00000000E+00  0.00000000E+00  0.00000000E+00
  0.00000000E+00  0.00000000E+00  0.00000000E+00  2.33061653E-01  0.00000000E+00
  0.00000000E+00  1.32833950E+00  0.00000000E+00  0.00000000E+00  2.03160227E+00
  0.00000000E+00  0.00000000E+00  0.00000000E+00  1.63371661E-01  0.00000000E+00
  0.00000000E+00  0.00000000E+00  0.00000000E+00  1.01214575E+00  0.00000000E+00
  0.00000000E+00  0.00000000E+00  0.00000000E+00  0.00000000E+00  0.00000000E+00
  0.00000000E+00 -1.04797018E-02  0.00000000E+00  0.00000000E+00 -4.09990280E-02
  0.00000000E+00  0.00000000E+00  3.28476223E-01  0.00000000E+00  0.00000000E+00
  0.00000000E+00 -1.19923514E-02  0.00000000E+00  0.00000000E+00  0.00000000E+00
  0.00000000E+00  2.01389993E-01  0.00000000E+00  0.00000000E+00  0.00000000E+00
  0.00000000E+00  0.00000000E+00  0.00000000E+00  0.00000000E+00  1.75131829E-02
  0.00000000E+00  0.00000000E+00  3.15493329E-01  0.00000000E+00  0.00000000E+00
  1.13562342E+00  0.00000000E+00  0.00000000E+00  0.00000000E+00  1.10881119E-01
  0.00000000E+00  0.00000000E+00  0.00000000E+00  0.00000000E+00  1.22171955E+00
  0.00000000E+00  0.00000000E+00  0.00000000E+00  0.00000000E+00  0.00000000E+00
  0.00000000E+00  0.00000000E+00  2.33061653E-01  0.00000000E+00  0.00000000E+00
  1.32833950E+00  0.00000000E+00  0.00000000E+00  2.03160227E+00  0.00000000E+00
  0.00000000E+00  0.00000000E+00  1.63371661E-01  0.00000000E+00  0.00000000E+00
  0.00000000E+00  0.00000000E+00  1.01214575E+00  0.00000000E+00  0.00000000E+00
Multipole Matrix (0,1,1)                   R   N=        2415
  0.00000000E+00  0.00000000E+00  0.00000000E+00  0.00000000E+00  0.00000000E+00
  0.00000000E+00  0.00000000E+00  0.00000000E+00  0.00000000E+00  0.00000000E+00
  0.00000000E+00  0.00000000E+00  0.00000000E+00  0.00000000E+00  0.00000000E+00
 -7.54472341E-01 -8.54912665E-01 -5.07610660E-01 -2.02232006E-01  0.00000000E+00
  0.00000000E+00  0.00000000E+00  0.00000000E+00  0.00000000E+00  0.00000000E+00
  0.00000000E+00  1.77683014E-01  0.00000000E+00  0.00000000E+00  0.00000000E+00
  0.00000000E+00  0.00000000E+00  0.00000000E+00  0.00000000E+00  0.00000000E+00
  0.00000000E+00 -5.15179310E-01 -1.56864087E+00 -1.68418293E+00 -9.03687251E-01
  0.00000000E+00  0.00000000E+00  1.71287901E-01  0.00000000E+00  0.00000000E+00
  0.00000000E+00  0.00000000E+00  0.00000000E+00  0.00000000E+00  0.00000000E+00
  1.71287901E-01  0.00000000E+00  0.00000000E+00  6.44329897E-01  0.00000000E+00
  0.00000000E+00  0.00000000E+00  0.00000000E+00  0.00000000E+00  0.00000000E+00
  0.00000000E+00  0.00000000E+00  0.00000000E+00  0.00000000E+00  0.00000000E+00
  0.00000000E+00 -1.60236147E-01 -1.06187523E+00 -2.82062505E+00 -3.23264001E+00
  0.00000000E+00  0.00000000E+00  5.91902931E-02  0.00000000E+00  0.00000000E+00
  6.06245580E-01  0.00000000E+00  0.00000000E+00  0.00000000E+00  0.00000000E+00
  0.00000000E+00  0.00000000E+00  0.00000000E+00  5.91902931E-02  0.00000000E+00
  0.00000000E+00  6.06245580E-01  0.00000000E+00  0.00000000E+00  2.45098039E+00
  0.00000000E+00  0.00000000E+00  0.00000000E+00  0.00000000E+00  0.00000000E+00
  0.00000000E+00  4.24558630E-01  0.00000000E+00  0.00000000E+00  5.49306459E-01
  0.00000000E+00  0.00000000E+00  2.23753946E-01  0.00000000E+00  0.00000000E+00
  0.00000000E+00  0.00000000E+00  0.00000000E+00  0.00000000E+00  0.00000000E+00
  0.00000000E+00  0.00000000E+00  0.00000000E+00  0.00000000E+00  0.00000000E+00
  0.00000000E+00  0.00000000E+00  0.00000000E+00  0.00000000E+00  0.00000000E+00
  1.86621370E-01  4.32246747E-01  3.36623363E-01  1.49740957E-01  0.00000000E+00
  0.00000000E+00 -7.35357117E-01  0.00000000E+00  0.00000000E+00 -9.51426696E-01
  0.00000000E+00  0.00000000E+00 -3.87553202E-01  1.36553990E-01  0.00000000E+00
  0.00000000E+00  0.00000000E+00  0.00000000E+00  0.00000000E+00  0.00000000E+00
  0.00000000E+00  7.35357117E-01  0.00000000E+00  0.00000000E+00  9.51426696E-01
  0.00000000E+00  0.00000000E+00  3.87553202E-01  0.00000000E+00  0.00000000E+00
  0.00000000E+00 -2.36518448E-01  0.00000000E+00  0.00000000E+00  0.00000000E+00
  0.00000000E+00  0.00000000E+00 -7.35357117E-01  0.00000000E+00  0.00000000E+00
 -9.51426696E-01  0.00000000E+00  0.00000000E+00 -3.87553202E-01  0.00000000E+00
  0.00000000E+00  0.00000000E+00  2.36518448E-01  0.00000000E+00  0.00000000E+00
  0.00000000E+00  0.00000000E+00  0.00000000E+00  0.00000000E+00  0.00000000E+00
  0.00000000E+00  1.34553286E-01  0.00000000E+00  0.00000000E+00  7.66889113E-01
  0.00000000E+00  0.00000000E+00  1.17290321E+00  0.00000000E+00  0.00000000E+00
  0.00000000E+00  9.43226723E-02  0.00000000E+00  0.00000000E+00  0.00000000E+00
  0.00000000E+00  0.00000000E+00  0.00000000E+00  0.00000000E+00  0.00000000E+00
  0.00000000E+00  0.00000000E+00  0.00000000E+00  0.00000000E+00  0.00000000E+00
  0.00000000E+00  0.00000000E+00  0.00000000E+00  0.00000000E+00  0.00000000E+00
  0.00000000E+00  0.00000000E+00  1.63371661E-01  0.00000000E+00  0.00000000E+00
  7.11458243E-02  7.42108557E-01  1.75593236E+00  1.47280833E+00  0.00000000E+00
  0.00000000E+00 -2.33053127E-01  0.00000000E+00  0.00000000E+00 -1.32829091E+00
  0.00000000E+00  0.00000000E+00 -2.03152795E+00  9.43226723E-02  0.00000000E+00
  0.00000000E+00 -1.63371661E-01  0.00000000E+00  5.84362621E-01  0.00000000E+00
  0.00000000E+00  0.00000000E+00  0.00000000E+00  0.00000000E+00  0.00000000E+00
  0.00000000E+00  2.33053127E-01  0.00000000E+00  0.00000000E+00  1.32829091E+00
  0.00000000E+00  0.00000000E+00  2.03152795E+00  0.00000000E+00  0.00000000E+00
  0.00000000E+00 -1.63371661E-01  0.00000000E+00  0.00000000E+00  0.00000000E+00
  0.00000000E+00 -1.01214575E+00  0.00000000E+00  0.00000000E+00  0.00000000E+00
  0.00000000E+00  0.00000000E+00 -2.33053127E-01  0.00000000E+00  0.00000000E+00
 -1.32829091E+00  0.00000000E+00  0.00000000E+00 -2.03152795E+00  0.00000000E+00
  0.00000000E+00  0.00000000E+00  1.63371661E-01  0.00000000E+00  0.00000000E+00
  0.00000000E+00  0.00000000E+00  1.01214575E+00  0.00000000E+00  0.00000000E+00
  0.00000000E+00  0.00000000E+00  0.00000000E+00  0.00000000E+00  0.00000000E+00
  0.00000000E+00 -4.88605901E-02  0.00000000E+00  0.00000000E+00 -4.88797369E-02
  0.00000000E+00  0.00000000E+00 -9.39939168E-03  0.00000000E+00  0.00000000E+00
  0.00000000E+00 -7.95229634E-02  0.00000000E+00  0.00000000E+00  0.00000000E+00
  0.00000000E+00 -1.21387872E-02  0.00000000E+00  0.00000000E+00  0.00000000E+00
  0.00000000E+00  0.00000000E+00  0.00000000E+00  0.00000000E+00  0.00000000E+00
 -2.92390410E-01  0.00000000E+00  0.00000000E+00 -4.77971888E-01  0.00000000E+00
  0.00000000E+00 -1.96412978E-01  0.00000000E+00  0.00000000E+00  0.00000000E+00
 -1.20263332E-01  0.00000000E+00  0.00000000E+00  0.00000000E+00  0.00000000E+00
  3.82823866E-02  0.00000000E+00  0.00000000E+00  0.00000000E+00  0.00000000E+00
  0.00000000E+00  0.00000000E+00  0.00000000E+00  0.00000000E+00  0.00000000E+00
 -3.45998360E-01  0.00000000E+00  0.00000000E+00 -1.02126423E+00  0.00000000E+00
  0.00000000E+00 -1.18901821E+00  0.00000000E+00  0.00000000E+00  0.00000000E+00
  9.62159771E-02  0.00000000E+00  0.00000000E+00  0.00000000E+00  0.00000000E+00
  7.28428093E-01  0.00000000E+00  0.00000000E+00  0.00000000E+00  0.00000000E+00
  0.00000000E+00  0.00000000E+00  0.00000000E+00  0.00000000E+00  0.00000000E+00
  0.00000000E+00 -1.83188977E-01  0.00000000E+00  0.00000000E+00 -7.85168674E-01
  0.00000000E+00  0.00000000E+00 -2.42508734E+00  0.00000000E+00  0.00000000E+00
  0.00000000E+00  1.15863595E-01  0.00000000E+00  0.00000000E+00  0.00000000E+00
  0.00000000E+00  1.16182055E+00  0.00000000E+00  0.00000000E+00  0.00000000E+00
  0.00000000E+00  0.00000000E+00  0.00000000E+00  0.00000000E+00  0.00000000E+00
  0.00000000E+00  0.00000000E+00  0.00000000E+00  0.00000000E+00  0.00000000E+00
  0.00000000E+00  0.00000000E+00  0.00000000E+00  0.00000000E+00  0.00000000E+00
  0.00000000E+00  0.00000000E+00  0.00000000E+00  0.00000000E+00  0.00000000E+00
 -4.38730193E-02  0.00000000E+00  0.00000000E+00  0.00000000E+00  0.00000000E+00
 -1.75134222E-02  0.00000000E+00  0.00000000E+00  0.00000000E+00  0.00000000E+00
  0.00000000E+00 -4.10260438E-02 -6.77049009E-02 -2.52551753E-02 -3.28880849E-03
  0.00000000E+00  0.00000000E+00 -6.41510583E-02  0.00000000E+00  0.00000000E+00
 -6.26331004E-02  0.00000000E+00  0.00000000E+00  1.64100473E-02 -4.02643844E-02
  0.00000000E+00  0.00000000E+00  4.38730193E-02  0.00000000E+00  4.61982263E-02
  0.00000000E+00  0.00000000E+00  1.75134222E-02  0.00000000E+00  0.00000000E+00
  0.00000000E+00  0.00000000E+00  0.00000000E+00  0.00000000E+00  0.00000000E+00
  0.00000000E+00  0.00000000E+00  0.00000000E+00  0.00000000E+00  0.00000000E+00
  9.98041579E-02  0.00000000E+00  0.00000000E+00  9.81442105E-02  0.00000000E+00
  0.00000000E+00  4.53313462E-02  0.00000000E+00  0.00000000E+00  0.00000000E+00
  1.43751553E-01  0.00000000E+00  0.00000000E+00  0.00000000E+00  0.00000000E+00
  8.87900196E-02  0.00000000E+00  0.00000000E+00  0.00000000E+00  0.00000000E+00
  0.00000000E+00  0.00000000E+00  0.00000000E+00  1.77683014E-01  0.00000000E+00
  0.00000000E+00  0.00000000E+00  0.00000000E+00  0.00000000E+00  0.00000000E+00
  0.00000000E+00  0.00000000E+00  0.00000000E+00  0.00000000E+00  0.00000000E+00
  0.00000000E+00  0.00000000E+00  0.00000000E+00  0.00000000E+00  0.00000000E+00
  0.00000000E+00  0.00000000E+00 -2.75245232E-01  0.00000000E+00  0.00000000E+00
  0.00000000E+00  0.00000000E+00 -3.15493174E-01  0.00000000E+00  0.00000000E+00
  0.00000000E+00  0.00000000E+00  0.00000000E+00  0.00000000E+00  0.00000000E+00
  0.00000000E+00 -1.49204129E-01 -4.01348560E-01 -2.70319166E-01 -5.11169090E-02
  0.00000000E+00  0.00000000E+00 -6.26331004E-02  0.00000000E+00  0.00000000E+00
 -9.16410629E-02  0.00000000E+00  0.00000000E+00  2.19777996E-01  1.67356575E-01
  0.00000000E+00  0.00000000E+00  2.75245232E-01  0.00000000E+00  4.72129194E-01
  0.00000000E+00  0.00000000E+00  3.15493174E-01  0.00000000E+00  0.00000000E+00
  0.00000000E+00  0.00000000E+00  0.00000000E+00  0.00000000E+00  0.00000000E+00
  1.71287901E-01  0.00000000E+00  0.00000000E+00  0.00000000E+00  0.00000000E+00
  0.00000000E+00  0.00000000E+00  0.00000000E+00  5.20391839E-01  0.00000000E+00
  0.00000000E+00  7.75184643E-01  0.00000000E+00  0.00000000E+00  5.30211010E-01
  0.00000000E+00  0.00000000E+00  0.00000000E+00  6.11946615E-02  0.00000000E+00
  0.00000000E+00  0.00000000E+00  0.00000000E+00  1.75855741E-01  0.00000000E+00
  0.00000000E+00  0.00000000E+00  0.00000000E+00  0.00000000E+00  0.00000000E+00
  0.00000000E+00  1.71287901E-01  0.00000000E+00  0.00000000E+00  6.44329897E-01
  0.00000000E+00  0.00000000E+00  0.00000000E+00  0.00000000E+00  0.00000000E+00
  0.00000000E+00  0.00000000E+00  0.00000000E+00  0.00000000E+00  0.00000000E+00
  0.00000000E+00  0.00000000E+00  0.00000000E+00  0.00000000E+00  0.00000000E+00
  0.00000000E+00  0.00000000E+00  0.00000000E+00 -2.60784367E-01  0.00000000E+00
  0.00000000E+00  0.00000000E+00  0.00000000E+00 -1.13560148E+00  0.00000000E+00
  0.00000000E+00  0.00000000E+00  0.00000000E+00  0.00000000E+00  0.00000000E+00
  0.00000000E+00  0.00000000E+00  0.00000000E+00  0.00000000E+00  0.00000000E+00
 -1.08501758E-01 -6.27366160E-01 -1.19717814E+00 -6.00565747E-01  0.00000000E+00
  0.00000000E+00  1.64100473E-02  0.00000000E+00  0.00000000E+00  2.19777996E-01
  0.00000000E+00  0.00000000E+00  1.38302271E+00  1.70787719E-01  0.00000000E+00
  0.00000000E+00  2.60784367E-01  0.00000000E+00  1.06937722E+00  0.00000000E+00
  0.00000000E+00  1.13560148E+00  0.00000000E+00  0.00000000E+00  0.00000000E+00
  0.00000000E+00  0.00000000E+00  0.00000000E+00  0.00000000E+00  5.91902931E-02
  0.00000000E+00  0.00000000E+00  6.06245580E-01  0.00000000E+00  0.00000000E+00
  0.00000000E+00  0.00000000E+00  0.00000000E+00  0.00000000E+00  0.00000000E+00
  4.15353847E-01  0.00000000E+00  0.00000000E+00  1.40064083E+00  0.00000000E+00
  0.00000000E+00  2.76630949E+00  0.00000000E+00  0.00000000E+00  0.00000000E+00
 -3.37827290E-01  0.00000000E+00  0.00000000E+00  0.00000000E+00  0.00000000E+00
 -1.26637760E+00  0.00000000E+00  0.00000000E+00  0.00000000E+00  0.00000000E+00
  0.00000000E+00  0.00000000E+00  0.00000000E+00  5.91902931E-02  0.00000000E+00
  0.00000000E+00  6.06245580E-01  0.00000000E+00  0.00000000E+00  2.45098039E+00
  0.00000000E+00  0.00000000E+00  0.00000000E+00  0.00000000E+00  0.00000000E+00
  0.00000000E+00 -2.10796664E-01  0.00000000E+00  0.00000000E+00 -9.80592634E-02
  0.00000000E+00  0.00000000E+00 -1.53819112E-02  0.00000000E+00  0.00000000E+00
  0.00000000E+00 -9.77119161E-02  0.00000000E+00  0.00000000E+00  0.00000000E+00
  0.00000000E+00  1.02208346E-02  0.00000000E+00  0.00000000E+00  0.00000000E+00
  0.00000000E+00  0.00000000E+00  0.00000000E+00  0.00000000E+00  0.00000000E+00
  0.00000000E+00  0.00000000E+00  0.00000000E+00  0.00000000E+00  0.00000000E+00
  0.00000000E+00  0.00000000E+00  0.00000000E+00  0.00000000E+00  0.00000000E+00
  0.00000000E+00  0.00000000E+00  0.00000000E+00  0.00000000E+00  0.00000000E+00
  0.00000000E+00  0.00000000E+00  0.00000000E+00  0.00000000E+00  0.00000000E+00
  0.00000000E+00  0.00000000E+00  0.00000000E+00  0.00000000E+00  0.00000000E+00
  1.87286444E-01  0.00000000E+00  0.00000000E+00  0.00000000E+00  0.00000000E+00
  1.10884528E-01  0.00000000E+00  0.00000000E+00  0.00000000E+00  0.00000000E+00
  0.00000000E+00  0.00000000E+00  0.00000000E+00  0.00000000E+00  0.00000000E+00
  0.00000000E+00  0.00000000E+00  0.00000000E+00  0.00000000E+00  0.00000000E+00
  0.00000000E+00  1.54925042E-01  2.87633536E-01  2.62638191E-01  1.38673292E-01
  0.00000000E+00  0.00000000E+00  1.57485998E-01  0.00000000E+00  0.00000000E+00
  2.60620374E-01  0.00000000E+00  0.00000000E+00  2.25755728E-01 -2.14547311E-02
  0.00000000E+00  0.00000000E+00 -1.87286444E-01  0.00000000E+00  1.35929192E-01
  0.00000000E+00  0.00000000E+00 -1.10884528E-01  0.00000000E+00  1.86621370E-01
  4.32246747E-01  3.36623363E-01  1.49740957E-01  0.00000000E+00  0.00000000E+00
  0.00000000E+00  0.00000000E+00  0.00000000E+00  0.00000000E+00  0.00000000E+00
  0.00000000E+00  0.00000000E+00  1.36553990E-01  0.00000000E+00  0.00000000E+00
  0.00000000E+00  0.00000000E+00  0.00000000E+00  0.00000000E+00  0.00000000E+00
  5.84005092E-02  0.00000000E+00  0.00000000E+00  1.01036093E-01  0.00000000E+00
  0.00000000E+00  2.51655680E-02  0.00000000E+00  0.00000000E+00  0.00000000E+00
  1.03201344E-01  0.00000000E+00  0.00000000E+00  0.00000000E+00  0.00000000E+00
  2.62178822E-02  0.00000000E+00  0.00000000E+00  0.00000000E+00  0.00000000E+00
  0.00000000E+00  0.00000000E+00  0.00000000E+00  0.00000000E+00  0.00000000E+00
  0.00000000E+00  0.00000000E+00  0.00000000E+00  0.00000000E+00  0.00000000E+00
  0.00000000E+00  0.00000000E+00  0.00000000E+00 -2.36518448E-01  0.00000000E+00
  0.00000000E+00  0.00000000E+00  0.00000000E+00  0.00000000E+00 -5.84005092E-02
  0.00000000E+00  0.00000000E+00 -1.01036093E-01  0.00000000E+00  0.00000000E+00
 -2.51655680E-02  0.00000000E+00  0.00000000E+00  0.00000000E+00 -1.03201344E-01
  0.00000000E+00  0.00000000E+00  0.00000000E+00  0.00000000E+00 -2.62178822E-02
  0.00000000E+00  0.00000000E+00  0.00000000E+00  0.00000000E+00  0.00000000E+00
  0.00000000E+00  0.00000000E+00  0.00000000E+00  0.00000000E+00  0.00000000E+00
  0.00000000E+00  0.00000000E+00  0.00000000E+00  0.00000000E+00  0.00000000E+00
  0.00000000E+00  0.00000000E+00  2.36518448E-01  0.00000000E+00  0.00000000E+00
  0.00000000E+00  0.00000000E+00  0.00000000E+00  0.00000000E+00  0.00000000E+00
  0.00000000E+00 -5.08232132E-01  0.00000000E+00  0.00000000E+00 -7.29552927E-01
  0.00000000E+00  0.00000000E+00 -3.23510353E-01  0.00000000E+00  0.00000000E+00
  0.00000000E+00  4.49235651E-01  0.00000000E+00  0.00000000E+00  0.00000000E+00
  0.00000000E+00  7.66074996E-01  0.00000000E+00  0.00000000E+00  0.00000000E+00
  0.00000000E+00  0.00000000E+00  0.00000000E+00  0.00000000E+00  0.00000000E+00
  0.00000000E+00  0.00000000E+00  0.00000000E+00  0.00000000E+00  0.00000000E+00
  0.00000000E+00  0.00000000E+00  0.00000000E+00  0.00000000E+00  9.43226723E-02
  0.00000000E+00  0.00000000E+00  0.00000000E+00  0.00000000E+00  0.00000000E+00
  0.00000000E+00  0.00000000E+00  0.00000000E+00  0.00000000E+00  0.00000000E+00
  0.00000000E+00  0.00000000E+00  0.00000000E+00  0.00000000E+00  0.00000000E+00
  0.00000000E+00  0.00000000E+00  0.00000000E+00  0.00000000E+00  0.00000000E+00
  5.60491621E-01  0.00000000E+00  0.00000000E+00  0.00000000E+00  0.00000000E+00
  1.22171571E+00  0.00000000E+00  0.00000000E+00  0.00000000E+00  0.00000000E+00
  0.00000000E+00  0.00000000E+00  0.00000000E+00  0.00000000E+00  0.00000000E+00
  0.00000000E+00  0.00000000E+00  0.00000000E+00  0.00000000E+00  0.00000000E+00
  0.00000000E+00  0.00000000E+00  0.00000000E+00  1.63371661E-01  0.00000000E+00
  0.00000000E+00  2.70134823E-01  1.03682109E+00  1.65841535E+00  1.38745992E+00
  0.00000000E+00  0.00000000E+00 -4.49908309E-02  0.00000000E+00  0.00000000E+00
 -1.86765404E-01  0.00000000E+00  0.00000000E+00  4.18987294E-01 -3.83232361E-01
  0.00000000E+00  0.00000000E+00 -5.60491621E-01  0.00000000E+00 -6.15653384E-01
  0.00000000E+00  0.00000000E+00 -1.22171571E+00  0.00000000E+00  7.11458243E-02
  7.42108557E-01  1.75593236E+00  1.47280833E+00  0.00000000E+00  0.00000000E+00
  0.00000000E+00  0.00000000E+00  0.00000000E+00  0.00000000E+00  0.00000000E+00
  0.00000000E+00  0.00000000E+00  9.43226723E-02  0.00000000E+00  0.00000000E+00
 -1.63371661E-01  0.00000000E+00  5.84362621E-01  0.00000000E+00  0.00000000E+00
  0.00000000E+00  0.00000000E+00  0.00000000E+00  0.00000000E+00  0.00000000E+00
  9.97626923E-02  0.00000000E+00  0.00000000E+00  4.95592516E-01  0.00000000E+00
  0.00000000E+00  4.68952839E-01  0.00000000E+00  0.00000000E+00  0.00000000E+00
  2.62178822E-02  0.00000000E+00  0.00000000E+00  0.00000000E+00  0.00000000E+00
 -1.30268937E-01  0.00000000E+00  0.00000000E+00  0.00000000E+00  0.00000000E+00
  0.00000000E+00  0.00000000E+00  0.00000000E+00  0.00000000E+00  0.00000000E+00
  0.00000000E+00  0.00000000E+00  0.00000000E+00  0.00000000E+00  0.00000000E+00
  0.00000000E+00  0.00000000E+00  0.00000000E+00 -1.63371661E-01  0.00000000E+00
  0.00000000E+00  0.00000000E+00  0.00000000E+00 -1.01214575E+00  0.00000000E+00
  0.00000000E+00  0.00000000E+00  0.00000000E+00  0.00000000E+00 -9.97626923E-02
  0.00000000E+00  0.00000000E+00 -4.95592516E-01  0.00000000E+00  0.00000000E+00
 -4.68952839E-01  0.00000000E+00  0.00000000E+00  0.00000000E+00 -2.62178822E-02
  0.00000000E+00  0.00000000E+00  0.00000000E+00  0.00000000E+00  1.30268937E-01
  0.00000000E+00  0.00000000E+00  0.00000000E+00  0.00000000E+00  0.00000000E+00
  0.00000000E+00  0.00000000E+00  0.00000000E+00  0.00000000E+00  0.00000000E+00
  0.00000000E+00  0.00000000E+00  0.00000000E+00  0.00000000E+00  0.00000000E+00
  0.00000000E+00  0.00000000E+00  1.63371661E-01  0.00000000E+00  0.00000000E+00
  0.00000000E+00  0.00000000E+00  1.01214575E+00  0.00000000E+00  0.00000000E+00
  0.00000000E+00  0.00000000E+00  0.00000000E+00  0.00000000E+00  0.00000000E+00
  0.00000000E+00 -1.68214663E-05  0.00000000E+00  0.00000000E+00  5.69178483E-03
  0.00000000E+00  0.00000000E+00  3.94733692E-02  0.00000000E+00  0.00000000E+00
  0.00000000E+00  2.27458768E-04  0.00000000E+00  0.00000000E+00  0.00000000E+00
  0.00000000E+00  5.47188702E-02  0.00000000E+00  0.00000000E+00  0.00000000E+00
  0.00000000E+00  0.00000000E+00  0.00000000E+00  0.00000000E+00  4.10211972E-02
  0.00000000E+00  0.00000000E+00  1.49199146E-01  0.00000000E+00  0.00000000E+00
  1.08503291E-01  0.00000000E+00  0.00000000E+00  0.00000000E+00  1.54913238E-01
  0.00000000E+00  0.00000000E+00  0.00000000E+00  0.00000000E+00  2.70138708E-01
  0.00000000E+00  0.00000000E+00  0.00000000E+00  0.00000000E+00  0.00000000E+00
  0.00000000E+00  0.00000000E+00  0.00000000E+00 -1.67881357E-02  0.00000000E+00
  0.00000000E+00 -1.34931062E-02  0.00000000E+00  0.00000000E+00  2.01209730E-01
  0.00000000E+00  0.00000000E+00  0.00000000E+00 -2.08639575E-02  0.00000000E+00
  0.00000000E+00  0.00000000E+00  0.00000000E+00  1.87537406E-01  0.00000000E+00
  0.00000000E+00  0.00000000E+00  0.00000000E+00  0.00000000E+00  0.00000000E+00
  0.00000000E+00  6.77030944E-02  0.00000000E+00  0.00000000E+00  4.01346245E-01
  0.00000000E+00  0.00000000E+00  6.27377457E-01  0.00000000E+00  0.00000000E+00
  0.00000000E+00  2.87623437E-01  0.00000000E+00  0.00000000E+00  0.00000000E+00
  0.00000000E+00  1.03682781E+00  0.00000000E+00  0.00000000E+00  0.00000000E+00
  0.00000000E+00  0.00000000E+00  0.00000000E+00  0.00000000E+00  0.00000000E+00
  0.00000000E+00 -1.25474622E-01  0.00000000E+00  0.00000000E+00 -3.38676570E-01
  0.00000000E+00  0.00000000E+00  4.96687294E-03  0.00000000E+00  0.00000000E+00
  0.00000000E+00 -1.03822711E-02  0.00000000E+00  0.00000000E+00  0.00000000E+00
  0.00000000E+00  3.03347306E-01  0.00000000E+00  0.00000000E+00  0.00000000E+00
  0.00000000E+00  0.00000000E+00  0.00000000E+00  0.00000000E+00  2.52555211E-02
  0.00000000E+00  0.00000000E+00  2.70323806E-01  0.00000000E+00  0.00000000E+00
  1.19720729E+00  0.00000000E+00  0.00000000E+00  0.00000000E+00  2.62633390E-01
  0.00000000E+00  0.00000000E+00  0.00000000E+00  0.00000000E+00  1.65840656E+00
  0.00000000E+00  0.00000000E+00  0.00000000E+00  0.00000000E+00  0.00000000E+00
  0.00000000E+00  0.00000000E+00  0.00000000E+00  0.00000000E+00  0.00000000E+00
 -1.41045020E-01  0.00000000E+00  0.00000000E+00 -5.81741460E-01  0.00000000E+00
  0.00000000E+00 -1.49597706E+00  0.00000000E+00  0.00000000E+00  0.00000000E+00
  7.43125083E-02  0.00000000E+00  0.00000000E+00  0.00000000E+00  0.00000000E+00
  7.97932756E-01  0.00000000E+00  0.00000000E+00  0.00000000E+00  0.00000000E+00
  0.00000000E+00  0.00000000E+00  0.00000000E+00  3.28890929E-03  0.00000000E+00
  0.00000000E+00  5.11184892E-02  0.00000000E+00  0.00000000E+00  6.00584811E-01
  0.00000000E+00  0.00000000E+00  0.00000000E+00  1.38672512E-01  0.00000000E+00
  0.00000000E+00  0.00000000E+00  0.00000000E+00  1.38745385E+00  0.00000000E+00
  0.00000000E+00  0.00000000E+00  0.00000000E+00  0.00000000E+00  0.00000000E+00
  0.00000000E+00  0.00000000E+00  0.00000000E+00  0.00000000E+00  0.00000000E+00
  0.00000000E+00  0.00000000E+00  0.00000000E+00  0.00000000E+00  0.00000000E+00
  0.00000000E+00  0.00000000E+00  0.00000000E+00  0.00000000E+00  0.00000000E+00
  0.00000000E+00  0.00000000E+00  3.90772408E-05  0.00000000E+00  0.00000000E+00
  0.00000000E+00  0.00000000E+00  1.04802485E-02  0.00000000E+00  0.00000000E+00
  0.00000000E+00  0.00000000E+00  0.00000000E+00  0.00000000E+00  0.00000000E+00
  0.00000000E+00  0.00000000E+00  0.00000000E+00  0.00000000E+00  0.00000000E+00
  0.00000000E+00  0.00000000E+00  0.00000000E+00  0.00000000E+00  0.00000000E+00
  5.83942163E-02  0.00000000E+00  0.00000000E+00  0.00000000E+00  0.00000000E+00
  9.97613291E-02  0.00000000E+00  0.00000000E+00  0.00000000E+00  0.00000000E+00
  0.00000000E+00  1.68278413E-05  1.67891200E-02  1.25479936E-01  1.41050369E-01
  0.00000000E+00  0.00000000E+00  1.80024425E-05  0.00000000E+00  0.00000000E+00
  3.67633858E-02  0.00000000E+00  0.00000000E+00  2.88638144E-01  8.14146611E-04
  0.00000000E+00  0.00000000E+00 -3.90772408E-05  0.00000000E+00  2.12671741E-01
  0.00000000E+00  0.00000000E+00 -1.04802485E-02  0.00000000E+00  4.88549211E-02
  2.92382609E-01  3.46003098E-01  1.83194591E-01  0.00000000E+00  0.00000000E+00
  9.97933654E-02  0.00000000E+00  0.00000000E+00  5.20387427E-01  0.00000000E+00
  0.00000000E+00  4.15371618E-01  2.10786905E-01  0.00000000E+00  0.00000000E+00
 -5.83942163E-02  0.00000000E+00  5.08258160E-01  0.00000000E+00  0.00000000E+00
 -9.97613291E-02  0.00000000E+00  7.54499943E-01  8.54943942E-01  5.07629231E-01
  2.02239405E-01  0.00000000E+00  0.00000000E+00  0.00000000E+00  0.00000000E+00
  0.00000000E+00  0.00000000E+00  0.00000000E+00  1.79903315E-05  0.00000000E+00
  0.00000000E+00 -6.03934087E-03  0.00000000E+00  0.00000000E+00 -2.61680576E-03
  0.00000000E+00  0.00000000E+00  0.00000000E+00 -4.99503968E-04  0.00000000E+00
  0.00000000E+00  0.00000000E+00  0.00000000E+00 -2.61391633E-02  0.00000000E+00
  0.00000000E+00  0.00000000E+00  0.00000000E+00  0.00000000E+00  0.00000000E+00
  0.00000000E+00 -6.41462636E-02  0.00000000E+00  0.00000000E+00 -6.26377656E-02
  0.00000000E+00  0.00000000E+00  1.64077009E-02  0.00000000E+00  0.00000000E+00
  0.00000000E+00 -1.57485886E-01  0.00000000E+00  0.00000000E+00  0.00000000E+00
  0.00000000E+00  4.49801903E-02  0.00000000E+00  0.00000000E+00  0.00000000E+00
  0.00000000E+00  0.00000000E+00  0.00000000E+00  0.00000000E+00  1.77683014E-01
  0.00000000E+00  0.00000000E+00  0.00000000E+00  0.00000000E+00  0.00000000E+00
  0.00000000E+00  0.00000000E+00  0.00000000E+00  0.00000000E+00  0.00000000E+00
  0.00000000E+00  0.00000000E+00  0.00000000E+00  0.00000000E+00  0.00000000E+00
  0.00000000E+00  0.00000000E+00  0.00000000E+00 -1.07749375E-02  0.00000000E+00
  0.00000000E+00  0.00000000E+00  0.00000000E+00  4.10057835E-02  0.00000000E+00
  0.00000000E+00  0.00000000E+00  0.00000000E+00  0.00000000E+00  0.00000000E+00
  0.00000000E+00  0.00000000E+00  0.00000000E+00  0.00000000E+00  0.00000000E+00
  0.00000000E+00  0.00000000E+00  0.00000000E+00  0.00000000E+00  0.00000000E+00
  0.00000000E+00  1.01032931E-01  0.00000000E+00  0.00000000E+00  0.00000000E+00
  0.00000000E+00  4.95592759E-01  0.00000000E+00  0.00000000E+00  0.00000000E+00
  0.00000000E+00  0.00000000E+00  0.00000000E+00  0.00000000E+00  0.00000000E+00
 -5.69137047E-03  1.34987722E-02  3.38697881E-01  5.81765707E-01  0.00000000E+00
  0.00000000E+00 -6.03874465E-03  0.00000000E+00  0.00000000E+00  5.10058516E-02
  0.00000000E+00  0.00000000E+00  8.35310319E-01  3.70638921E-03  0.00000000E+00
  0.00000000E+00  1.07749375E-02  0.00000000E+00  3.83655548E-01  0.00000000E+00
  0.00000000E+00 -4.10057835E-02  0.00000000E+00  4.88781219E-02  4.77969131E-01
  1.02128176E+00  7.85192945E-01  0.00000000E+00  0.00000000E+00  9.81396152E-02
  0.00000000E+00  0.00000000E+00  7.75180391E-01  0.00000000E+00  0.00000000E+00
  1.40068220E+00  9.80591018E-02  0.00000000E+00  0.00000000E+00 -1.01032931E-01
  0.00000000E+00  7.29585730E-01  0.00000000E+00  0.00000000E+00 -4.95592759E-01
  0.00000000E+00  5.15198157E-01  1.56869826E+00  1.68424455E+00  9.03720312E-01
  0.00000000E+00  0.00000000E+00  1.71287901E-01  0.00000000E+00  0.00000000E+00
  0.00000000E+00  0.00000000E+00  0.00000000E+00  0.00000000E+00  0.00000000E+00
  3.67612237E-02  0.00000000E+00  0.00000000E+00  5.09963867E-02  0.00000000E+00
  0.00000000E+00  4.67364438E-02  0.00000000E+00  0.00000000E+00  0.00000000E+00
  4.76381222E-02  0.00000000E+00  0.00000000E+00  0.00000000E+00  0.00000000E+00
 -3.88122346E-02  0.00000000E+00  0.00000000E+00  0.00000000E+00  0.00000000E+00
  0.00000000E+00  0.00000000E+00  0.00000000E+00 -6.26377656E-02  0.00000000E+00
  0.00000000E+00 -9.16685230E-02  0.00000000E+00  0.00000000E+00  2.19755765E-01
  0.00000000E+00  0.00000000E+00  0.00000000E+00 -2.60625934E-01  0.00000000E+00
  0.00000000E+00  0.00000000E+00  0.00000000E+00  1.86729720E-01  0.00000000E+00
  0.00000000E+00  0.00000000E+00  0.00000000E+00  0.00000000E+00  0.00000000E+00
  0.00000000E+00  1.71287901E-01  0.00000000E+00  0.00000000E+00  6.44329897E-01
  0.00000000E+00  0.00000000E+00  0.00000000E+00  0.00000000E+00  0.00000000E+00
  0.00000000E+00  0.00000000E+00  0.00000000E+00  0.00000000E+00  0.00000000E+00
  0.00000000E+00  0.00000000E+00  0.00000000E+00  0.00000000E+00  0.00000000E+00
  0.00000000E+00  0.00000000E+00  0.00000000E+00 -9.46378652E-02  0.00000000E+00
  0.00000000E+00  0.00000000E+00  0.00000000E+00 -3.28447301E-01  0.00000000E+00
  0.00000000E+00  0.00000000E+00  0.00000000E+00  0.00000000E+00  0.00000000E+00
  0.00000000E+00  0.00000000E+00  0.00000000E+00  0.00000000E+00  0.00000000E+00
  0.00000000E+00  0.00000000E+00  0.00000000E+00  0.00000000E+00  0.00000000E+00
  0.00000000E+00  2.51659289E-02  0.00000000E+00  0.00000000E+00  0.00000000E+00
  0.00000000E+00  4.68961899E-01  0.00000000E+00  0.00000000E+00  0.00000000E+00
  0.00000000E+00  0.00000000E+00  0.00000000E+00  0.00000000E+00  0.00000000E+00
  0.00000000E+00  0.00000000E+00  0.00000000E+00 -3.94716509E-02 -2.01195660E-01
 -4.91401892E-03  1.49606782E+00  0.00000000E+00  0.00000000E+00 -2.61597295E-03
  0.00000000E+00  0.00000000E+00  4.67467324E-02  0.00000000E+00  0.00000000E+00
  1.25826852E+00  6.51578480E-02  0.00000000E+00  0.00000000E+00  9.46378652E-02
  0.00000000E+00  5.75414381E-01  0.00000000E+00  0.00000000E+00  3.28447301E-01
  0.00000000E+00  9.39952475E-03  1.96416515E-01  1.18904716E+00  2.42516432E+00
  0.00000000E+00  0.00000000E+00  4.53304582E-02  0.00000000E+00  0.00000000E+00
  5.30205497E-01  0.00000000E+00  0.00000000E+00  2.76632635E+00  1.53821942E-02
  0.00000000E+00  0.00000000E+00 -2.51659289E-02  0.00000000E+00  3.23520464E-01
  0.00000000E+00  0.00000000E+00 -4.68961899E-01  0.00000000E+00  1.60242009E-01
  1.06191408E+00  2.82072824E+00  3.23275828E+00  0.00000000E+00  0.00000000E+00
  5.91902931E-02  0.00000000E+00  0.00000000E+00  6.06245580E-01  0.00000000E+00
  0.00000000E+00  0.00000000E+00  0.00000000E+00  0.00000000E+00  0.00000000E+00
  0.00000000E+00  2.88626657E-01  0.00000000E+00  0.00000000E+00  8.35271182E-01
  0.00000000E+00  0.00000000E+00  1.25820713E+00  0.00000000E+00  0.00000000E+00
  0.00000000E+00 -5.37225352E-02  0.00000000E+00  0.00000000E+00  0.00000000E+00
  0.00000000E+00 -3.65391626E-01  0.00000000E+00  0.00000000E+00  0.00000000E+00
  0.00000000E+00  0.00000000E+00  0.00000000E+00  0.00000000E+00  1.64077009E-02
  0.00000000E+00  0.00000000E+00  2.19755765E-01  0.00000000E+00  0.00000000E+00
  1.38295523E+00  0.00000000E+00  0.00000000E+00  0.00000000E+00 -2.25760084E-01
  0.00000000E+00  0.00000000E+00  0.00000000E+00  0.00000000E+00 -4.19011581E-01
  0.00000000E+00  0.00000000E+00  0.00000000E+00  0.00000000E+00  0.00000000E+00
  0.00000000E+00  0.00000000E+00  5.91902931E-02  0.00000000E+00  0.00000000E+00
  6.06245580E-01  0.00000000E+00  0.00000000E+00  2.45098039E+00  0.00000000E+00
  0.00000000E+00  0.00000000E+00  0.00000000E+00  0.00000000E+00  0.00000000E+00
 -8.14030365E-04  0.00000000E+00  0.00000000E+00 -3.70554162E-03  0.00000000E+00
  0.00000000E+00 -6.51597045E-02  0.00000000E+00  0.00000000E+00  0.00000000E+00
 -1.74687139E-03  0.00000000E+00  0.00000000E+00  0.00000000E+00  0.00000000E+00
 -7.11855562E-02  0.00000000E+00  0.00000000E+00  0.00000000E+00  0.00000000E+00
  0.00000000E+00  0.00000000E+00  0.00000000E+00  4.02697786E-02  0.00000000E+00
  0.00000000E+00 -1.67343420E-01  0.00000000E+00  0.00000000E+00 -1.70789521E-01
  0.00000000E+00  0.00000000E+00  0.00000000E+00 -2.14341688E-02  0.00000000E+00
  0.00000000E+00  0.00000000E+00  0.00000000E+00 -3.83239494E-01  0.00000000E+00
  0.00000000E+00  0.00000000E+00  0.00000000E+00  0.00000000E+00  0.00000000E+00
  0.00000000E+00 -4.24574162E-01  0.00000000E+00  0.00000000E+00 -5.49326555E-01
  0.00000000E+00  0.00000000E+00 -2.23762132E-01  0.00000000E+00  0.00000000E+00
  0.00000000E+00  0.00000000E+00  0.00000000E+00  0.00000000E+00  0.00000000E+00
  0.00000000E+00  0.00000000E+00  0.00000000E+00  0.00000000E+00  0.00000000E+00
  0.00000000E+00  0.00000000E+00  0.00000000E+00  0.00000000E+00  0.00000000E+00
  0.00000000E+00  0.00000000E+00  2.36016057E-04  0.00000000E+00  0.00000000E+00
  0.00000000E+00  0.00000000E+00 -1.19937599E-02  0.00000000E+00  0.00000000E+00
  0.00000000E+00  0.00000000E+00  0.00000000E+00  0.00000000E+00  0.00000000E+00
  0.00000000E+00  0.00000000E+00  0.00000000E+00  0.00000000E+00  0.00000000E+00
  0.00000000E+00  0.00000000E+00  0.00000000E+00  0.00000000E+00  0.00000000E+00
 -1.03198927E-01  0.00000000E+00  0.00000000E+00  0.00000000E+00  0.00000000E+00
 -2.62247581E-02  0.00000000E+00  0.00000000E+00  0.00000000E+00  0.00000000E+00
  0.00000000E+00  0.00000000E+00  0.00000000E+00  0.00000000E+00  0.00000000E+00
  0.00000000E+00  0.00000000E+00  0.00000000E+00  0.00000000E+00  0.00000000E+00
  0.00000000E+00  2.27384953E-04 -2.08665538E-02 -1.03871344E-02  7.43111979E-02
  0.00000000E+00  0.00000000E+00  4.99355213E-04  0.00000000E+00  0.00000000E+00
 -4.76435897E-02  0.00000000E+00  0.00000000E+00  5.37165164E-02 -1.74761692E-03
  0.00000000E+00  0.00000000E+00 -2.36016057E-04  0.00000000E+00 -8.83360270E-02
  0.00000000E+00  0.00000000E+00  1.19937599E-02  0.00000000E+00 -7.95204099E-02
 -1.20278982E-01  9.62027246E-02  1.15861281E-01  0.00000000E+00  0.00000000E+00
 -1.43748727E-01  0.00000000E+00  0.00000000E+00 -6.12301101E-02  0.00000000E+00
  0.00000000E+00  3.37820530E-01 -9.77296879E-02  0.00000000E+00  0.00000000E+00
  1.03198927E-01  0.00000000E+00  4.49217129E-01  0.00000000E+00  0.00000000E+00
  2.62247581E-02  0.00000000E+00  1.86621370E-01  4.32246747E-01  3.36623363E-01
  1.49740957E-01  0.00000000E+00  0.00000000E+00  7.35384020E-01  0.00000000E+00
  0.00000000E+00  9.51461503E-01  0.00000000E+00  0.00000000E+00  3.87567381E-01
  1.36553990E-01  0.00000000E+00  0.00000000E+00  0.00000000E+00  0.00000000E+00
  0.00000000E+00  0.00000000E+00  0.00000000E+00  3.90671777E-05  0.00000000E+00
  0.00000000E+00 -1.07757890E-02  0.00000000E+00  0.00000000E+00 -9.46420671E-02
  0.00000000E+00  0.00000000E+00  0.00000000E+00 -2.36135409E-04  0.00000000E+00
  0.00000000E+00  0.00000000E+00  0.00000000E+00 -1.14268321E-01  0.00000000E+00
  0.00000000E+00  0.00000000E+00  0.00000000E+00  0.00000000E+00  0.00000000E+00
  0.00000000E+00 -4.38682918E-02  0.00000000E+00  0.00000000E+00 -2.75236620E-01
  0.00000000E+00  0.00000000E+00 -2.60788106E-01  0.00000000E+00  0.00000000E+00
  0.00000000E+00 -1.87273400E-01  0.00000000E+00  0.00000000E+00  0.00000000E+00
  0.00000000E+00 -5.60499581E-01  0.00000000E+00  0.00000000E+00  0.00000000E+00
  0.00000000E+00  0.00000000E+00  0.00000000E+00  0.00000000E+00 -7.35384020E-01
  0.00000000E+00  0.00000000E+00 -9.51461503E-01  0.00000000E+00  0.00000000E+00
 -3.87567381E-01  0.00000000E+00  0.00000000E+00  0.00000000E+00 -2.36518448E-01
  0.00000000E+00  0.00000000E+00  0.00000000E+00  0.00000000E+00  0.00000000E+00
 -3.90671777E-05  0.00000000E+00  0.00000000E+00  1.07757890E-02  0.00000000E+00
  0.00000000E+00  9.46420671E-02  0.00000000E+00  0.00000000E+00  0.00000000E+00
  2.36135409E-04  0.00000000E+00  0.00000000E+00  0.00000000E+00  0.00000000E+00
  1.14268321E-01  0.00000000E+00  0.00000000E+00  0.00000000E+00  0.00000000E+00
  0.00000000E+00  0.00000000E+00  0.00000000E+00  4.38682918E-02  0.00000000E+00
  0.00000000E+00  2.75236620E-01  0.00000000E+00  0.00000000E+00  2.60788106E-01
  0.00000000E+00  0.00000000E+00  0.00000000E+00  1.87273400E-01  0.00000000E+00
  0.00000000E+00  0.00000000E+00  0.00000000E+00  5.60499581E-01  0.00000000E+00
  0.00000000E+00  0.00000000E+00  0.00000000E+00  0.00000000E+00  0.00000000E+00
  0.00000000E+00  7.35384020E-01  0.00000000E+00  0.00000000E+00  9.51461503E-01
  0.00000000E+00  0.00000000E+00  3.87567381E-01  0.00000000E+00  0.00000000E+00
  0.00000000E+00  2.36518448E-01  0.00000000E+00  0.00000000E+00  0.00000000E+00
  0.00000000E+00  0.00000000E+00  0.00000000E+00  0.00000000E+00  0.00000000E+00
 -2.12662179E-01  0.00000000E+00  0.00000000E+00 -3.83635270E-01  0.00000000E+00
  0.00000000E+00 -5.75418063E-01  0.00000000E+00  0.00000000E+00  0.00000000E+00
 -8.83255816E-02  0.00000000E+00  0.00000000E+00  0.00000000E+00  0.00000000E+00
 -2.59188068E-01  0.00000000E+00  0.00000000E+00  0.00000000E+00  0.00000000E+00
  0.00000000E+00  0.00000000E+00  0.00000000E+00 -4.61918067E-02  0.00000000E+00
  0.00000000E+00 -4.72108771E-01  0.00000000E+00  0.00000000E+00 -1.06938853E+00
  0.00000000E+00  0.00000000E+00  0.00000000E+00  1.35935186E-01  0.00000000E+00
  0.00000000E+00  0.00000000E+00  0.00000000E+00 -6.15690192E-01  0.00000000E+00
  0.00000000E+00  0.00000000E+00  0.00000000E+00  0.00000000E+00  0.00000000E+00
  0.00000000E+00 -1.34558208E-01  0.00000000E+00  0.00000000E+00 -7.66917169E-01
  0.00000000E+00  0.00000000E+00 -1.17294612E+00  0.00000000E+00  0.00000000E+00
  0.00000000E+00  9.43226723E-02  0.00000000E+00  0.00000000E+00  0.00000000E+00
  0.00000000E+00  0.00000000E+00  0.00000000E+00  0.00000000E+00  0.00000000E+00
  0.00000000E+00  0.00000000E+00  0.00000000E+00  0.00000000E+00  0.00000000E+00
  0.00000000E+00  0.00000000E+00  0.00000000E+00  0.00000000E+00  0.00000000E+00
  0.00000000E+00  0.00000000E+00  1.14262294E-01  0.00000000E+00  0.00000000E+00
  0.00000000E+00  0.00000000E+00  2.01366202E-01  0.00000000E+00  0.00000000E+00
  0.00000000E+00  0.00000000E+00  0.00000000E+00  0.00000000E+00  0.00000000E+00
  0.00000000E+00  0.00000000E+00  0.00000000E+00  0.00000000E+00  0.00000000E+00
  0.00000000E+00  0.00000000E+00  0.00000000E+00  0.00000000E+00  0.00000000E+00
 -2.62247581E-02  0.00000000E+00  0.00000000E+00  0.00000000E+00  0.00000000E+00
  1.30225160E-01  0.00000000E+00  0.00000000E+00  0.00000000E+00  0.00000000E+00
  0.00000000E+00  0.00000000E+00  0.00000000E+00  0.00000000E+00  0.00000000E+00
  0.00000000E+00  0.00000000E+00  0.00000000E+00  0.00000000E+00  0.00000000E+00
  0.00000000E+00  0.00000000E+00  0.00000000E+00  1.63371661E-01  0.00000000E+00
  0.00000000E+00  5.47160838E-02  1.87518981E-01  3.03313894E-01  7.97919568E-01
  0.00000000E+00  0.00000000E+00  2.61367065E-02  0.00000000E+00  0.00000000E+00
  3.87923306E-02  0.00000000E+00  0.00000000E+00  3.65365955E-01 -7.11847071E-02
  0.00000000E+00  0.00000000E+00 -1.14262294E-01  0.00000000E+00 -2.59191218E-01
  0.00000000E+00  0.00000000E+00 -2.01366202E-01  0.00000000E+00 -1.21417576E-02
  3.82495952E-02  7.28367394E-01  1.16179920E+00  0.00000000E+00  0.00000000E+00
 -8.87905663E-02  0.00000000E+00  0.00000000E+00 -1.75878602E-01  0.00000000E+00
  0.00000000E+00  1.26636286E+00  1.02160701E-02  0.00000000E+00  0.00000000E+00
  2.62247581E-02  0.00000000E+00  7.66061254E-01  0.00000000E+00  0.00000000E+00
 -1.30225160E-01  0.00000000E+00  7.11458243E-02  7.42108557E-01  1.75593236E+00
  1.47280833E+00  0.00000000E+00  0.00000000E+00  2.33061653E-01  0.00000000E+00
  0.00000000E+00  1.32833950E+00  0.00000000E+00  0.00000000E+00  2.03160227E+00
  9.43226723E-02  0.00000000E+00  0.00000000E+00 -1.63371661E-01  0.00000000E+00
  5.84362621E-01  0.00000000E+00  0.00000000E+00  0.00000000E+00  0.00000000E+00
  0.00000000E+00  0.00000000E+00  0.00000000E+00  1.04797018E-02  0.00000000E+00
  0.00000000E+00  4.09990280E-02  0.00000000E+00  0.00000000E+00 -3.28476223E-01
  0.00000000E+00  0.00000000E+00  0.00000000E+00  1.19923514E-02  0.00000000E+00
  0.00000000E+00  0.00000000E+00  0.00000000E+00 -2.01389993E-01  0.00000000E+00
  0.00000000E+00  0.00000000E+00  0.00000000E+00  0.00000000E+00  0.00000000E+00
  0.00000000E+00 -1.75131829E-02  0.00000000E+00  0.00000000E+00 -3.15493329E-01
  0.00000000E+00  0.00000000E+00 -1.13562342E+00  0.00000000E+00  0.00000000E+00
  0.00000000E+00 -1.10881119E-01  0.00000000E+00  0.00000000E+00  0.00000000E+00
  0.00000000E+00 -1.22171955E+00  0.00000000E+00  0.00000000E+00  0.00000000E+00
  0.00000000E+00  0.00000000E+00  0.00000000E+00  0.00000000E+00 -2.33061653E-01
  0.00000000E+00  0.00000000E+00 -1.32833950E+00  0.00000000E+00  0.00000000E+00
 -2.03160227E+00  0.00000000E+00  0.00000000E+00  0.00000000E+00 -1.63371661E-01
  0.00000000E+00  0.00000000E+00  0.00000000E+00  0.00000000E+00 -1.01214575E+00
  0.00000000E+00  0.00000000E+00  0.00000000E+00  0.00000000E+00  0.00000000E+00
 -1.04797018E-02  0.00000000E+00  0.00000000E+00 -4.09990280E-02  0.00000000E+00
  0.00000000E+00  3.28476223E-01  0.00000000E+00  0.00000000E+00  0.00000000E+00
 -1.19923514E-02  0.00000000E+00  0.00000000E+00  0.00000000E+00  0.00000000E+00
  2.01389993E-01  0.00000000E+00  0.00000000E+00  0.00000000E+00  0.00000000E+00
  0.00000000E+00  0.00000000E+00  0.00000000E+00  1.75131829E-02  0.00000000E+00
  0.00000000E+00  3.15493329E-01  0.00000000E+00  0.00000000E+00  1.13562342E+00
  0.00000000E+00  0.00000000E+00  0.00000000E+00  1.10881119E-01  0.00000000E+00
  0.00000000E+00  0.00000000E+00  0.00000000E+00  1.22171955E+00  0.00000000E+00
  0.00000000E+00  0.00000000E+00  0.00000000E+00  0.00000000E+00  0.00000000E+00
  0.00000000E+00  2.33061653E-01  0.00000000E+00  0.00000000E+00  1.32833950E+00
  0.00000000E+00  0.00000000E+00  2.03160227E+00  0.00000000E+00  0.00000000E+00
  0.00000000E+00  1.63371661E-01  0.00000000E+00  0.00000000E+00  0.00000000E+00
  0.00000000E+00  1.01214575E+00  0.00000000E+00  0.00000000E+00  0.00000000E+00
Multipole Matrix (0,0,2)                   R   N=        2415
  3.44478325E+00  2.53029552E+00  4.03573174E+00  1.36011741E+00  3.49887232E+00
  5.70266439E+00  5.23196931E-01  1.74352929E+00  5.09695149E+00  1.31654603E+01
  0.00000000E+00  0.00000000E+00  0.00000000E+00  0.00000000E+00  3.44607282E+00
  0.00000000E+00  0.00000000E+00  0.00000000E+00  0.00000000E+00  0.00000000E+00
  3.44607282E+00 -1.50894468E+00 -1.70982533E+00 -1.01522132E+00 -4.04464013E-01
  0.00000000E+00  0.00000000E+00  3.80143885E+00  0.00000000E+00  0.00000000E+00
  0.00000000E+00  0.00000000E+00  2.18109781E+00  0.00000000E+00  0.00000000E+00
  3.91271970E+00  0.00000000E+00  0.00000000E+00  0.00000000E+00  0.00000000E+00
  0.00000000E+00  2.18109781E+00  0.00000000E+00  0.00000000E+00  3.91271970E+00
 -1.03035862E+00 -3.13728173E+00 -3.36836587E+00 -1.80737450E+00  0.00000000E+00
  0.00000000E+00  2.52367361E+00  0.00000000E+00  0.00000000E+00  5.20137950E+00
  0.00000000E+00  0.00000000E+00  0.00000000E+00  0.00000000E+00  6.43043371E-01
  0.00000000E+00  0.00000000E+00  2.54806352E+00  0.00000000E+00  0.00000000E+00
  5.71937020E+00  0.00000000E+00  0.00000000E+00  0.00000000E+00  0.00000000E+00
  0.00000000E+00  6.43043371E-01  0.00000000E+00  0.00000000E+00  2.54806352E+00
  0.00000000E+00  0.00000000E+00  5.71937020E+00 -3.20472293E-01 -2.12375047E+00
 -5.64125009E+00 -6.46528003E+00  0.00000000E+00  0.00000000E+00  7.61423957E-01
  0.00000000E+00  0.00000000E+00  3.76055468E+00  0.00000000E+00  0.00000000E+00
  1.06213310E+01  2.15491797E-01  4.99115551E-01  3.88699178E-01  1.72905964E-01
  0.00000000E+00  0.00000000E+00 -1.69823452E+00  0.00000000E+00  0.00000000E+00
 -2.19722584E+00  0.00000000E+00  0.00000000E+00 -8.95015782E-01  4.13562412E+00
  0.00000000E+00  0.00000000E+00  0.00000000E+00  0.00000000E+00 -1.47071423E+00
  0.00000000E+00  0.00000000E+00 -1.90285339E+00  0.00000000E+00  0.00000000E+00
 -7.75106404E-01  0.00000000E+00  0.00000000E+00  0.00000000E+00  3.97794515E+00
  0.00000000E+00  0.00000000E+00  0.00000000E+00  0.00000000E+00  0.00000000E+00
 -1.47071423E+00  0.00000000E+00  0.00000000E+00 -1.90285339E+00  0.00000000E+00
  0.00000000E+00 -7.75106404E-01  0.00000000E+00  0.00000000E+00  0.00000000E+00
  3.97794515E+00  2.21836538E-17  1.64090235E-16 -2.46460849E-17  3.65802630E-18
  0.00000000E+00  0.00000000E+00 -1.37526812E-17  0.00000000E+00  0.00000000E+00
  4.89133546E-17  0.00000000E+00  0.00000000E+00  1.87459538E-17 -4.97126404E-17
  0.00000000E+00  0.00000000E+00  3.50490826E+00  0.00000000E+00  0.00000000E+00
  0.00000000E+00  0.00000000E+00  0.00000000E+00  0.00000000E+00  0.00000000E+00
  0.00000000E+00  0.00000000E+00  0.00000000E+00  0.00000000E+00  0.00000000E+00
  0.00000000E+00  0.00000000E+00  0.00000000E+00  0.00000000E+00  0.00000000E+00
  3.50490826E+00  8.21521216E-02  8.56913150E-01  2.02757604E+00  1.70065257E+00
  0.00000000E+00  0.00000000E+00 -5.38213143E-01  0.00000000E+00  0.00000000E+00
 -3.06755645E+00  0.00000000E+00  0.00000000E+00 -4.69161283E+00  1.99160303E+00
  0.00000000E+00  0.00000000E+00  8.89807641E-18  0.00000000E+00  6.97959089E+00
  0.00000000E+00  0.00000000E+00  0.00000000E+00  0.00000000E+00 -4.66106254E-01
  0.00000000E+00  0.00000000E+00 -2.65658181E+00  0.00000000E+00  0.00000000E+00
 -4.06305590E+00  0.00000000E+00  0.00000000E+00  0.00000000E+00  1.88268858E+00
  0.00000000E+00  0.00000000E+00  0.00000000E+00  0.00000000E+00  6.30482705E+00
  0.00000000E+00  0.00000000E+00  0.00000000E+00  0.00000000E+00  0.00000000E+00
 -4.66106254E-01  0.00000000E+00  0.00000000E+00 -2.65658181E+00  0.00000000E+00
  0.00000000E+00 -4.06305590E+00  0.00000000E+00  0.00000000E+00  0.00000000E+00
  1.88268858E+00  0.00000000E+00  0.00000000E+00  0.00000000E+00  0.00000000E+00
  6.30482705E+00  2.56529231E-17  4.71682467E-18 -1.63069709E-16 -1.29238549E-16
  0.00000000E+00  0.00000000E+00 -6.12486430E-18  0.00000000E+00  0.00000000E+00
  4.88271009E-17  0.00000000E+00  0.00000000E+00  1.32666371E-16  2.31295056E-17
  0.00000000E+00  0.00000000E+00  1.55594526E+00  0.00000000E+00  4.55524361E-17
  0.00000000E+00  0.00000000E+00  4.28053556E+00  0.00000000E+00  0.00000000E+00
  0.00000000E+00  0.00000000E+00  0.00000000E+00  0.00000000E+00  0.00000000E+00
  0.00000000E+00  0.00000000E+00  0.00000000E+00  0.00000000E+00  0.00000000E+00
  0.00000000E+00  0.00000000E+00  0.00000000E+00  0.00000000E+00  0.00000000E+00
  1.55594526E+00  0.00000000E+00  0.00000000E+00  0.00000000E+00  0.00000000E+00
  4.28053556E+00  1.25617806E-01  1.40493400E-01  1.07794203E-01  5.26334813E-02
  0.00000000E+00  0.00000000E+00  1.47125186E-01  0.00000000E+00  0.00000000E+00
  1.44466631E-01  0.00000000E+00  0.00000000E+00  9.54648906E-02  8.38236241E-02
  0.00000000E+00  0.00000000E+00  5.58471152E-18  0.00000000E+00  1.02076299E-01
  0.00000000E+00  0.00000000E+00  9.39043034E-19  0.00000000E+00  1.76393444E-01
  7.21468680E-01  9.30354057E-01  8.27914606E-01  4.95968506E-01  0.00000000E+00
  0.00000000E+00 -1.14565463E-02  0.00000000E+00  0.00000000E+00 -1.28019655E-03
  0.00000000E+00  0.00000000E+00  3.34274492E-01 -1.50363552E-01  0.00000000E+00
  0.00000000E+00 -4.37559754E-17  0.00000000E+00  1.03216888E-01  0.00000000E+00
  0.00000000E+00  1.12043891E-17  0.00000000E+00  2.21880681E-01  7.67341928E-01
  8.65931806E-01  1.86796515E+00  2.74902212E+00  2.68216383E+00  0.00000000E+00
  0.00000000E+00 -4.50264541E-01  0.00000000E+00  0.00000000E+00 -1.23009847E+00
  0.00000000E+00  0.00000000E+00 -7.83112924E-01 -1.95531297E-03  0.00000000E+00
  0.00000000E+00 -1.07057936E-17  0.00000000E+00  4.20141734E-01  0.00000000E+00
  0.00000000E+00 -1.05829188E-16  0.00000000E+00  1.39282807E-01  9.20511195E-01
  2.43427459E+00  4.65403404E-01  1.45888988E+00  3.99703833E+00  1.02808939E+01
  0.00000000E+00  0.00000000E+00 -3.33374622E-01  0.00000000E+00  0.00000000E+00
 -1.39749860E+00  0.00000000E+00  0.00000000E+00 -3.92866230E+00  1.10445657E-01
  0.00000000E+00  0.00000000E+00 -9.76425676E-18  0.00000000E+00  1.13497294E+00
  0.00000000E+00  0.00000000E+00  1.07481629E-17  0.00000000E+00  5.68664226E-02
  5.29175765E-01  2.77544267E+00  9.89707047E+00  0.00000000E+00  0.00000000E+00
  0.00000000E+00  0.00000000E+00  9.98041579E-02  0.00000000E+00  0.00000000E+00
  9.81442105E-02  0.00000000E+00  0.00000000E+00  4.53313462E-02  0.00000000E+00
  0.00000000E+00  0.00000000E+00  1.43751553E-01  0.00000000E+00  0.00000000E+00
  0.00000000E+00  0.00000000E+00  8.87900196E-02  0.00000000E+00  0.00000000E+00
  0.00000000E+00  0.00000000E+00  0.00000000E+00  0.00000000E+00  0.00000000E+00
  1.77683014E-01  0.00000000E+00  0.00000000E+00  0.00000000E+00  0.00000000E+00
  0.00000000E+00  9.98041579E-02  0.00000000E+00  0.00000000E+00  9.81442105E-02
  0.00000000E+00  0.00000000E+00  4.53313462E-02  0.00000000E+00  0.00000000E+00
  0.00000000E+00  1.43751553E-01  0.00000000E+00  0.00000000E+00  0.00000000E+00
  0.00000000E+00  8.87900196E-02  0.00000000E+00  0.00000000E+00  0.00000000E+00
  0.00000000E+00  0.00000000E+00  0.00000000E+00  0.00000000E+00  1.77683014E-01
 -2.87091656E-01 -2.30225212E-01 -7.69188847E-02 -9.87600286E-03  0.00000000E+00
  0.00000000E+00 -3.23504584E-01  0.00000000E+00  0.00000000E+00 -1.52730692E-01
  0.00000000E+00  0.00000000E+00  5.38795588E-02 -1.43433234E-01  0.00000000E+00
  0.00000000E+00  4.25081328E-18  0.00000000E+00  1.11844038E-01  0.00000000E+00
  0.00000000E+00  3.61135369E-19  0.00000000E+00  0.00000000E+00  0.00000000E+00
  0.00000000E+00  0.00000000E+00  0.00000000E+00  0.00000000E+00  5.33049041E-01
  0.00000000E+00  0.00000000E+00  0.00000000E+00  0.00000000E+00  5.20391839E-01
  0.00000000E+00  0.00000000E+00  7.75184643E-01  0.00000000E+00  0.00000000E+00
  5.30211010E-01  0.00000000E+00  0.00000000E+00  0.00000000E+00  6.11946615E-02
  0.00000000E+00  0.00000000E+00  0.00000000E+00  0.00000000E+00  1.75855741E-01
  0.00000000E+00  0.00000000E+00  0.00000000E+00  0.00000000E+00  0.00000000E+00
  0.00000000E+00  0.00000000E+00  1.71287901E-01  0.00000000E+00  0.00000000E+00
  6.44329897E-01  0.00000000E+00  0.00000000E+00  0.00000000E+00  0.00000000E+00
  0.00000000E+00  5.20391839E-01  0.00000000E+00  0.00000000E+00  7.75184643E-01
  0.00000000E+00  0.00000000E+00  5.30211010E-01  0.00000000E+00  0.00000000E+00
  0.00000000E+00  6.11946615E-02  0.00000000E+00  0.00000000E+00  0.00000000E+00
  0.00000000E+00  1.75855741E-01  0.00000000E+00  0.00000000E+00  0.00000000E+00
  0.00000000E+00  0.00000000E+00  0.00000000E+00  0.00000000E+00  1.71287901E-01
  0.00000000E+00  0.00000000E+00  6.44329897E-01 -1.40318748E+00 -1.59417731E+00
 -8.48938420E-01 -1.53866634E-01  0.00000000E+00  0.00000000E+00  2.74566834E-01
  0.00000000E+00  0.00000000E+00  4.75689256E-01  0.00000000E+00  0.00000000E+00
  8.19079173E-01  2.93822314E-01  0.00000000E+00  0.00000000E+00  1.05563557E-17
  0.00000000E+00  6.77954174E-01  0.00000000E+00  0.00000000E+00  8.60008899E-19
  0.00000000E+00  0.00000000E+00  0.00000000E+00  0.00000000E+00  0.00000000E+00
  0.00000000E+00  0.00000000E+00  5.13863703E-01  0.00000000E+00  0.00000000E+00
  1.93298969E+00  0.00000000E+00  0.00000000E+00  0.00000000E+00  0.00000000E+00
  4.15353847E-01  0.00000000E+00  0.00000000E+00  1.40064083E+00  0.00000000E+00
  0.00000000E+00  2.76630949E+00  0.00000000E+00  0.00000000E+00  0.00000000E+00
 -3.37827290E-01  0.00000000E+00  0.00000000E+00  0.00000000E+00  0.00000000E+00
 -1.26637760E+00  0.00000000E+00  0.00000000E+00  0.00000000E+00  0.00000000E+00
  0.00000000E+00  0.00000000E+00  0.00000000E+00  5.91902931E-02  0.00000000E+00
  0.00000000E+00  6.06245580E-01  0.00000000E+00  0.00000000E+00  2.45098039E+00
  0.00000000E+00  0.00000000E+00  0.00000000E+00  0.00000000E+00  0.00000000E+00
  4.15353847E-01  0.00000000E+00  0.00000000E+00  1.40064083E+00  0.00000000E+00
  0.00000000E+00  2.76630949E+00  0.00000000E+00  0.00000000E+00  0.00000000E+00
 -3.37827290E-01  0.00000000E+00  0.00000000E+00  0.00000000E+00  0.00000000E+00
 -1.26637760E+00  0.00000000E+00  0.00000000E+00  0.00000000E+00  0.00000000E+00
  0.00000000E+00  0.00000000E+00  0.00000000E+00  5.91902931E-02  0.00000000E+00
  0.00000000E+00  6.06245580E-01  0.00000000E+00  0.00000000E+00  2.45098039E+00
 -1.13956458E+00 -2.89962635E+00 -3.99475777E+00 -1.82138060E+00  0.00000000E+00
  0.00000000E+00  9.33910427E-01  0.00000000E+00  0.00000000E+00  2.97081795E+00
  0.00000000E+00  0.00000000E+00  5.99342116E+00 -3.49060604E-01  0.00000000E+00
  0.00000000E+00  1.44912686E-17  0.00000000E+00 -9.82304330E-01  0.00000000E+00
  0.00000000E+00 -3.32844514E-18  0.00000000E+00  0.00000000E+00  0.00000000E+00
  0.00000000E+00  0.00000000E+00  0.00000000E+00  0.00000000E+00  1.77570879E-01
  0.00000000E+00  0.00000000E+00  1.81873674E+00  0.00000000E+00  0.00000000E+00
  7.35294118E+00  7.59020305E-01  5.26429054E-01  3.29301145E-01  1.61049417E-01
  0.00000000E+00  0.00000000E+00  3.68966004E-01  0.00000000E+00  0.00000000E+00
  1.90405092E-01  0.00000000E+00  0.00000000E+00  1.97117044E-01 -1.18671814E-02
  0.00000000E+00  0.00000000E+00  6.67207744E-19  0.00000000E+00  1.66657561E-01
  0.00000000E+00  0.00000000E+00 -7.29741758E-20  0.00000000E+00  2.15491797E-01
  4.99115551E-01  3.88699178E-01  1.72905964E-01  0.00000000E+00  0.00000000E+00
  0.00000000E+00  0.00000000E+00  0.00000000E+00  0.00000000E+00  0.00000000E+00
  0.00000000E+00  0.00000000E+00  8.67234311E-01  0.00000000E+00  0.00000000E+00
  0.00000000E+00  0.00000000E+00 -4.81911550E-01  0.00000000E+00  0.00000000E+00
 -3.71915812E-01  0.00000000E+00  0.00000000E+00 -7.69733879E-02  0.00000000E+00
  0.00000000E+00  0.00000000E+00 -3.75644691E-01  0.00000000E+00  0.00000000E+00
  0.00000000E+00  0.00000000E+00 -3.47327596E-02  0.00000000E+00  0.00000000E+00
  0.00000000E+00  0.00000000E+00  0.00000000E+00  0.00000000E+00  0.00000000E+00
  0.00000000E+00  0.00000000E+00  0.00000000E+00  0.00000000E+00  0.00000000E+00
  0.00000000E+00  0.00000000E+00  0.00000000E+00  0.00000000E+00  0.00000000E+00
  7.09555345E-01  0.00000000E+00  0.00000000E+00  0.00000000E+00  0.00000000E+00
  0.00000000E+00 -4.81911550E-01  0.00000000E+00  0.00000000E+00 -3.71915812E-01
  0.00000000E+00  0.00000000E+00 -7.69733879E-02  0.00000000E+00  0.00000000E+00
  0.00000000E+00 -3.75644691E-01  0.00000000E+00  0.00000000E+00  0.00000000E+00
  0.00000000E+00 -3.47327596E-02  0.00000000E+00  0.00000000E+00  0.00000000E+00
  0.00000000E+00  0.00000000E+00  0.00000000E+00  0.00000000E+00  0.00000000E+00
  0.00000000E+00  0.00000000E+00  0.00000000E+00  0.00000000E+00  0.00000000E+00
  0.00000000E+00  0.00000000E+00  0.00000000E+00  0.00000000E+00  7.09555345E-01
  6.58304500E-18 -1.19254962E-17 -4.76341040E-18  6.62289469E-18  0.00000000E+00
  0.00000000E+00  3.91351433E-19  0.00000000E+00  0.00000000E+00  4.17273439E-18
  0.00000000E+00  0.00000000E+00  6.69603074E-18 -6.09493937E-19  0.00000000E+00
  0.00000000E+00  1.87286444E-01  0.00000000E+00 -1.39552931E-19  0.00000000E+00
  0.00000000E+00  1.10884528E-01  0.00000000E+00  3.43853382E-18 -3.07026618E-18
  1.14634663E-17  3.05936674E-18  0.00000000E+00  0.00000000E+00  0.00000000E+00
  0.00000000E+00  0.00000000E+00  0.00000000E+00  0.00000000E+00  0.00000000E+00
  0.00000000E+00 -2.96956932E-18  0.00000000E+00  0.00000000E+00  2.36518448E-01
  0.00000000E+00  0.00000000E+00  0.00000000E+00  0.00000000E+00  0.00000000E+00
  0.00000000E+00  0.00000000E+00  0.00000000E+00  0.00000000E+00  0.00000000E+00
  0.00000000E+00  0.00000000E+00  0.00000000E+00  0.00000000E+00  0.00000000E+00
  0.00000000E+00  0.00000000E+00  1.87286444E-01  0.00000000E+00  0.00000000E+00
  0.00000000E+00  0.00000000E+00  1.10884528E-01  0.00000000E+00  0.00000000E+00
  0.00000000E+00  0.00000000E+00  0.00000000E+00  0.00000000E+00  0.00000000E+00
  0.00000000E+00  0.00000000E+00  0.00000000E+00  0.00000000E+00  0.00000000E+00
  0.00000000E+00  0.00000000E+00  0.00000000E+00  0.00000000E+00  0.00000000E+00
  2.36518448E-01  1.66052333E+00  2.57814820E+00  2.41911750E+00  1.63854564E+00
  0.00000000E+00  0.00000000E+00 -1.34381520E+00  0.00000000E+00  0.00000000E+00
 -2.42182719E+00  0.00000000E+00  0.00000000E+00 -9.43551793E-01  5.02784164E-01
  0.00000000E+00  0.00000000E+00 -3.09231814E-17  0.00000000E+00  1.24709436E+00
  0.00000000E+00  0.00000000E+00 -5.31844365E-19  0.00000000E+00  8.21521216E-02
  8.56913150E-01  2.02757604E+00  1.70065257E+00  0.00000000E+00  0.00000000E+00
  0.00000000E+00  0.00000000E+00  0.00000000E+00  0.00000000E+00  0.00000000E+00
  0.00000000E+00  0.00000000E+00  5.99029423E-01  0.00000000E+00  0.00000000E+00
 -3.73488910E-18  0.00000000E+00  3.71120108E+00  0.00000000E+00  0.00000000E+00
  0.00000000E+00  0.00000000E+00 -1.07980926E+00  0.00000000E+00  0.00000000E+00
 -2.25480777E+00  0.00000000E+00  0.00000000E+00 -1.49824205E+00  0.00000000E+00
  0.00000000E+00  0.00000000E+00  7.25663208E-01  0.00000000E+00  0.00000000E+00
  0.00000000E+00  0.00000000E+00  1.58741869E+00  0.00000000E+00  0.00000000E+00
  0.00000000E+00  0.00000000E+00  0.00000000E+00  0.00000000E+00  0.00000000E+00
  0.00000000E+00  0.00000000E+00  0.00000000E+00  0.00000000E+00  0.00000000E+00
  0.00000000E+00  0.00000000E+00  0.00000000E+00  0.00000000E+00  0.00000000E+00
  4.90114982E-01  0.00000000E+00  0.00000000E+00  0.00000000E+00  0.00000000E+00
  3.03643725E+00  0.00000000E+00  0.00000000E+00  0.00000000E+00  0.00000000E+00
  0.00000000E+00 -1.07980926E+00  0.00000000E+00  0.00000000E+00 -2.25480777E+00
  0.00000000E+00  0.00000000E+00 -1.49824205E+00  0.00000000E+00  0.00000000E+00
  0.00000000E+00  7.25663208E-01  0.00000000E+00  0.00000000E+00  0.00000000E+00
  0.00000000E+00  1.58741869E+00  0.00000000E+00  0.00000000E+00  0.00000000E+00
  0.00000000E+00  0.00000000E+00  0.00000000E+00  0.00000000E+00  0.00000000E+00
  0.00000000E+00  0.00000000E+00  0.00000000E+00  0.00000000E+00  0.00000000E+00
  0.00000000E+00  0.00000000E+00  0.00000000E+00  0.00000000E+00  4.90114982E-01
  0.00000000E+00  0.00000000E+00  0.00000000E+00  0.00000000E+00  3.03643725E+00
 -1.14131324E-17  4.68470524E-17  1.70749270E-17 -4.11585469E-17  0.00000000E+00
  0.00000000E+00  9.85179567E-19  0.00000000E+00  0.00000000E+00 -6.51791356E-18
  0.00000000E+00  0.00000000E+00 -6.20026251E-18 -2.40480656E-18  0.00000000E+00
  0.00000000E+00  5.60491621E-01  0.00000000E+00 -2.51106988E-17  0.00000000E+00
  0.00000000E+00  1.22171571E+00  0.00000000E+00  2.81094821E-18  1.49833751E-17
 -2.78285986E-18  5.45854177E-17  0.00000000E+00  0.00000000E+00  0.00000000E+00
  0.00000000E+00  0.00000000E+00  0.00000000E+00  0.00000000E+00  0.00000000E+00
  0.00000000E+00 -7.91269418E-19  0.00000000E+00  0.00000000E+00  1.63371661E-01
  0.00000000E+00  8.62295285E-19  0.00000000E+00  0.00000000E+00  1.01214575E+00
  0.00000000E+00  0.00000000E+00  0.00000000E+00  0.00000000E+00  0.00000000E+00
  0.00000000E+00  0.00000000E+00  0.00000000E+00  0.00000000E+00  0.00000000E+00
  0.00000000E+00  0.00000000E+00  0.00000000E+00  0.00000000E+00  0.00000000E+00
  0.00000000E+00  0.00000000E+00  5.60491621E-01  0.00000000E+00  0.00000000E+00
  0.00000000E+00  0.00000000E+00  1.22171571E+00  0.00000000E+00  0.00000000E+00
  0.00000000E+00  0.00000000E+00  0.00000000E+00  0.00000000E+00  0.00000000E+00
  0.00000000E+00  0.00000000E+00  0.00000000E+00  0.00000000E+00  0.00000000E+00
  0.00000000E+00  0.00000000E+00  0.00000000E+00  0.00000000E+00  0.00000000E+00
  1.63371661E-01  0.00000000E+00  0.00000000E+00  0.00000000E+00  0.00000000E+00
  1.01214575E+00  8.16034462E-05  3.46249570E-02  2.93906570E-01  3.51978097E-01
  0.00000000E+00  0.00000000E+00  1.48997712E-04  0.00000000E+00  0.00000000E+00
  7.71012895E-02  0.00000000E+00  0.00000000E+00  7.09735056E-01  1.67031432E-03
  0.00000000E+00  0.00000000E+00 -4.43584973E-21  0.00000000E+00  5.13810992E-01
  0.00000000E+00  0.00000000E+00  4.91117464E-19  0.00000000E+00  1.25606673E-01
  7.21469660E-01  8.65968042E-01  4.65430866E-01  0.00000000E+00  0.00000000E+00
  2.87067111E-01  0.00000000E+00  0.00000000E+00  1.40320875E+00  0.00000000E+00
  0.00000000E+00  1.13964017E+00  7.58991112E-01  0.00000000E+00  0.00000000E+00
 -4.73068862E-18  0.00000000E+00  1.66062884E+00  0.00000000E+00  0.00000000E+00
  9.21961600E-18  0.00000000E+00  3.44502240E+00  3.46216117E-02  9.12106611E-02
  5.83472068E-01  1.04460010E+00  0.00000000E+00  0.00000000E+00  2.11594244E-02
  0.00000000E+00  0.00000000E+00  1.19402890E-01  0.00000000E+00  0.00000000E+00
  1.43660475E+00  6.81110422E-04  0.00000000E+00  0.00000000E+00  4.15575524E-19
  0.00000000E+00  6.50798906E-01  0.00000000E+00  0.00000000E+00  5.27953121E-18
  0.00000000E+00  1.40488064E-01  9.30352918E-01  1.86801476E+00  1.45895259E+00
  0.00000000E+00  0.00000000E+00  2.30221053E-01  0.00000000E+00  0.00000000E+00
  1.59419666E+00  0.00000000E+00  0.00000000E+00  2.89975302E+00  5.26422075E-01
  0.00000000E+00  0.00000000E+00  1.03733388E-17  0.00000000E+00  2.57823967E+00
  0.00000000E+00  0.00000000E+00 -2.88784506E-17  0.00000000E+00  2.53046443E+00
  4.03597089E+00  2.93884689E-01  5.83436679E-01  1.24395644E+00  2.78156662E+00
  0.00000000E+00  0.00000000E+00 -8.56386912E-02  0.00000000E+00  0.00000000E+00
 -1.69131989E-01  0.00000000E+00  0.00000000E+00  1.45962466E+00 -5.49267507E-02
  0.00000000E+00  0.00000000E+00  2.06377731E-17  0.00000000E+00  3.45383056E-01
  0.00000000E+00  0.00000000E+00  8.77427336E-18  0.00000000E+00  1.07792171E-01
  8.27907542E-01  2.74903891E+00  3.99712136E+00  0.00000000E+00  0.00000000E+00
  7.69200224E-02  0.00000000E+00  0.00000000E+00  8.48955771E-01  0.00000000E+00
  0.00000000E+00  3.99488453E+00  3.29296960E-01  0.00000000E+00  0.00000000E+00
  1.26561033E-17  0.00000000E+00  2.41913778E+00  0.00000000E+00  0.00000000E+00
 -4.57615331E-17  0.00000000E+00  1.36020674E+00  3.49906098E+00  5.70290354E+00
  3.51954403E-01  1.04454412E+00  2.78148776E+00  8.39061406E+00  0.00000000E+00
  0.00000000E+00 -2.31996696E-01  0.00000000E+00  0.00000000E+00 -9.13829678E-01
  0.00000000E+00  0.00000000E+00 -1.70917268E+00  5.35525174E-02  0.00000000E+00
  0.00000000E+00  6.67998016E-18  0.00000000E+00  6.66587092E-01  0.00000000E+00
  0.00000000E+00  3.28140586E-17  0.00000000E+00  5.26331834E-02  4.95966152E-01
  2.68215702E+00  1.02809202E+01  0.00000000E+00  0.00000000E+00  9.87630627E-03
  0.00000000E+00  0.00000000E+00  1.53871429E-01  0.00000000E+00  0.00000000E+00
  1.82143985E+00  1.61048580E-01  0.00000000E+00  0.00000000E+00  3.76518186E-19
  0.00000000E+00  1.63854111E+00  0.00000000E+00  0.00000000E+00  1.47192109E-17
  0.00000000E+00  5.23231052E-01  1.74361815E+00  5.09712135E+00  1.31656994E+01
  0.00000000E+00  0.00000000E+00  0.00000000E+00  0.00000000E+00  1.79963871E-05
  0.00000000E+00  0.00000000E+00  1.53624139E-02  0.00000000E+00  0.00000000E+00
  1.43013333E-01  0.00000000E+00  0.00000000E+00  0.00000000E+00  4.94415085E-04
  0.00000000E+00  0.00000000E+00  0.00000000E+00  0.00000000E+00  1.81593597E-01
  0.00000000E+00  0.00000000E+00  0.00000000E+00  0.00000000E+00  0.00000000E+00
  0.00000000E+00  0.00000000E+00  9.97933654E-02  0.00000000E+00  0.00000000E+00
  5.20387427E-01  0.00000000E+00  0.00000000E+00  4.15371618E-01  0.00000000E+00
  0.00000000E+00  0.00000000E+00  4.81882062E-01  0.00000000E+00  0.00000000E+00
  0.00000000E+00  0.00000000E+00  1.07985161E+00  0.00000000E+00  0.00000000E+00
  0.00000000E+00  0.00000000E+00  0.00000000E+00  0.00000000E+00  0.00000000E+00
  3.44631197E+00  0.00000000E+00  0.00000000E+00  0.00000000E+00  0.00000000E+00
  0.00000000E+00  1.79963871E-05  0.00000000E+00  0.00000000E+00  1.53624139E-02
  0.00000000E+00  0.00000000E+00  1.43013333E-01  0.00000000E+00  0.00000000E+00
  0.00000000E+00  4.94415085E-04  0.00000000E+00  0.00000000E+00  0.00000000E+00
  0.00000000E+00  1.81593597E-01  0.00000000E+00  0.00000000E+00  0.00000000E+00
  0.00000000E+00  0.00000000E+00  0.00000000E+00  0.00000000E+00  9.97933654E-02
  0.00000000E+00  0.00000000E+00  5.20387427E-01  0.00000000E+00  0.00000000E+00
  4.15371618E-01  0.00000000E+00  0.00000000E+00  0.00000000E+00  4.81882062E-01
  0.00000000E+00  0.00000000E+00  0.00000000E+00  0.00000000E+00  1.07985161E+00
  0.00000000E+00  0.00000000E+00  0.00000000E+00  0.00000000E+00  0.00000000E+00
  0.00000000E+00  0.00000000E+00  3.44631197E+00 -1.49003560E-04 -2.11626881E-02
  8.56369907E-02  2.32003986E-01  0.00000000E+00  0.00000000E+00 -2.77057454E-04
  0.00000000E+00  0.00000000E+00 -5.17838156E-02  0.00000000E+00  0.00000000E+00
  3.25266450E-01 -3.24536677E-03  0.00000000E+00  0.00000000E+00  5.35897046E-22
  0.00000000E+00 -5.25951139E-04  0.00000000E+00  0.00000000E+00  9.10593041E-20
  0.00000000E+00 -1.47122848E-01  1.14192450E-02  4.50254867E-01  3.33382665E-01
  0.00000000E+00  0.00000000E+00 -3.23505323E-01  0.00000000E+00  0.00000000E+00
  2.74486561E-01  0.00000000E+00  0.00000000E+00  9.33931076E-01 -3.69025322E-01
  0.00000000E+00  0.00000000E+00  4.83207982E-20  0.00000000E+00  1.34380921E+00
  0.00000000E+00  0.00000000E+00 -7.69315680E-19  0.00000000E+00  1.50899989E+00
  1.70988788E+00  1.01525846E+00  4.04478810E-01  0.00000000E+00  0.00000000E+00
  3.80167800E+00  0.00000000E+00  0.00000000E+00  0.00000000E+00  0.00000000E+00
  1.53608481E-02  0.00000000E+00  0.00000000E+00  5.10011192E-02  0.00000000E+00
  0.00000000E+00  4.41030594E-01  0.00000000E+00  0.00000000E+00  0.00000000E+00
  1.62533767E-02  0.00000000E+00  0.00000000E+00  0.00000000E+00  0.00000000E+00
  3.53862300E-01  0.00000000E+00  0.00000000E+00  0.00000000E+00  0.00000000E+00
  0.00000000E+00  0.00000000E+00  0.00000000E+00  9.81396152E-02  0.00000000E+00
  0.00000000E+00  7.75180391E-01  0.00000000E+00  0.00000000E+00  1.40068220E+00
  0.00000000E+00  0.00000000E+00  0.00000000E+00  3.71909209E-01  0.00000000E+00
  0.00000000E+00  0.00000000E+00  0.00000000E+00  2.25486507E+00  0.00000000E+00
  0.00000000E+00  0.00000000E+00  0.00000000E+00  0.00000000E+00  0.00000000E+00
  0.00000000E+00  2.18124487E+00  0.00000000E+00  0.00000000E+00  3.91295886E+00
  0.00000000E+00  0.00000000E+00  0.00000000E+00  0.00000000E+00  0.00000000E+00
  1.53608481E-02  0.00000000E+00  0.00000000E+00  5.10011192E-02  0.00000000E+00
  0.00000000E+00  4.41030594E-01  0.00000000E+00  0.00000000E+00  0.00000000E+00
  1.62533767E-02  0.00000000E+00  0.00000000E+00  0.00000000E+00  0.00000000E+00
  3.53862300E-01  0.00000000E+00  0.00000000E+00  0.00000000E+00  0.00000000E+00
  0.00000000E+00  0.00000000E+00  0.00000000E+00  9.81396152E-02  0.00000000E+00
  0.00000000E+00  7.75180391E-01  0.00000000E+00  0.00000000E+00  1.40068220E+00
  0.00000000E+00  0.00000000E+00  0.00000000E+00  3.71909209E-01  0.00000000E+00
  0.00000000E+00  0.00000000E+00  0.00000000E+00  2.25486507E+00  0.00000000E+00
  0.00000000E+00  0.00000000E+00  0.00000000E+00  0.00000000E+00  0.00000000E+00
  0.00000000E+00  2.18124487E+00  0.00000000E+00  0.00000000E+00  3.91295886E+00
 -7.70937175E-02 -1.19395764E-01  1.69141338E-01  9.13864115E-01  0.00000000E+00
  0.00000000E+00 -5.17760608E-02  0.00000000E+00  0.00000000E+00 -1.05711375E-01
  0.00000000E+00  0.00000000E+00  8.51929798E-01 -2.88446706E-03  0.00000000E+00
  0.00000000E+00 -6.91205724E-19  0.00000000E+00  6.42840011E-02  0.00000000E+00
  0.00000000E+00 -2.33932565E-18  0.00000000E+00 -1.44468608E-01  1.23970288E-03
  1.23007992E+00  1.39753289E+00  0.00000000E+00  0.00000000E+00 -1.52749728E-01
  0.00000000E+00  0.00000000E+00  4.75586754E-01  0.00000000E+00  0.00000000E+00
  2.97083962E+00 -1.90437886E-01  0.00000000E+00  0.00000000E+00  1.32806572E-17
  0.00000000E+00  2.42179086E+00  0.00000000E+00  0.00000000E+00  5.29550323E-18
  0.00000000E+00  1.03039631E+00  3.13739651E+00  3.36848910E+00  1.80744062E+00
  0.00000000E+00  0.00000000E+00  2.52382067E+00  0.00000000E+00  0.00000000E+00
  5.20161865E+00  0.00000000E+00  0.00000000E+00  0.00000000E+00  0.00000000E+00
  1.43002678E-01  0.00000000E+00  0.00000000E+00  4.41001745E-01  0.00000000E+00
  0.00000000E+00  1.25823783E+00  0.00000000E+00  0.00000000E+00  0.00000000E+00
 -6.50709888E-02  0.00000000E+00  0.00000000E+00  0.00000000E+00  0.00000000E+00
 -1.28131933E-02  0.00000000E+00  0.00000000E+00  0.00000000E+00  0.00000000E+00
  0.00000000E+00  0.00000000E+00  0.00000000E+00  4.53304582E-02  0.00000000E+00
  0.00000000E+00  5.30205497E-01  0.00000000E+00  0.00000000E+00  2.76632635E+00
  0.00000000E+00  0.00000000E+00  0.00000000E+00  7.69745995E-02  0.00000000E+00
  0.00000000E+00  0.00000000E+00  0.00000000E+00  1.49827768E+00  0.00000000E+00
  0.00000000E+00  0.00000000E+00  0.00000000E+00  0.00000000E+00  0.00000000E+00
  0.00000000E+00  6.43086092E-01  0.00000000E+00  0.00000000E+00  2.54820560E+00
  0.00000000E+00  0.00000000E+00  5.71960935E+00  0.00000000E+00  0.00000000E+00
  0.00000000E+00  0.00000000E+00  0.00000000E+00  1.43002678E-01  0.00000000E+00
  0.00000000E+00  4.41001745E-01  0.00000000E+00  0.00000000E+00  1.25823783E+00
  0.00000000E+00  0.00000000E+00  0.00000000E+00 -6.50709888E-02  0.00000000E+00
  0.00000000E+00  0.00000000E+00  0.00000000E+00 -1.28131933E-02  0.00000000E+00
  0.00000000E+00  0.00000000E+00  0.00000000E+00  0.00000000E+00  0.00000000E+00
  0.00000000E+00  4.53304582E-02  0.00000000E+00  0.00000000E+00  5.30205497E-01
  0.00000000E+00  0.00000000E+00  2.76632635E+00  0.00000000E+00  0.00000000E+00
  0.00000000E+00  7.69745995E-02  0.00000000E+00  0.00000000E+00  0.00000000E+00
  0.00000000E+00  1.49827768E+00  0.00000000E+00  0.00000000E+00  0.00000000E+00
  0.00000000E+00  0.00000000E+00  0.00000000E+00  0.00000000E+00  6.43086092E-01
  0.00000000E+00  0.00000000E+00  2.54820560E+00  0.00000000E+00  0.00000000E+00
  5.71960935E+00 -7.09684702E-01 -1.43651390E+00 -1.45951847E+00  1.70931805E+00
  0.00000000E+00  0.00000000E+00  3.25260982E-01  0.00000000E+00  0.00000000E+00
  8.51904178E-01  0.00000000E+00  0.00000000E+00  2.09678812E+00  6.11824814E-02
  0.00000000E+00  0.00000000E+00  4.04093866E-17  0.00000000E+00  1.94478747E-01
  0.00000000E+00  0.00000000E+00  9.02974824E-17  0.00000000E+00 -9.54666611E-02
 -3.34287809E-01  7.83102885E-01  3.92876352E+00  0.00000000E+00  0.00000000E+00
  5.38726653E-02  0.00000000E+00  0.00000000E+00  8.19018587E-01  0.00000000E+00
  0.00000000E+00  5.99331431E+00 -1.97122929E-01  0.00000000E+00  0.00000000E+00
 -5.67434367E-18  0.00000000E+00  9.43535078E-01  0.00000000E+00  0.00000000E+00
 -1.30616882E-17  0.00000000E+00  3.20484018E-01  2.12382816E+00  5.64145648E+00
  6.46551656E+00  0.00000000E+00  0.00000000E+00  7.61466678E-01  0.00000000E+00
  0.00000000E+00  3.76069676E+00  0.00000000E+00  0.00000000E+00  1.06215701E+01
  1.67007984E-03  6.81866969E-04 -5.49317772E-02  5.35499676E-02  0.00000000E+00
  0.00000000E+00  3.24484889E-03  0.00000000E+00  0.00000000E+00  2.88703687E-03
  0.00000000E+00  0.00000000E+00 -6.11929370E-02  7.19384309E-03  0.00000000E+00
  0.00000000E+00 -1.07852641E-20  0.00000000E+00 -1.23805510E-01  0.00000000E+00
  0.00000000E+00  4.56985516E-19  0.00000000E+00  8.38326271E-02 -1.50360337E-01
 -1.97243593E-03  1.10441567E-01  0.00000000E+00  0.00000000E+00  1.43460804E-01
  0.00000000E+00  0.00000000E+00 -2.93838750E-01  0.00000000E+00  0.00000000E+00
  3.49035501E-01 -1.18299832E-02  0.00000000E+00  0.00000000E+00 -3.80609705E-18
  0.00000000E+00  5.02710123E-01  0.00000000E+00  0.00000000E+00  6.00537426E-18
  0.00000000E+00  2.15491797E-01  4.99115551E-01  3.88699178E-01  1.72905964E-01
  0.00000000E+00  0.00000000E+00  1.69829665E+00  0.00000000E+00  0.00000000E+00
  2.19730622E+00  0.00000000E+00  0.00000000E+00  8.95048526E-01  4.13586327E+00
  0.00000000E+00  0.00000000E+00  0.00000000E+00  0.00000000E+00 -4.94342370E-04
  0.00000000E+00  0.00000000E+00 -1.62556732E-02  0.00000000E+00  0.00000000E+00
  6.50701582E-02  0.00000000E+00  0.00000000E+00  0.00000000E+00 -2.55416420E-03
  0.00000000E+00  0.00000000E+00  0.00000000E+00  0.00000000E+00 -3.58777634E-02
  0.00000000E+00  0.00000000E+00  0.00000000E+00  0.00000000E+00  0.00000000E+00
  0.00000000E+00  0.00000000E+00 -1.43748727E-01  0.00000000E+00  0.00000000E+00
 -6.12301101E-02  0.00000000E+00  0.00000000E+00  3.37820530E-01  0.00000000E+00
  0.00000000E+00  0.00000000E+00 -3.75670639E-01  0.00000000E+00  0.00000000E+00
  0.00000000E+00  0.00000000E+00  7.25617375E-01  0.00000000E+00  0.00000000E+00
  0.00000000E+00  0.00000000E+00  0.00000000E+00  0.00000000E+00  0.00000000E+00
  1.47076804E+00  0.00000000E+00  0.00000000E+00  1.90292301E+00  0.00000000E+00
  0.00000000E+00  7.75134761E-01  0.00000000E+00  0.00000000E+00  0.00000000E+00
  3.97818430E+00  0.00000000E+00  0.00000000E+00  0.00000000E+00  0.00000000E+00
  0.00000000E+00 -4.94342370E-04  0.00000000E+00  0.00000000E+00 -1.62556732E-02
  0.00000000E+00  0.00000000E+00  6.50701582E-02  0.00000000E+00  0.00000000E+00
  0.00000000E+00 -2.55416420E-03  0.00000000E+00  0.00000000E+00  0.00000000E+00
  0.00000000E+00 -3.58777634E-02  0.00000000E+00  0.00000000E+00  0.00000000E+00
  0.00000000E+00  0.00000000E+00  0.00000000E+00  0.00000000E+00 -1.43748727E-01
  0.00000000E+00  0.00000000E+00 -6.12301101E-02  0.00000000E+00  0.00000000E+00
  3.37820530E-01  0.00000000E+00  0.00000000E+00  0.00000000E+00 -3.75670639E-01
  0.00000000E+00  0.00000000E+00  0.00000000E+00  0.00000000E+00  7.25617375E-01
  0.00000000E+00  0.00000000E+00  0.00000000E+00  0.00000000E+00  0.00000000E+00
  0.00000000E+00  0.00000000E+00  1.47076804E+00  0.00000000E+00  0.00000000E+00
  1.90292301E+00  0.00000000E+00  0.00000000E+00  7.75134761E-01  0.00000000E+00
  0.00000000E+00  0.00000000E+00  3.97818430E+00 -6.29497621E-21  1.04211164E-18
 -9.59954051E-18  2.08237761E-17  0.00000000E+00  0.00000000E+00  2.50970817E-21
  0.00000000E+00  0.00000000E+00 -8.90971011E-19  0.00000000E+00  0.00000000E+00
 -3.94329337E-17 -8.98133399E-20  0.00000000E+00  0.00000000E+00  2.36075734E-04
  0.00000000E+00 -1.87665112E-17  0.00000000E+00  0.00000000E+00  5.11384355E-02
  0.00000000E+00 -4.46196504E-18  1.21175971E-17  3.90028303E-17 -4.58773650E-17
  0.00000000E+00  0.00000000E+00  1.08420661E-17  0.00000000E+00  0.00000000E+00
 -3.24320471E-17  0.00000000E+00  0.00000000E+00  1.06455313E-16  1.82101764E-17
  0.00000000E+00  0.00000000E+00  1.87273400E-01  0.00000000E+00 -8.80620038E-17
  0.00000000E+00  0.00000000E+00  5.60499581E-01  0.00000000E+00 -3.13133344E-17
  6.44206347E-17 -5.85924953E-17  2.50220038E-17  0.00000000E+00  0.00000000E+00
 -4.36350831E-17  0.00000000E+00  0.00000000E+00 -4.51953780E-17  0.00000000E+00
  0.00000000E+00  1.27332593E-17 -9.55249374E-18  0.00000000E+00  0.00000000E+00
  3.50514741E+00  0.00000000E+00  0.00000000E+00  0.00000000E+00  0.00000000E+00
  0.00000000E+00  0.00000000E+00  0.00000000E+00  0.00000000E+00  0.00000000E+00
  0.00000000E+00  0.00000000E+00  0.00000000E+00  0.00000000E+00  0.00000000E+00
  0.00000000E+00  0.00000000E+00  0.00000000E+00  2.36075734E-04  0.00000000E+00
  0.00000000E+00  0.00000000E+00  0.00000000E+00  5.11384355E-02  0.00000000E+00
  0.00000000E+00  0.00000000E+00  0.00000000E+00  0.00000000E+00  0.00000000E+00
  0.00000000E+00  0.00000000E+00  0.00000000E+00  0.00000000E+00  0.00000000E+00
  0.00000000E+00  0.00000000E+00  0.00000000E+00  0.00000000E+00  0.00000000E+00
  0.00000000E+00  1.87273400E-01  0.00000000E+00  0.00000000E+00  0.00000000E+00
  0.00000000E+00  5.60499581E-01  0.00000000E+00  0.00000000E+00  0.00000000E+00
  0.00000000E+00  0.00000000E+00  0.00000000E+00  0.00000000E+00  0.00000000E+00
  0.00000000E+00  0.00000000E+00  0.00000000E+00  0.00000000E+00  0.00000000E+00
  0.00000000E+00  0.00000000E+00  0.00000000E+00  0.00000000E+00  3.50514741E+00
  5.13769875E-01  6.50743887E-01  3.45327270E-01  6.66560733E-01  0.00000000E+00
  0.00000000E+00  5.11578036E-04  0.00000000E+00  0.00000000E+00 -6.42987122E-02
  0.00000000E+00  0.00000000E+00 -1.94514080E-01 -1.23800160E-01  0.00000000E+00
  0.00000000E+00 -7.86203923E-20  0.00000000E+00 -2.95757427E-01  0.00000000E+00
  0.00000000E+00  1.58734137E-17  0.00000000E+00  1.02078423E-01  1.03198064E-01
  4.20061303E-01  1.13493560E+00  0.00000000E+00  0.00000000E+00 -1.11828450E-01
  0.00000000E+00  0.00000000E+00 -6.77945491E-01  0.00000000E+00  0.00000000E+00
  9.82236889E-01  1.66652270E-01  0.00000000E+00  0.00000000E+00  6.00537426E-18
  0.00000000E+00  1.24695253E+00  0.00000000E+00  0.00000000E+00  8.04536266E-17
  0.00000000E+00  8.21521216E-02  8.56913150E-01  2.02757604E+00  1.70065257E+00
  0.00000000E+00  0.00000000E+00  5.38232833E-01  0.00000000E+00  0.00000000E+00
  3.06766868E+00  0.00000000E+00  0.00000000E+00  4.69178447E+00  1.99170492E+00
  0.00000000E+00  0.00000000E+00 -1.74078440E-17  0.00000000E+00  6.97983004E+00
  0.00000000E+00  0.00000000E+00  0.00000000E+00  0.00000000E+00 -1.81578398E-01
  0.00000000E+00  0.00000000E+00 -3.53833570E-01  0.00000000E+00  0.00000000E+00
  1.28389889E-02  0.00000000E+00  0.00000000E+00  0.00000000E+00 -3.58674389E-02
  0.00000000E+00  0.00000000E+00  0.00000000E+00  0.00000000E+00 -4.61734347E-02
  0.00000000E+00  0.00000000E+00  0.00000000E+00  0.00000000E+00  0.00000000E+00
  0.00000000E+00  0.00000000E+00 -8.87905663E-02  0.00000000E+00  0.00000000E+00
 -1.75878602E-01  0.00000000E+00  0.00000000E+00  1.26636286E+00  0.00000000E+00
  0.00000000E+00  0.00000000E+00 -3.47547638E-02  0.00000000E+00  0.00000000E+00
  0.00000000E+00  0.00000000E+00  1.58730733E+00  0.00000000E+00  0.00000000E+00
  0.00000000E+00  0.00000000E+00  0.00000000E+00  0.00000000E+00  0.00000000E+00
  4.66123307E-01  0.00000000E+00  0.00000000E+00  2.65667900E+00  0.00000000E+00
  0.00000000E+00  4.06320454E+00  0.00000000E+00  0.00000000E+00  0.00000000E+00
  1.88279048E+00  0.00000000E+00  0.00000000E+00  0.00000000E+00  0.00000000E+00
  6.30506621E+00  0.00000000E+00  0.00000000E+00  0.00000000E+00  0.00000000E+00
  0.00000000E+00 -1.81578398E-01  0.00000000E+00  0.00000000E+00 -3.53833570E-01
  0.00000000E+00  0.00000000E+00  1.28389889E-02  0.00000000E+00  0.00000000E+00
  0.00000000E+00 -3.58674389E-02  0.00000000E+00  0.00000000E+00  0.00000000E+00
  0.00000000E+00 -4.61734347E-02  0.00000000E+00  0.00000000E+00  0.00000000E+00
  0.00000000E+00  0.00000000E+00  0.00000000E+00  0.00000000E+00 -8.87905663E-02
  0.00000000E+00  0.00000000E+00 -1.75878602E-01  0.00000000E+00  0.00000000E+00
  1.26636286E+00  0.00000000E+00  0.00000000E+00  0.00000000E+00 -3.47547638E-02
  0.00000000E+00  0.00000000E+00  0.00000000E+00  0.00000000E+00  1.58730733E+00
  0.00000000E+00  0.00000000E+00  0.00000000E+00  0.00000000E+00  0.00000000E+00
  0.00000000E+00  0.00000000E+00  4.66123307E-01  0.00000000E+00  0.00000000E+00
  2.65667900E+00  0.00000000E+00  0.00000000E+00  4.06320454E+00  0.00000000E+00
  0.00000000E+00  0.00000000E+00  1.88279048E+00  0.00000000E+00  0.00000000E+00
  0.00000000E+00  0.00000000E+00  6.30506621E+00  6.81558373E-19 -5.02945705E-18
  2.37081412E-17 -5.12764075E-19  0.00000000E+00  0.00000000E+00 -1.56311437E-19
  0.00000000E+00  0.00000000E+00  2.20662380E-18  0.00000000E+00  0.00000000E+00
 -1.34355026E-17 -5.75416705E-19  0.00000000E+00  0.00000000E+00  5.11338165E-02
  0.00000000E+00  8.87739244E-18  0.00000000E+00  0.00000000E+00  2.01378098E-01
  0.00000000E+00  1.03595783E-18  5.58549208E-18 -4.55906371E-17 -8.17343975E-17
  0.00000000E+00  0.00000000E+00  1.65664992E-18  0.00000000E+00  0.00000000E+00
  2.10685315E-17  0.00000000E+00  0.00000000E+00  2.20277773E-16 -2.26999601E-18
  0.00000000E+00  0.00000000E+00  1.10881119E-01  0.00000000E+00 -2.67399949E-17
  0.00000000E+00  0.00000000E+00  1.22171955E+00  0.00000000E+00  2.36375976E-17
  1.08335185E-16 -9.66751914E-17  3.15289141E-17  0.00000000E+00  0.00000000E+00
 -1.09338117E-17  0.00000000E+00  0.00000000E+00  1.09839240E-16  0.00000000E+00
  0.00000000E+00 -3.01796268E-17 -6.07572525E-18  0.00000000E+00  0.00000000E+00
  1.55604716E+00  0.00000000E+00  4.43861663E-18  0.00000000E+00  0.00000000E+00
  4.28077471E+00  0.00000000E+00  0.00000000E+00  0.00000000E+00  0.00000000E+00
  0.00000000E+00  0.00000000E+00  0.00000000E+00  0.00000000E+00  0.00000000E+00
  0.00000000E+00  0.00000000E+00  0.00000000E+00  0.00000000E+00  0.00000000E+00
  0.00000000E+00  0.00000000E+00  0.00000000E+00  5.11338165E-02  0.00000000E+00
  0.00000000E+00  0.00000000E+00  0.00000000E+00  2.01378098E-01  0.00000000E+00
  0.00000000E+00  0.00000000E+00  0.00000000E+00  0.00000000E+00  0.00000000E+00
  0.00000000E+00  0.00000000E+00  0.00000000E+00  0.00000000E+00  0.00000000E+00
  0.00000000E+00  0.00000000E+00  0.00000000E+00  0.00000000E+00  0.00000000E+00
  0.00000000E+00  1.10881119E-01  0.00000000E+00  0.00000000E+00  0.00000000E+00
  0.00000000E+00  1.22171955E+00  0.00000000E+00  0.00000000E+00  0.00000000E+00
  0.00000000E+00  0.00000000E+00  0.00000000E+00  0.00000000E+00  0.00000000E+00
  0.00000000E+00  0.00000000E+00  0.00000000E+00  0.00000000E+00  0.00000000E+00
  0.00000000E+00  0.00000000E+00  0.00000000E+00  0.00000000E+00  1.55604716E+00
  0.00000000E+00  0.00000000E+00  0.00000000E+00  0.00000000E+00  4.28077471E+00
Number of independent functions            I               69
Alpha MO coefficients                      R   N=        4761
  1.21360469E-01  2.10283640E-01  1.26666660E-01  1.68366685E-02 -4.31559608E-18
  3.37768452E-17  8.82018464E-03 -5.78651476E-18 -3.63769180E-17  1.60962260E-02
  3.61724926E-15 -7.26228245E-16  1.53327362E-02  2.55949542E-03 -1.41626207E-16
  1.39324021E-17  2.43128672E-12  2.91926348E-17  4.05873122E-04  6.72105201E-16
 -1.07831239E-16 -3.71065851E-11  1.45552405E-16  1.79087956E-01  2.74034546E-01
  2.31474532E-02 -3.50343739E-02  1.08940442E-16  7.97047067E-17 -9.38639366E-07
 -1.01236856E-15 -3.79017678E-16 -7.08575874E-07 -6.82048174E-15  1.01968696E-15
  3.51299647E-06  1.98383516E-03 -4.62671788E-17  3.57560611E-18  2.01614866E-12
 -7.66926881E-18 -9.12435429E-03 -5.15745236E-16 -1.98808538E-16 -3.41290701E-11
 -1.07796033E-16  1.21343725E-01  2.10253873E-01  1.26630817E-01  1.68347293E-02
 -5.16627448E-18 -4.72360713E-17 -8.81961722E-03  5.75295998E-16  2.42189058E-16
 -1.60960841E-02  4.20131927E-15 -4.94972163E-16 -1.53289701E-02  2.55958685E-03
  1.36334106E-16  1.32188359E-17  2.43088930E-12 -1.79871812E-17  4.05829942E-04
 -1.19117856E-15 -9.93859721E-17 -3.71008841E-11  5.75580697E-18 -1.79852817E-01
 -3.84746162E-01 -3.51505791E-01 -1.99025238E-02  6.16391463E-18 -3.08441859E-17
 -1.25446496E-03 -1.70383424E-18  5.89103583E-16 -1.03037025E-03 -2.16259244E-15
 -2.47452615E-16 -1.08993929E-02 -3.15238033E-04  9.47622728E-18  4.10491005E-17
 -3.93570399E-12 -6.72739803E-18  5.67968169E-05 -4.31689666E-16  1.55046749E-16
  7.99944458E-11 -5.02093637E-17 -5.08258458E-06 -2.06131046E-05 -4.00026366E-05
  7.74508734E-08 -6.65187461E-17 -1.69708937E-17  1.74510184E-02  9.53934396E-16
  4.92617641E-16  2.09256328E-02  4.53840072E-15  3.12250477E-15 -5.36887298E-03
  3.83449749E-07 -5.18968418E-17  4.52601394E-17  1.80903369E-16 -1.31896242E-17
 -1.82542484E-06  3.33086454E-16  1.57746626E-15  1.50198464E-15  5.08485867E-18
  1.79876620E-01  3.84810329E-01  3.51566792E-01  1.99025307E-02  4.37454097E-17
  6.88951519E-17 -1.25409221E-03 -6.83508338E-16 -1.05838422E-15 -1.03383336E-03
 -3.11144236E-15 -2.93338285E-15 -1.09064852E-02  3.15356271E-04 -3.75598819E-17
  3.63459114E-18  3.93582867E-12 -3.13452213E-17 -5.57752729E-05  8.52405243E-16
  1.06679195E-15 -8.00031691E-11 -2.55272423E-18 -2.29007772E-01 -8.33372388E-01
 -6.94064447E-01  1.39447127E-02  1.26563344E-16 -5.66900940E-16  1.31091012E-02
 -4.91525910E-16  4.03572050E-15 -9.17833272E-02 -1.73578007E-15 -4.56222826E-15
 -1.45586286E-01  2.48094014E-03  1.06284696E-16  3.23308537E-16  4.67672887E-12
  5.22820271E-17 -2.22244493E-02 -8.09988346E-16  6.54767154E-17  6.13748885E-11
 -6.85971849E-16  3.25100216E-01  1.18728372E+00  1.43439471E+00 -3.70483418E-02
 -2.33930434E-16 -7.85711199E-17  2.03951404E-06  2.22148693E-15  1.46529262E-15
  4.14659611E-07  4.18294970E-15  1.31850630E-14 -2.65291750E-05 -7.48047513E-03
  1.69754124E-16  7.44344149E-17 -2.98320560E-12 -2.12413945E-16  1.08978674E-01
  5.44112767E-16  5.78339461E-15 -9.73308037E-11  8.70953356E-16 -2.28981766E-01
 -8.33306674E-01 -6.93963848E-01  1.39452950E-02  5.55162030E-16  4.87267209E-16
 -1.31086660E-02 -2.11105018E-15 -3.77180124E-15  9.17844749E-02 -1.52929718E-15
 -1.01586672E-14  1.45570677E-01  2.47979280E-03  2.70063781E-16 -1.26979515E-16
  4.67646817E-12  1.14211995E-16 -2.22249688E-02  1.83248381E-15  3.93210825E-15
  6.13699528E-11 -6.36441134E-16  3.84274043E-02 -1.05201525E-01 -8.71383044E+00
 -2.40424328E+00 -1.45084963E-16  7.67147450E-17  1.74781145E-03  2.03787303E-15
 -1.24813077E-15 -9.06366332E-02  1.58139517E-14  2.00610563E-15 -2.18914986E+00
 -4.83105859E-03 -2.63693326E-17 -1.22813566E-16 -8.60644336E-12 -1.50869868E-18
 -3.77215678E-02  3.46139659E-15 -1.35434696E-16  5.10845515E-11  1.13575798E-16
  1.63484804E-07  3.68307390E-05  9.32600888E-04 -1.14369988E-04  3.22356501E-16
 -1.08874270E-16 -5.36131152E-03 -2.61378229E-15  1.06026636E-16 -1.73343734E-01
 -2.27936283E-14 -9.39412927E-15 -6.57103098E+00  1.14841214E-06  1.79059727E-16
 -1.25953963E-16  1.78486434E-16 -8.54429647E-17  1.48231920E-05  2.42718387E-15
 -2.65177202E-15  6.42105425E-16  7.59064627E-17 -3.84297020E-02  1.05134978E-01
  8.71290120E+00  2.40437983E+00  9.39232155E-17  3.00090003E-17  1.74862951E-03
 -9.79383453E-16  1.00581138E-15 -9.06179065E-02  1.30185896E-14  7.90191469E-15
 -2.18901232E+00  4.82939185E-03  2.03415217E-16 -1.53955964E-17  8.60671029E-12
 -2.17210110E-17  3.77229860E-02 -1.90703003E-15 -1.48935092E-15 -5.10890279E-11
 -2.15456697E-16  1.46426617E-02 -4.35084268E-01  3.22777161E-01  9.15735989E+00
 -4.25502677E-16  1.16525270E-16 -7.58684256E-03  3.33495125E-15 -6.75417691E-16
 -1.47221121E-02  6.82714984E-14  6.63301544E-14  1.90119766E-01 -3.94617040E-03
 -4.69829555E-16 -8.24897223E-16 -1.16857885E-11 -4.51360578E-18  7.87338400E-02
  1.33027743E-14  1.18656797E-14  7.69204510E-11 -6.64542321E-16  1.72021256E-02
 -5.55985829E-02  7.56656098E-01 -1.87154021E+01  1.32010215E-15  1.44772212E-15
  6.68239622E-07 -1.34208581E-14 -1.60148828E-14 -2.23667387E-05 -1.13081484E-13
 -1.27888250E-13 -3.57395886E-04  8.34425490E-03 -2.78949793E-16 -4.96407361E-16
 -1.25549747E-11 -1.52725782E-16  3.43039209E-01  5.85324225E-16 -9.06057336E-15
  3.79027247E-11  1.61783194E-15  1.46440304E-02 -4.35049509E-01  3.23725767E-01
  9.15702755E+00 -9.11710766E-17 -4.24330255E-16  7.58539880E-03  2.60341528E-15
  8.51566450E-15  1.47156452E-02  6.77420898E-14  8.67954150E-14 -1.90315267E-01
 -3.94540881E-03  2.19351947E-16  1.98561077E-16 -1.16868019E-11  6.35406016E-17
  7.87374539E-02 -1.31396749E-14 -1.89077580E-14  7.69224312E-11 -1.09561117E-15
 -1.32651325E-15 -7.55400299E-15  6.92963429E-12  1.41712149E-13 -1.85811802E-02
 -1.56251155E-16 -2.04117791E-15  2.65229385E-02  4.69836298E-16  1.26006834E-14
 -8.78850991E-01 -8.67148834E-15  1.46579403E-12  8.95391134E-16 -8.20593526E-04
  8.34585378E-17  4.54769841E-17 -5.05543352E-17 -1.43272307E-14 -5.58649504E-02
 -1.05779883E-15  1.37299756E-17  2.22452121E-16  1.82088528E-15  3.99505413E-14
  5.78029068E-13 -1.41610148E-13 -2.15220682E-02 -4.74299657E-16  2.01663062E-15
  6.98944396E-02  1.49439142E-15  1.15741785E-14  5.14746650E-01  1.03124014E-14
  5.31144062E-12  1.17197950E-15 -2.26394998E-07  4.59034167E-19  4.31951078E-17
  1.66480032E-17  1.04152601E-14  5.70547010E-06  1.17970907E-15 -3.89611210E-16
 -2.53542028E-16 -4.98462564E-15 -3.59398685E-14 -7.45499116E-12 -3.05017001E-14
 -1.85811678E-02 -3.83499772E-17 -1.75334471E-15  2.65179126E-02 -6.94879324E-16
  3.38954897E-14 -8.78865524E-01 -1.07799048E-14  1.68396411E-12 -2.15096806E-15
  8.20581251E-04 -1.22614483E-16 -2.51367972E-17  7.91867956E-17  2.18571442E-15
  5.58674465E-02  1.57180653E-15 -2.01731931E-16 -2.49397144E-17  4.36408506E-15
  2.19633719E-14  2.13282769E-13 -3.03979870E-14 -1.99413237E-16  1.85811802E-02
  4.60264139E-17  8.05575365E-16 -2.65229387E-02  9.75534572E-15 -3.16901162E-15
  8.78850991E-01  1.16159970E-13  2.63193086E-16  4.63208098E-17  8.20593530E-04
  1.19092223E-16  2.20319042E-17  6.74260020E-15  8.60628396E-16  5.58649504E-02
 -1.92424502E-16 -8.35334861E-16 -2.56400921E-15 -3.90151959E-14 -8.24024820E-13
  9.40921555E-14 -7.53690358E-17  2.15220683E-02 -8.75817397E-18 -1.23300868E-15
 -6.98944398E-02 -1.09911741E-15 -7.16211202E-15 -5.14746651E-01 -1.20245958E-13
 -5.60013884E-16  1.60488293E-16  2.26394998E-07 -9.41720704E-18 -3.01390612E-16
 -1.33822618E-14 -3.91747968E-16 -5.70547013E-06  5.86662491E-17  1.18631786E-15
  4.32277786E-15  2.33767425E-14  5.42824806E-13 -2.22212547E-14 -1.27415956E-16
  1.85811678E-02  1.08779757E-16  3.33122349E-16 -2.65179128E-02 -1.16849300E-14
  1.17798736E-15  8.78865525E-01 -1.90873388E-13  2.96987746E-16  1.34150678E-16
 -8.20581255E-04 -1.26842387E-16  2.85022059E-16  7.16560114E-15 -1.43677994E-15
 -5.58674465E-02  3.50106356E-16 -6.75659146E-16 -1.76029887E-01 -7.50695304E-01
 -8.98455377E+00 -5.82011965E+00  5.49765219E-16  2.37522317E-16 -1.00065468E-02
 -8.52742751E-15  2.03865540E-15 -2.89119954E-01  3.88578354E-14  1.30489775E-14
 -4.00060462E+00 -1.10740954E-02 -2.92583000E-16  3.51051524E-16  1.46129512E-11
  1.51260750E-16 -1.85452159E-01  3.25020982E-15  1.61444945E-16 -7.36227651E-11
  7.38499202E-16  7.44311291E-02  1.11979634E+00  2.00498970E+01  1.00577054E+01
  1.36384601E-15  7.92111800E-16  5.57841822E-06 -1.84569137E-14  2.95693856E-16
 -5.26117292E-05 -1.10985399E-13  4.47120981E-14 -9.16365419E-04  1.94677912E-02
  4.69375143E-16 -5.08150667E-17 -1.01262544E-11 -4.97639842E-16  3.43834374E-01
 -2.95311026E-14  8.16205767E-15  1.20398243E-10 -2.03367972E-15 -1.76025081E-01
 -7.50561852E-01 -8.98149677E+00 -5.81980039E+00 -2.10829400E-15  8.55887650E-16
  1.00023550E-02  2.27645599E-14 -3.60395490E-15  2.89055626E-01  1.08047501E-13
 -2.58550439E-14  3.99987961E+00 -1.10696739E-02  1.56620930E-15 -3.90626537E-16
  1.46118059E-11 -8.21034603E-17 -1.85431287E-01 -2.72404225E-14  5.12897437E-15
 -7.36117557E-11  1.81563480E-15  1.44851537E-14  2.97754033E-14  1.27206636E-11
  4.25634479E-13  1.60149304E-02 -2.17674717E-16 -2.19680315E-15 -3.51875881E-01
  1.54483209E-15  5.88515192E-14 -1.44499418E+00  6.46960685E-14  2.95597182E-12
  1.85671439E-15 -3.35149616E-03 -5.03716164E-16 -4.89489811E-17 -1.90784203E-17
  2.10393104E-14 -3.16897077E-01  9.79779251E-15  1.42306552E-16  1.12946135E-16
 -6.57668552E-15  5.28258282E-14  1.48077818E-12 -1.77028874E-13 -1.47937009E-06
 -4.89596655E-17  1.33530136E-15  2.41850356E-05 -9.09448244E-15  1.01128051E-13
  5.06816095E-05 -1.31799780E-13  9.73792142E-12  2.45072290E-15  8.25589109E-04
 -2.73894703E-16 -3.18671396E-17  1.00048520E-17  5.58234923E-14 -7.83060177E-01
 -2.51960247E-15  3.19049418E-16  3.20518800E-16  1.62676449E-15 -1.54903900E-13
 -1.41907934E-11 -2.13525938E-13 -1.60141013E-02  7.67024810E-17 -3.67485183E-15
  3.51853115E-01  3.27034783E-15  1.06880625E-13  1.44492715E+00  7.63170756E-14
  3.37571586E-12 -4.72769640E-15 -3.35012095E-03  2.05890269E-16  2.20685008E-17
  5.84872325E-17 -3.04681452E-14 -3.16896704E-01 -1.31781590E-14  1.64365582E-16
 -1.97694223E-16 -1.31941309E-14 -2.22580101E-13 -2.20978416E-11 -6.85127104E-13
 -3.81363307E-17  1.60149305E-02  3.18072609E-15  5.76238992E-16 -3.51875881E-01
 -1.48334401E-13  4.21413212E-15 -1.44499418E+00 -5.17546423E-12 -7.51679425E-15
  1.26371033E-16 -3.35149616E-03 -5.00975276E-17  1.01591035E-18 -3.44628544E-14
  7.92088502E-16 -3.16897078E-01 -6.75679891E-17 -3.79318497E-16 -1.29192477E-15
  2.73367981E-14 -3.05395721E-14  3.15487605E-13 -9.03291616E-17 -1.47937010E-06
 -2.28499143E-15 -1.80980361E-16  2.41850357E-05 -1.74283063E-13 -4.61699590E-15
  5.06816098E-05 -1.60638115E-11  2.31483866E-15  1.56268511E-16  8.25589097E-04
  4.80551455E-18  5.76275806E-17  3.16481051E-14  6.41640078E-16 -7.83060178E-01
 -1.07542715E-17  2.97295317E-16  6.62142663E-15  1.04501868E-13  2.22081556E-11
  3.33233231E-13  3.68329827E-18 -1.60141014E-02  6.19044685E-15 -4.95550635E-16
  3.51853115E-01 -1.30177498E-13 -3.10115501E-16  1.44492715E+00 -5.19963896E-12
  4.58794353E-15  9.87447589E-17 -3.35012095E-03  4.39523891E-17 -5.74002426E-17
  4.16167876E-14 -1.37783938E-16 -3.16896705E-01 -5.06512306E-17 -5.11497558E-16
  3.70820033E-02  7.25828710E-01  5.54076050E+01  1.80230820E+00  4.60147463E-15
  6.82441378E-15 -9.77383793E-03 -6.69685407E-15 -1.01906426E-13  5.34207164E-01
 -2.65851526E-13 -8.99932210E-13  1.38107016E+01  1.95935722E-02  3.07413406E-15
  4.01028144E-15 -5.55767666E-12 -1.75135721E-16  2.56795583E-01 -5.90611623E-14
 -1.55820815E-13  2.96450137E-11 -3.82560228E-15  5.23559532E-06 -1.16480147E-04
 -5.23124195E-03  2.98497037E-04 -2.61103272E-15  1.52741638E-15 -3.33762584E-03
  7.19893416E-14  3.51888680E-14  8.02876793E-01  9.95742632E-13  8.99515121E-13
  3.94216657E+01 -3.07471431E-06 -1.86127195E-15  1.02321884E-15 -8.42746223E-16
  7.65822552E-16 -6.79244955E-05  6.03382718E-14 -1.99232347E-13 -9.72675423E-15
  1.78021806E-16 -3.70936194E-02 -7.25560595E-01 -5.54024322E+01 -1.80262519E+00
  3.40341211E-15 -4.47452673E-15 -9.77617204E-03 -3.76451448E-14  9.17322475E-14
  5.34140318E-01 -7.30824285E-13 -7.86642414E-14  1.38100051E+01 -1.95890024E-02
 -4.01920414E-15 -6.28197251E-15  5.55937759E-12  1.43406012E-15 -2.56814279E-01
  1.18217148E-13 -1.95617530E-14 -2.96184305E-11  4.57833914E-15 -1.22473045E-13
  9.74347497E-12  5.38425537E-11 -1.36203889E-11  3.94366441E-03  3.76572067E-16
  1.03878675E-13 -3.21832267E-02 -6.08776235E-15  1.04226651E-12 -3.14421223E+00
  9.40023319E-14  1.15097078E-11  1.11800541E-13  1.62682554E-02 -2.87623925E-16
  1.25318121E-16 -5.04045573E-16 -1.08963460E-12 -3.54289748E-01 -1.57022310E-15
  3.91254757E-17  3.72061025E-15  5.29106908E-13  3.19831044E-13 -7.07419651E-11
  2.83796753E-11 -6.61862746E-03 -2.64954868E-16  1.64706609E-14  2.68089761E-01
 -1.77896243E-15 -3.24329907E-13  5.72233957E+00 -1.85800764E-13  1.98467944E-11
 -1.80032499E-13 -1.25717076E-07  7.23880048E-16 -1.25779167E-16  3.74241302E-16
 -7.00992266E-12 -7.02913015E-06 -1.26976576E-14  9.77741915E-16 -3.90815287E-15
 -9.57340259E-14  1.03711323E-11  2.11390906E-12 -1.31161836E-11  3.94205434E-03
 -4.25370571E-16 -1.22890785E-13 -3.21649211E-02  2.21606589E-15 -1.25575988E-12
 -3.14409300E+00  1.15386104E-13 -2.02368181E-12  1.11846775E-13 -1.62687502E-02
  7.12753223E-16 -8.58980325E-17 -1.31972056E-17 -7.20604094E-13  3.54273181E-01
 -1.49293062E-14  2.44674533E-16  2.46914157E-15  4.06670990E-14 -8.84410582E-12
 -4.05408925E-11  1.36978410E-11 -2.12154383E-15 -3.94366443E-03 -1.13278661E-13
  2.69388977E-14  3.21832269E-02 -7.19391699E-13  1.47803432E-13  3.14421224E+00
 -7.14097915E-12 -9.69174532E-14  8.01503779E-16 -1.62682555E-02  8.48017268E-17
  5.10921349E-16  1.20348313E-12  2.54232440E-14  3.54289748E-01 -4.04521363E-16
 -7.12996967E-15 -4.56720308E-13 -1.02926060E-12  4.21938399E-11 -2.87138310E-11
  9.89325838E-16  6.61862748E-03 -1.59639659E-14 -1.55950973E-14 -2.68089762E-01
  3.58301770E-13 -1.95303976E-13 -5.72233958E+00 -2.02316081E-11  1.52835160E-13
  1.23631853E-15  1.25717077E-07  4.66717504E-17 -7.04076366E-16  6.30062427E-12
  3.70478628E-14  7.02913023E-06 -3.06629211E-16  9.74539588E-15  1.84387317E-14
 -9.53327889E-12  1.23203655E-11  1.32929922E-11  1.43491168E-15 -3.94205436E-03
  1.31234032E-13 -1.97683571E-14  3.21649213E-02  9.69960936E-13  6.32021798E-14
  3.14409300E+00 -2.67386388E-12 -9.97314707E-14  2.22391952E-15  1.62687502E-02
 -3.31100784E-19  6.16632234E-16  8.29843381E-13 -9.00350559E-15 -3.54273182E-01
 -2.33531821E-16 -6.81982884E-15  5.07309195E-03 -2.86275939E+00 -3.53253608E+00
  4.65149604E+00  1.11313391E-14  1.38135979E-14 -3.91360070E-02 -9.03482997E-14
 -1.12106853E-13 -2.35280346E-01 -1.00418345E-11 -9.80143093E-12 -3.84360605E-01
 -2.87702325E-02  5.15066921E-14  4.87703794E-14  3.07162409E-11 -2.48397646E-16
  3.37055148E-01 -1.10457797E-12 -1.09051895E-12 -2.05572250E-10  2.98270451E-16
 -1.41234048E-01 -4.43069570E-01  1.15120350E+01 -9.84616423E+00 -1.79805053E-14
 -1.71852769E-14 -6.76467516E-07  8.16919808E-13  8.00114948E-13 -1.20133738E-04
  1.82661230E-11  1.78310362E-11 -1.00256396E-03  4.43480501E-02 -3.55634151E-16
 -2.00150899E-15  4.76781099E-11  1.02159735E-17  1.95778724E+00 -7.80863742E-15
 -4.09246435E-14 -3.05059718E-10  1.38829976E-15  5.07797253E-03 -2.86256487E+00
 -3.52986064E+00  4.65129483E+00  9.38686863E-15  8.89403881E-15  3.91283373E-02
 -7.92920939E-14 -6.26573304E-14  2.35257343E-01 -1.00462052E-11 -9.80717376E-12
  3.83931931E-01 -2.87666074E-02 -5.17387404E-14 -5.09018574E-14  3.07150200E-11
 -8.46612588E-17  3.37063190E-01  1.09513646E-12  1.05659761E-12 -2.05567978E-10
 -1.24687495E-16 -1.79193465E-01  1.21829499E+00  2.63939048E+01  1.22621674E+00
  3.97967984E-16 -4.81353722E-15 -1.61216688E-02  3.51650376E-15  4.24280818E-14
  5.11951414E-01  1.64911653E-12  2.32075585E-13  8.99648267E+00  2.65859456E-02
 -6.76718745E-15  2.06295628E-15  8.67782895E-12 -1.45621231E-16  3.01146260E-01
  1.33686983E-13  2.71463923E-14 -4.56038187E-11 -6.93150629E-15  1.33470605E-01
 -1.53554439E+00 -5.38012599E+01 -2.69029211E+00 -5.47743536E-15 -3.42613207E-15
  1.05896350E-05 -3.18470704E-14  1.71625344E-14  9.60979402E-05 -2.99523430E-12
 -3.38339012E-13  1.41515773E-03 -6.09909219E-02  1.07082036E-15  2.20994943E-15
 -1.53428082E-11 -8.24784575E-16 -8.97559148E-01  7.65562489E-14  8.01591373E-14
  1.67369936E-10  1.46190678E-14 -1.79188904E-01  1.21815559E+00  2.63883906E+01
  1.22617690E+00  1.37556003E-14  4.46718637E-15  1.61216300E-02 -9.54021222E-14
 -5.75341793E-14 -5.11871432E-01  1.66415869E-12  1.27614738E-13 -8.99527006E+00
  2.65817489E-02  6.25142836E-15  1.14475965E-15  8.67602239E-12  1.86887358E-15
  3.01116348E-01 -6.31346232E-14  4.51373795E-14 -4.55955571E-11 -1.38726144E-14
  5.50295374E-02  8.34550525E-01 -3.85903796E+01  1.62692374E-02 -1.07795523E-14
 -1.24276452E-15  3.16172905E-02  1.18309606E-13 -1.00776806E-14 -3.74482390E-01
 -2.95741937E-13 -3.80931585E-13 -9.37773565E+00 -1.74709954E-03  2.78143165E-15
 -1.64473638E-15 -4.35765348E-11 -9.27681459E-18 -3.06007239E-01  7.95529853E-14
 -2.56362667E-14  4.08064343E-10  7.06267101E-15  1.13225472E-05 -9.42779160E-05
  3.57569037E-04 -2.22776073E-04  3.38136865E-15 -3.72592664E-15 -5.05357347E-03
 -1.45274590E-14  3.79610884E-14 -4.88726302E-01  5.95542672E-13  6.71880268E-13
 -2.52768957E+01 -9.01554328E-06  3.03939237E-15 -1.17226480E-15 -5.48468786E-16
 -1.29032495E-15 -9.16365494E-05  1.77055292E-13 -5.91266693E-14  2.18498393E-14
 -1.98999354E-16 -5.50494411E-02 -8.34400992E-01  3.85900098E+01 -1.60551818E-02
  3.70925415E-15  1.28140386E-16  3.16154428E-02 -6.93850874E-14  1.10775669E-14
 -3.74564249E-01 -4.11187995E-13 -3.75383967E-13 -9.37815845E+00  1.75690677E-03
  1.27390448E-15  1.63680761E-15  4.35800654E-11 -1.99775813E-15  3.06028707E-01
  5.19134496E-14  2.41215566E-15 -4.08133904E-10 -1.00209031E-14 -2.80235281E-02
  5.23583341E-01  1.39172556E+02  9.82916299E-01  1.00296995E-13 -3.64185931E-14
 -2.89223209E-02 -1.17439505E-12  5.52030812E-13  2.63604483E-01 -9.71775731E-13
  1.37467671E-12  2.85101257E+01  2.23646582E-02 -6.42051802E-15  2.29968012E-14
 -3.32383754E-11 -6.42656942E-16 -1.52669873E-01 -1.30910287E-12  5.56817572E-13
  3.90332872E-10 -3.73233004E-14  1.10172152E-06 -1.57173040E-04 -1.91818759E-02
 -5.61966254E-04 -2.35845518E-14  1.62199721E-14  4.18698733E-02  2.27373184E-13
 -8.19300030E-14  1.70119761E-01 -1.43803025E-13 -6.23085364E-13  1.05014554E+02
 -7.45962444E-06 -1.76750253E-14  9.69819248E-15 -1.38091480E-15  2.83138334E-15
 -3.36086628E-04 -2.32034748E-12  1.82879520E-12 -2.35439261E-14  2.49149364E-14
  2.80274165E-02 -5.22900628E-01 -1.39153639E+02 -9.82269864E-01 -5.50684029E-14
  5.08461049E-14 -2.89259590E-02  7.81118963E-13 -6.69769600E-13  2.63387136E-01
  1.41908084E-12 -5.32091741E-13  2.85066162E+01 -2.23486952E-02 -1.89917727E-14
 -1.28800766E-14  3.32423662E-11  4.30181410E-15  1.52589340E-01 -6.19078492E-13
  8.72099046E-13 -3.90266036E-10  1.21158310E-13  6.79213362E-15  5.71723483E-13
  1.75684035E-11  7.60384495E-13 -1.64972232E-15 -3.57230116E-17 -4.53675642E-15
  1.77648878E-14  4.02838508E-16  2.67837594E-13  2.44985672E-14  1.66967005E-15
  4.13485388E-12  1.42051852E-14  1.10556728E-16 -4.04254452E-16 -4.79796351E-07
  3.99650024E-02 -2.02236434E-14  2.12337699E-14  5.22930340E-15  6.11951067E-06
 -5.09729302E-01  1.25385780E-15 -1.83863458E-13 -1.18022532E-11 -1.16304350E-12
  9.15534448E-17  4.78631630E-16  2.40196882E-15 -1.72216585E-15 -3.32056992E-15
  1.40707848E-13 -3.30805206E-15 -1.43602003E-15  8.84943032E-12 -9.30754601E-15
  1.22979795E-16  1.06527812E-16 -4.34514144E-07  3.61931865E-02 -5.14593457E-13
  4.25291783E-14 -4.34789316E-16  3.25655735E-06 -2.71257424E-01  1.67009208E-14
  2.93363946E-13 -6.11068986E-12  5.59468849E-13  1.25402358E-15  2.05930916E-17
 -1.58022221E-15 -1.52679631E-14  1.18399878E-15 -9.73028795E-14 -2.19588266E-14
 -9.37724476E-16  8.30568672E-13  5.24788085E-15  1.71684295E-16 -1.80941748E-16
 -4.79808174E-07  3.99659872E-02 -7.40765025E-14  1.51147399E-14 -3.59124708E-15
  6.11974157E-06 -5.09748534E-01  1.41795035E-09  5.27687128E-08  6.80979777E-07
  7.10262785E-08  1.37974176E-15 -3.48914841E-16 -1.28803147E-10 -2.00164374E-14
  3.64162125E-15  2.05558444E-08 -2.98748659E-14  6.89563807E-15  1.95657315E-07
  1.09098288E-09 -2.80144829E-16 -1.32120134E-16  3.99650024E-02  4.79796351E-07
 -6.83032932E-09 -2.23307704E-14  6.03497999E-15 -5.09729302E-01 -6.11951067E-06
  2.61490674E-10 -1.58027004E-08 -1.40995605E-06 -1.23370408E-07  2.38209504E-18
 -7.53189105E-17 -2.31780798E-13  1.65669526E-16 -1.54820836E-15  1.61127662E-12
 -1.18829161E-15  2.22421314E-16 -1.94588686E-10 -9.75150398E-10 -7.54515516E-17
 -7.14251800E-17  3.61931865E-02  4.34514144E-07 -6.24001962E-08 -5.16995751E-14
  1.00661525E-14 -2.71257424E-01 -3.25655735E-06  1.41766153E-09  5.27696771E-08
  6.81452679E-07  7.10273660E-08 -1.71101122E-15  1.77962945E-16  1.29131692E-10
  2.08391198E-14 -5.29647579E-16 -2.05571878E-08  3.08571121E-14 -7.98193559E-15
 -1.95753499E-07  1.09106766E-09 -1.16675451E-16 -2.52045034E-16  3.99659872E-02
  4.79808174E-07 -6.83156823E-09 -2.50199372E-14  4.45391581E-15 -5.09748534E-01
 -6.11974157E-06  5.86760603E-02  2.13083873E+00  2.83012907E+01  3.04036826E+00
 -7.92844438E-14 -6.95926776E-14 -6.29446230E-03  9.57583201E-13  8.05325590E-13
  8.53467364E-01  1.65644369E-12  1.18016172E-12  8.14797011E+00  4.47021882E-02
  1.33101426E-14  1.24312538E-14 -9.42788537E-10 -2.05731320E-14 -2.71174928E-01
  1.09606572E-12  8.80235632E-13  1.18355012E-08  2.49197148E-13  7.96932722E-03
 -6.79767748E-01 -5.84966308E+01 -5.30659776E+00 -2.14765098E-14 -1.22330471E-14
 -9.64565051E-06  2.65335949E-13  1.26580251E-13  5.78209731E-05  4.78331741E-13
  3.32478526E-13 -8.25115153E-03 -3.99970470E-02  9.40018068E-15  1.26816760E-14
 -8.99580398E-10 -1.80637478E-14 -2.55080098E+00  3.15556811E-12  2.28620883E-12
  7.11607997E-09  1.62841209E-13  5.86636862E-02  2.13089031E+00  2.83214027E+01
  3.04041476E+00  1.27591548E-13  7.66322954E-14  6.30818148E-03 -1.38431295E-12
 -9.17027205E-13 -8.53530494E-01 -2.00858826E-12 -1.51243352E-12 -8.15207053E+00
  4.47060373E-02 -5.14145546E-15  4.34929604E-15 -9.42823492E-10 -1.61304626E-14
 -2.71221242E-01  1.74541347E-12  1.18374118E-12  1.18361011E-08  2.18572533E-13
  1.12420078E-13  1.70651814E-12 -7.40594842E-11  2.99187421E-12  7.40584780E-02
 -1.72843132E-15  1.88824524E-14 -8.64270559E-01  1.79704053E-14  4.74112520E-13
 -1.44744033E+00  1.83461966E-14 -1.26126353E-11  2.47581376E-14 -5.65892324E-03
 -7.63306316E-16 -8.77448477E-16  8.26874033E-16 -5.77849078E-13 -1.08762898E+00
  1.83731838E-14  1.01498430E-14 -9.66293764E-15  1.01576517E-14 -7.32856477E-13
 -7.64649865E-11 -6.87415447E-12 -1.61611579E-06  3.52424962E-16 -2.57629894E-14
  5.86026642E-05 -6.67569635E-15 -9.44115453E-13  4.10346998E-05 -2.74877339E-14
 -8.29751508E-11 -4.92406720E-14 -7.86869580E-03 -3.56529297E-16 -8.34560002E-16
  6.14095737E-16 -3.24807934E-12 -2.42585336E+00  1.62810891E-14  7.06698234E-15
 -6.19069623E-15  2.91612284E-14  3.65910563E-12  1.48071540E-10  4.87199648E-12
 -7.40536008E-02  5.70615547E-16  3.53455012E-14  8.64165504E-01 -2.03893161E-15
 -1.66336074E-12  1.44742260E+00  2.96954083E-15 -3.40034543E-11  8.72044360E-14
 -5.65502786E-03  7.23598095E-17 -5.87002835E-16  5.10846779E-16 -1.62648896E-13
 -1.08764329E+00 -6.71822965E-15  7.98833531E-15 -5.15714518E-15 -2.41236993E-14
 -2.50642228E-12 -1.33058041E-10 -3.57674217E-12 -4.16756323E-16 -7.40584780E-02
  3.26722595E-14  3.23641003E-15  8.64270559E-01 -1.15430639E-12 -1.42602015E-14
  1.44744033E+00 -2.99059268E-11 -5.70396175E-14 -3.68798501E-16  5.65892324E-03
 -3.07540639E-16 -1.02812388E-16  1.15447822E-13  6.03522341E-15  1.08762898E+00
  3.02035140E-15  3.57144513E-15 -4.12865718E-15  3.95503438E-13  5.39660713E-11
  4.64806238E-12  5.98541659E-16  1.61611580E-06 -2.64949722E-14 -5.22116764E-15
 -5.86026643E-05 -6.12411027E-13  1.55510932E-14 -4.10346998E-05 -8.00164689E-11
  2.77231074E-14 -5.76682860E-16  7.86869581E-03 -2.27393023E-16  6.72761308E-17
  2.22827424E-12 -6.02366834E-15  2.42585336E+00  1.37529500E-15 -6.16259356E-15
 -9.02612613E-14 -1.06900233E-12  8.08023000E-11 -1.78418907E-12 -1.37274902E-15
  7.40536008E-02  1.68075864E-14  1.55522064E-14 -8.64165504E-01  3.12707282E-13
 -1.14175888E-14 -1.44742260E+00 -1.48210561E-11 -1.35760171E-14 -6.36665082E-18
  5.65502785E-03 -1.07540382E-16 -1.62239016E-16  3.92217013E-13 -9.69862877E-15
  1.08764329E+00  3.15004834E-15  4.22118705E-15  2.54375003E-14 -1.44345711E-12
 -2.40916568E-11 -9.36213045E-13  4.80519040E-02 -8.59125154E-16  1.10269209E-14
 -6.13643661E-01  9.80291097E-15 -7.67490496E-13 -7.19778564E-01  1.13047054E-15
 -6.57581684E-12 -2.80387671E-14  1.83143703E-02  6.05441402E-16 -3.04562383E-16
 -1.11325241E-15 -4.26752134E-13 -2.99607662E-01 -5.91126315E-15  4.58106387E-15
  1.85480565E-14  2.74823597E-15 -5.01893749E-13  1.68940140E-11  8.82419423E-13
  2.77864484E-02 -1.14681592E-15  6.31923914E-15 -3.65986436E-01  1.72645969E-14
 -1.42460179E-12  2.13703930E+00  2.75955513E-14 -1.07035122E-11 -2.86127703E-15
  6.39826471E-07  4.45000101E-16 -1.97514220E-17  5.64731951E-16  5.65928759E-13
  4.77958637E-05  3.79139138E-14  4.24718011E-16 -1.35040337E-14 -4.43888863E-14
  7.85888220E-13  7.85442009E-12 -1.25328566E-13  4.80538296E-02  1.83212264E-15
  1.15988836E-14 -6.13681730E-01 -1.79201639E-14 -6.02445484E-13 -7.19805538E-01
 -3.17340114E-14 -1.86803274E-12  1.89905022E-14 -1.83146728E-02  4.69044309E-16
  6.75631688E-16  6.35013215E-16  8.35682061E-13  2.99670156E-01  2.09034291E-14
 -7.13997275E-15 -5.43196808E-15  2.08124515E-14 -9.07013616E-13 -1.62859749E-11
 -3.43115882E-13  2.02913285E-15  4.80519040E-02  1.14299000E-14 -2.34964398E-14
 -6.13643661E-01 -5.65896622E-13 -2.97789882E-14 -7.19778564E-01 -4.28355674E-12
 -1.79288849E-14 -1.42159667E-15  1.83143704E-02  2.04876525E-16 -3.85522228E-16
 -4.61409917E-13 -1.77959469E-14 -2.99607663E-01 -4.71943789E-15  1.20980348E-14
  2.14068110E-15 -1.86494356E-13  4.56854339E-12 -3.49585812E-14 -5.98214774E-16
  2.77864484E-02  4.54124483E-15  5.13972193E-15 -3.65986436E-01 -1.13739343E-12
  3.10383248E-15  2.13703930E+00 -9.53839497E-12 -4.11449011E-15 -1.18483659E-15
  6.39826471E-07  1.73984026E-17  8.47149033E-16  1.01724999E-13 -5.37313812E-14
  4.77958638E-05 -3.58341750E-16 -2.01365225E-14 -3.49019074E-14  8.77665352E-13
  1.18642535E-11  3.23694829E-13 -2.38538638E-15  4.80538296E-02  7.97637252E-15
  2.57515752E-14 -6.13681731E-01 -5.34847278E-13  2.55059275E-14 -7.19805538E-01
 -3.00542202E-12  2.01012935E-14 -1.89355463E-15 -1.83146728E-02 -9.69707900E-17
 -7.75355295E-17  5.43074117E-13 -6.84334654E-15  2.99670156E-01  3.72434934E-15
  8.77180000E-15  4.01892016E-11 -4.54476049E-10  7.93157851E-08  3.81014114E-10
  4.03439436E-16 -3.93394251E-17  7.26848179E-12 -4.65043601E-15  2.89039556E-15
 -7.54574362E-10 -8.07459536E-15  2.50751703E-15  1.48086783E-08 -9.90183611E-12
  1.96053161E-16 -1.02355949E-16  5.19646221E-02 -3.10960300E-06 -9.03104345E-10
 -2.61384607E-15  2.49570118E-15 -8.13968288E-01  4.87084892E-05  2.77050319E-15
  2.68288191E-13 -7.07454153E-12  1.99922223E-13  9.45369731E-17 -4.64686145E-16
  3.08055807E-11 -5.69509077E-16  2.80252617E-15 -1.60046013E-09  1.88143665E-14
 -9.07390711E-15  6.28014730E-08  2.96655357E-15  3.62642574E-16  3.64350882E-16
  7.08771592E-07 -4.24135483E-11  3.62706062E-15 -2.67931218E-15 -7.64695814E-16
  1.53796500E-06 -9.20342963E-11 -4.01990020E-11  4.54300860E-10 -7.93087537E-08
 -3.81234586E-10  1.69995364E-16 -1.79334994E-16  7.26582696E-12 -4.98099296E-15
  2.91511796E-15 -7.54437083E-10 -7.28172753E-15  1.36868603E-15  1.48078300E-08
  9.89998901E-12  7.93715556E-18  2.12696023E-16 -5.19633869E-02  3.10952908E-06
  9.03051282E-10  5.17850135E-15  3.60552441E-16  8.13955406E-01 -4.87077183E-05
  2.35389104E-14 -7.82210332E-13  7.83035051E-12 -7.78986310E-14  5.22976670E-16
  1.29276611E-16  6.69911725E-15 -7.77618456E-15 -1.27440594E-15 -5.36315182E-13
 -3.78919810E-15 -5.02194607E-15  9.55423788E-13 -1.74863969E-14  2.27661970E-16
 -8.96687866E-19  3.10960300E-06  5.19646221E-02 -5.32718748E-13  1.62404048E-15
 -2.61629859E-15 -4.87084892E-05 -8.13968288E-01 -1.20606044E-15  7.50338376E-14
 -1.28720733E-12 -1.26310181E-13  3.91779366E-16  1.33161816E-16  9.27755798E-15
 -8.14271423E-15 -3.19440483E-16 -1.11955598E-12  2.54554131E-14  8.16487233E-15
  6.48827511E-12  1.35505307E-15 -2.21214819E-16  1.30493079E-16  4.24134997E-11
  7.08771591E-07 -5.26712859E-14  7.99851286E-15  7.84246444E-16  9.20322861E-11
  1.53796500E-06 -2.27368953E-14  8.34730753E-13 -6.60715339E-12  2.17357150E-13
  8.84429302E-16  1.60892830E-16  6.36262795E-15 -1.26743810E-14 -1.84958399E-15
 -5.31780075E-13 -1.02625095E-14 -2.27119625E-15  6.10684907E-13  1.73126613E-14
 -2.06492054E-17 -3.29163420E-17 -3.10952909E-06 -5.19633869E-02  4.76734564E-13
  2.10433660E-15 -8.84507421E-16  4.87077183E-05  8.13955406E-01  5.93212700E-13
 -2.79034876E-11  8.50081944E-10  5.60394528E-12 -6.85024581E-03 -8.13114937E-16
  8.75070278E-14  1.06515150E-01  1.07479447E-15 -1.55985357E-11 -2.48945440E+00
  1.17047543E-13  1.55329521E-10 -4.84337685E-13  2.24623727E-02  9.31538352E-16
  1.41752003E-16 -1.17907509E-15 -1.57650616E-11 -1.26534407E+00  2.11127810E-14
 -3.98229377E-15  2.20929900E-14  1.40718994E-13 -6.52179845E-12 -1.70654988E-11
 -1.17320019E-11 -8.19383534E-02  1.50568602E-15  4.07179298E-13  1.02902395E+00
 -1.38771993E-14 -3.66757849E-11  4.31980268E+00 -2.08476673E-13  6.64193342E-10
 -1.00176685E-13 -1.04683534E-06  1.77618217E-15 -3.72234792E-16  2.07005994E-15
  2.00232973E-12 -6.53615215E-06  3.56484557E-14  6.32433527E-15 -4.67156273E-14
 -5.55614393E-13  2.53313054E-11 -8.29041706E-10  6.56842276E-12 -6.85177414E-03
  1.13137380E-15  1.91153432E-13  1.06563133E-01 -2.18047970E-14 -1.79758609E-11
 -2.48936416E+00  1.18868585E-13  1.45363512E-10  5.34134671E-13 -2.24645910E-02
  2.87242131E-15  5.54583551E-16 -1.03766475E-15  2.08553195E-11  1.26532372E+00
 -6.35129818E-14 -5.94913106E-15  2.96396740E-14  3.68107933E-13 -1.77333495E-11
  5.97569026E-10 -1.12025651E-12  5.19101576E-15 -6.85024582E-03  1.18758950E-13
 -6.24560750E-14  1.06515150E-01 -1.19063949E-11 -8.66255762E-14 -2.48945440E+00
  1.06207419E-10 -3.40048003E-13 -4.40611350E-15  2.24623727E-02 -3.96134879E-16
 -2.56967942E-15 -1.33190923E-11 -3.87823745E-14 -1.26534407E+00  2.09157577E-15
  5.59607177E-14  4.06060122E-15 -6.64011079E-13  8.29576837E-12  1.46129044E-12
 -4.19038494E-15 -8.19383534E-02  2.90552893E-13  4.61454635E-14  1.02902395E+00
 -2.61964513E-11  8.57513192E-14  4.31980268E+00  4.76366058E-10 -3.62767060E-14
 -2.82466806E-15 -1.04683534E-06  8.61269888E-17  5.03622975E-15 -8.39195351E-13
 -1.16221782E-13 -6.53615197E-06 -2.69040057E-15 -9.92652703E-14 -4.55312640E-13
  2.02677936E-11 -6.06661279E-10 -4.50007474E-13 -6.35150078E-15 -6.85177415E-03
  8.11050623E-14  7.08595201E-14  1.06563133E-01 -1.20586086E-11 -2.14315335E-14
 -2.48936416E+00  1.09424587E-10  3.83544482E-13 -5.78798677E-15 -2.24645910E-02
  2.55715855E-16 -2.69362123E-15  1.29418099E-11  4.02900276E-14  1.26532372E+00
  1.43401693E-15  5.60038458E-14 -2.86446635E-02  1.25250080E+00 -1.11516348E+01
 -4.20908588E+00 -9.16711502E-15  2.52108367E-15  3.61823369E-02  1.19154777E-13
 -3.59324102E-14 -7.09896547E-01 -3.94278959E-12  5.98791504E-13 -4.53846063E+00
 -1.13604832E-02  3.70567664E-14 -5.20013141E-15  3.29081561E-13 -1.17251458E-15
 -1.52991859E+00 -1.97952503E-12  2.67131119E-13 -4.07680036E-11  4.96083862E-14
 -8.73617164E-02  3.44326430E+00  1.97286866E+01  8.05131681E+00 -1.19514300E-13
  1.87992245E-14 -1.17113720E-05  1.47806698E-12 -2.32268488E-13  7.05922428E-04
  6.92625923E-12 -1.10814347E-12 -1.33133689E-02  5.12472241E-02 -3.03318397E-16
 -8.86735606E-17 -1.08308848E-11  1.67807499E-15 -1.43015654E+00 -2.64293728E-14
 -2.53760661E-14  2.06440895E-10 -6.47834883E-14 -2.86237032E-02  1.25158754E+00
 -1.11171990E+01 -4.20892690E+00 -1.88436854E-14  1.51592228E-15 -3.61869113E-02
  2.15214937E-13 -2.30135687E-14  7.10410436E-01 -3.96069934E-12  6.77128711E-13
  4.53219114E+00 -1.13740036E-02 -3.22846699E-14  5.76737931E-15  3.26377003E-13
 -1.82254448E-15 -1.53060703E+00  1.93365268E-12 -3.33996239E-13 -4.07097496E-11
  2.67380447E-14 -7.05409520E-02  3.36998037E+00 -1.13805692E+02 -4.36862052E-03
 -6.78594193E-14 -5.43442105E-14 -1.74740994E-02  1.06400761E-12  5.93839269E-13
  2.13522369E+00 -2.08118226E-11 -1.46051382E-11 -2.05937125E+01  6.46053006E-02
  2.00770796E-13  1.03205516E-13  1.33794299E-11  1.41824955E-14  2.33673854E+00
 -1.02789982E-11 -6.81808300E-12 -2.21902556E-10 -1.70418431E-13  1.49508349E-05
 -1.38220290E-03  7.80072954E-03 -1.18549392E-03 -6.27057059E-13 -4.98061768E-13
 -5.23443752E-02  7.89860288E-12  6.04447618E-12  4.65817010E+00  3.60823125E-11
  2.64928303E-11 -8.97346774E+01 -2.52748151E-05  1.24698925E-14  8.47753442E-15
 -4.11173467E-15 -9.10665420E-15  7.52054821E-05  2.00476185E-13  3.32617924E-13
  1.34794555E-13 -8.40498967E-16  7.05409679E-02 -3.36938005E+00  1.13798205E+02
  5.62526842E-03 -4.08630307E-14  8.34969973E-15 -1.74703825E-02  4.20085931E-13
  1.14795523E-13  2.13463263E+00 -2.04502736E-11 -1.55876424E-11 -2.05936144E+01
 -6.45861431E-02 -1.74308187E-13 -1.30381147E-13 -1.33814953E-11 -3.10390784E-14
 -2.33619442E+00  1.00718413E-11  8.11265309E-12  2.21744614E-10  2.05855217E-13
 -2.91017828E-14  1.10020608E-12 -1.10671996E-11 -2.68944659E-13 -6.40405572E-03
  8.02857602E-16  6.07333090E-15  1.56024102E-01 -1.10309824E-14  2.86596347E-13
  4.14083187E-01  1.16536694E-13 -2.02995734E-12  1.71840765E-14 -4.93832897E-02
 -3.81774605E-16  1.26799917E-16  2.10183032E-16  2.21653920E-13  1.11137780E+00
  4.56393168E-14 -7.61536737E-15 -2.21145261E-14  1.08517319E-14 -8.97004112E-13
 -2.33692686E-12  5.13663497E-13  1.52815677E-06  1.72101217E-15 -2.92136963E-15
 -1.48935224E-05 -1.55130067E-14  2.27251445E-13 -4.54683015E-05 -2.08246491E-13
 -9.28870498E-12 -3.01487503E-14  3.67968629E-02  6.86613109E-16 -4.82428515E-16
 -8.08041960E-16 -6.59646868E-13 -2.95602651E-01 -5.41465217E-15  1.50055305E-14
  3.42558694E-14 -2.35920775E-14  8.01970371E-13  1.28548070E-11 -2.03340003E-13
  6.40320572E-03 -3.37797182E-16 -7.42540209E-15 -1.56007156E-01 -2.94021988E-15
 -1.01039258E-13 -4.14037405E-01  1.13004667E-13 -2.49942621E-12  1.44378120E-14
 -4.93848927E-02  1.33456336E-15  6.01539620E-16  4.19866768E-16 -1.10424751E-13
  1.11134798E+00 -4.07278908E-14 -1.20221383E-14 -1.90257955E-14  4.34371958E-15
  6.20292398E-13 -7.60446152E-11  4.38155399E-14  3.56031898E-16  6.40405571E-03
 -1.58914035E-14 -5.10653878E-15 -1.56024102E-01  8.30925932E-13  1.04236086E-13
 -4.14083187E-01 -1.44222431E-11  1.54264925E-14 -2.23322988E-16  4.93832897E-02
  1.74693885E-16  1.83244889E-16  1.08130064E-12  4.17867596E-14 -1.11137779E+00
 -1.50400695E-15  1.33084524E-15 -8.18632888E-15  7.59162590E-13  1.54546845E-12
 -5.51721440E-13  5.64130386E-16 -1.52815677E-06 -2.38555064E-14 -7.52651632E-15
  1.48935223E-05  2.07486857E-12 -1.81178314E-13  4.54683009E-05 -5.86973201E-11
  2.38265875E-14  1.03380382E-15 -3.67968629E-02  7.21267103E-17  3.44164322E-18
  5.84135853E-13  3.40566226E-15  2.95602652E-01 -5.08204060E-16 -3.05971314E-16
  4.20225127E-14 -2.28435978E-12  7.49908036E-11  4.75777086E-13  8.92669668E-16
 -6.40320571E-03 -3.10934762E-15 -1.20668808E-14  1.56007156E-01  1.13435543E-12
  9.53446487E-14  4.14037405E-01 -1.41739900E-11 -3.97659494E-14  1.46947721E-15
  4.93848927E-02 -2.62689840E-16  2.36025156E-16 -1.17822286E-12 -3.25419451E-14
 -1.11134798E+00  1.70535803E-15 -1.48032659E-15  3.39107842E-14 -1.24328392E-12
  4.59822018E-13  4.90456652E-13  1.23498636E-15  2.01822576E-15 -8.40287908E-15
 -1.68705461E-14 -1.94829903E-14 -3.02906505E-13  8.65034602E-14  1.73421477E-13
  6.50891682E-14 -2.36416931E-14 -1.58575647E-15 -4.23605328E-16 -1.92889773E-06
 -3.98889688E-02 -8.59756560E-14  4.52714914E-14  5.78348584E-14  5.84083244E-05
  1.20786488E+00 -1.19925408E-14  1.03743098E-12  1.86123672E-12 -1.01814570E-12
  5.65162063E-16  8.72948343E-16  1.27253252E-15 -4.17277481E-15 -8.24032873E-15
 -1.48753976E-13 -1.50098874E-13 -3.23029892E-13  8.43701709E-13  3.79333179E-14
  6.53633989E-16  1.64604016E-15  3.38800000E-06  7.00627225E-02  7.70118846E-13
 -2.00053279E-14 -6.23938406E-15 -9.74067185E-05 -2.01433881E+00  2.88685019E-14
 -1.01225872E-12 -1.65391921E-12  4.90692940E-13 -3.64009055E-16  8.16447632E-16
  1.01206536E-14  2.79369531E-15 -2.11687982E-14  1.45262454E-13  7.78828772E-14
  1.87730549E-13  3.09329020E-13 -1.59456117E-14 -3.87169584E-16  2.74846269E-15
 -1.92886214E-06 -3.98882329E-02 -1.98520807E-14 -1.40865539E-14 -6.49091993E-14
  5.84061092E-05  1.20781907E+00 -9.67926648E-10  3.38690618E-08  8.31031394E-08
 -2.49067700E-09  2.25401730E-16  7.95534413E-18  2.43440583E-10 -2.34114029E-15
 -3.31206508E-15  6.43097430E-09 -1.50675265E-14  2.63376728E-15  2.45924018E-08
  4.67078562E-10 -1.47574623E-16 -5.09771041E-17 -3.98889688E-02  1.92889773E-06
  2.10010865E-09 -1.44521734E-15  1.17093997E-15  1.20786488E+00 -5.84083244E-05
  3.48449458E-10 -2.86209255E-08 -1.88710032E-07  7.96635429E-09 -9.28419954E-16
  1.91008170E-16  3.37831903E-14  1.34233195E-14 -2.90803583E-15  2.66587237E-12
  3.05287504E-14 -7.21332847E-15 -4.64088502E-12 -9.27274999E-10  2.00585148E-16
 -6.92740529E-17  7.00627225E-02 -3.38800000E-06 -2.55770867E-08 -3.35607575E-15
 -5.40538582E-15 -2.01433881E+00  9.74067185E-05 -9.67895480E-10  3.38642393E-08
  8.31101301E-08 -2.49059439E-09  6.04200320E-16 -9.41373599E-17 -2.43353017E-10
 -6.08229690E-15  4.22657136E-15 -6.42892225E-09 -1.76706691E-14  5.61519766E-15
 -2.45935787E-08  4.66957075E-10 -1.61020209E-17 -1.55498533E-16 -3.98882329E-02
  1.92886214E-06  2.09919258E-09  1.67757679E-14 -3.83694176E-15  1.20781907E+00
 -5.84061092E-05 -1.94966272E-01  6.65683422E+00  1.50399309E+01 -5.03389522E-01
  5.92040389E-15 -1.18247352E-14  4.82986358E-02 -2.23783617E-14  1.29308246E-13
  1.25294537E+00  6.20131305E-13  5.80834597E-13  4.49517694E+00  9.13616272E-02
  2.63074550E-15  1.11028874E-14  1.91302711E-10 -1.60792101E-14  4.73320545E-01
  6.48786865E-14  1.29986016E-13 -5.92988654E-09  4.84563903E-13  6.29743472E-02
 -5.79088718E+00 -3.44310709E+01  1.58421317E+00 -2.53711774E-15  6.70701632E-15
  7.57033124E-06  1.27015141E-13 -7.46800168E-14  4.78320834E-04 -1.24634343E-12
 -1.12235523E-12  1.32455376E-03 -1.85075441E-01 -2.43315802E-15  2.66464530E-15
 -3.36811478E-10  2.79125253E-14 -4.97603168E+00  1.78224259E-13  2.56654558E-13
  9.87462396E-09 -8.11282892E-13 -1.94959326E-01  6.65593701E+00  1.50355925E+01
 -5.03394958E-01  3.01580659E-14  1.44321516E-14 -4.82807485E-02 -2.49738028E-13
 -2.52563321E-13 -1.25258203E+00  7.41797329E-13  6.73538082E-13 -4.49430862E+00
  9.13383032E-02  1.34382634E-14  1.64949624E-14  1.91298675E-10 -1.32966521E-14
  4.73212760E-01 -3.26179560E-13 -3.42358534E-13 -5.92966722E-09  4.93041997E-13
 -4.39324315E-02 -2.40927634E+00 -2.90872408E+01 -2.31744247E-01 -2.86906321E-14
 -6.26294652E-15  6.50450136E-02  5.51458011E-13 -2.91268833E-14 -3.16299659E+00
 -2.12144033E-13 -3.15246774E-13 -7.35810575E+00 -7.64105939E-02  1.00555597E-14
 -1.13726103E-15 -2.07222751E-12  2.37081096E-15 -1.51368221E+00  9.64871546E-14
 -1.66267815E-13  1.46304899E-11 -1.70431575E-14 -3.43712766E-06  4.13070572E-04
  1.78176092E-03 -1.28255794E-04  5.18913007E-15 -1.75600518E-14  4.51191179E-03
 -1.36566125E-13  1.34992195E-13 -3.45718441E+00  5.76335727E-13  6.40693404E-13
 -1.86450294E+01 -2.10034352E-06  7.01709915E-15 -6.97118656E-15 -6.65676536E-17
 -4.59005140E-15  4.03444064E-05  5.76081975E-13  7.50223294E-14 -3.31821934E-14
  1.20259313E-14  4.39313100E-02  2.40877311E+00  2.90854934E+01  2.31887433E-01
  1.04287302E-14  7.79874300E-15  6.50467216E-02 -3.72592416E-13 -4.41750398E-14
 -3.16285270E+00 -4.35402310E-13 -3.79662580E-13 -7.35796988E+00  7.64074036E-02
  5.74201125E-15  1.10811213E-14  2.06877291E-12 -8.24846878E-15  1.51371324E+00
  1.98933784E-13  9.69572737E-14 -1.45892359E-11  5.57452482E-15  3.62502603E-14
  1.05778203E-12  7.13012243E-11  1.13883805E-13 -1.04509095E-01 -1.39343591E-14
 -2.01209017E-14  3.08424313E+00  3.65639322E-13  1.28225270E-12  1.04479761E+00
  2.12479936E-13  1.44718797E-11  3.89568164E-14  3.61167002E-02 -1.37707596E-15
  4.05993780E-16 -1.13957464E-15 -1.25547587E-14  1.14432685E+00  2.71410057E-13
 -1.63077914E-15  8.17278398E-15  1.62376004E-14 -2.11613102E-12 -4.18738762E-14
  4.15971995E-13 -1.42152276E-05  2.83300840E-14 -9.27497691E-15  3.15881644E-04
 -6.66469694E-13  4.40968663E-13  3.61733927E-04 -3.59101528E-13  5.35465790E-11
 -3.42248210E-14  9.05728354E-03 -1.36284676E-15  3.35787332E-16 -6.83843604E-16
 -5.77349267E-14  4.10568064E+00  8.46094359E-14  7.24255961E-16 -1.07202597E-14
  8.10775521E-14  1.90032788E-13 -7.06961159E-11 -7.33718817E-13  1.04519774E-01
 -1.33062480E-14  2.58709666E-14 -3.08449218E+00  2.50743927E-13 -1.74911540E-13
 -1.04518956E+00  1.60539016E-13  1.43505128E-11  1.21461386E-14  3.61109027E-02
  3.54614783E-15 -5.75422414E-16 -2.31994605E-16  4.51576767E-13  1.14473705E+00
 -2.20914267E-13 -2.31921327E-15  7.61495351E-15 -3.92285707E-14 -1.17763776E-12
  1.37258843E-12 -1.05515783E-13 -3.68973004E-15  1.04509095E-01  2.27623860E-14
  8.21003777E-14 -3.08424313E+00 -1.22431022E-12  3.19116851E-14 -1.04479761E+00
  4.19704364E-14 -6.09504124E-14  1.37121388E-15 -3.61167002E-02 -3.02336210E-16
  3.01804271E-16 -4.08914675E-13  4.16584892E-14 -1.14432685E+00 -1.06341035E-15
  2.72565625E-15 -5.06648290E-14  2.83765924E-12  1.59385574E-12  4.31565353E-13
  3.03834730E-15  1.42152276E-05  3.94582934E-15 -9.41055193E-14 -3.15881643E-04
 -5.90902995E-13 -5.14223349E-14 -3.61733925E-04  2.04228827E-12  6.46755341E-14
  8.54629395E-16 -9.05728356E-03 -9.61829514E-17 -4.13793087E-16 -5.26890633E-14
  4.57612502E-14 -4.10568064E+00  4.07252442E-15 -4.74626142E-15 -7.21814701E-14
 -2.22096038E-13 -3.83221680E-12 -1.04906824E-13  2.03706430E-15 -1.04519774E-01
 -2.14944329E-14  2.99014119E-15  3.08449218E+00  6.61870694E-13  2.21106533E-14
  1.04518956E+00  8.92298294E-13 -3.03118515E-14  6.22691022E-16 -3.61109027E-02
 -2.33012002E-16 -3.58742892E-16 -2.45735102E-13 -2.62088102E-14 -1.14473705E+00
 -1.29174168E-15  3.95361522E-15 -3.09776753E-13 -6.40683657E-12  1.62315633E-11
  8.65824950E-14 -6.37031441E-02  3.69493887E-15  1.67680561E-13  1.48170494E+00
 -5.00771488E-14 -5.54610272E-12  1.52324861E+00 -1.57051739E-13  1.29176615E-12
 -1.85353139E-13 -8.28494973E-03  2.02474248E-15 -1.35857329E-15  3.81179814E-16
 -2.02121850E-12  1.38482634E+00 -1.21609747E-13  4.47749532E-15  1.09894987E-14
 -3.02562503E-14  1.52842528E-11  3.28057721E-11  1.12003178E-12  1.20667391E-01
 -1.08315670E-14  3.84582306E-15 -3.32696847E+00  3.12641232E-13 -9.93123718E-13
 -2.85777955E+00  3.25354895E-13  2.56437134E-11  2.37902272E-13  4.43126405E-06
 -5.13643893E-15 -1.22577724E-16  6.08441412E-17  1.82515759E-12  5.16239967E-04
  1.15212014E-13 -7.18233977E-15 -1.88239282E-14 -3.34770490E-13 -4.87353053E-12
 -5.14831709E-11 -2.88210518E-13 -6.36771461E-02  1.02255332E-14 -1.54255582E-13
  1.48083136E+00 -2.22443607E-13  4.85138031E-12  1.52290859E+00 -1.95284391E-13
  1.22986195E-11 -1.37075516E-13  8.30072462E-03 -2.85157836E-16  5.06691824E-16
  1.29452629E-15 -1.53264551E-12 -1.38448996E+00  1.52718701E-13  4.68261511E-15
  1.13795739E-14  3.82211370E-14  1.02411266E-12  1.76474947E-11  6.23087367E-13
 -1.17623885E-14  6.37031441E-02 -2.28181976E-14  5.16104164E-13 -1.48170494E+00
  1.07294624E-12  1.36896704E-13 -1.52324860E+00  3.76475746E-12  3.78816520E-14
  3.24003044E-15  8.28494972E-03  2.87574132E-17 -4.99394591E-16  2.40210917E-13
  1.26540367E-13 -1.38482633E+00 -1.42805473E-16 -2.63073407E-14  1.90540513E-14
 -2.13924964E-12 -1.97028332E-12 -1.20208401E-12 -1.22787186E-14 -1.20667391E-01
 -6.39165629E-15  2.81805529E-13  3.32696847E+00  6.47822927E-13  1.30875006E-13
  2.85777955E+00  1.23694548E-11 -2.57497847E-14 -5.20233397E-15 -4.43126405E-06
  9.47125995E-17 -2.86037584E-16  3.75125372E-14  8.61939323E-13 -5.16239965E-04
 -1.76091717E-15  4.29286549E-14  8.21350688E-14 -1.06970019E-13 -1.49307992E-11
  4.07486449E-13  2.09049204E-14  6.36771461E-02  2.55852359E-14 -7.71809181E-13
 -1.48083136E+00 -3.48834562E-13 -2.73877195E-13 -1.52290859E+00  2.80111278E-12
  3.79124102E-15  2.71736402E-15 -8.30072461E-03 -1.01963645E-16  3.02643177E-16
  3.20758012E-13  3.27589902E-13  1.38448996E+00  1.64394433E-16 -2.63559842E-14
  1.90612564E-01  4.48522487E+00  1.81244387E+01  3.56170019E-01 -6.28603212E-14
 -1.43561959E-15 -1.00807090E-01  1.55161198E-12 -5.00182226E-13  3.61309757E+00
  2.40615363E-12  2.08024657E-13  5.67262676E+00  1.05855864E-01 -2.44623244E-14
 -1.35471936E-15  3.43548819E-12 -2.13889201E-15  1.25236995E+00  1.95285278E-12
  4.33952275E-14  2.58688246E-11  2.97542692E-14 -6.34693666E-03 -1.05854147E+01
 -3.53384666E+01 -1.15329954E+00  1.82212744E-13  2.84822558E-14  1.43603975E-05
 -5.23074484E-12 -8.22132327E-13  1.69165108E-04 -5.06669659E-12 -9.71720933E-13
  1.18859845E-05 -1.67396813E-01 -8.31746699E-16  2.94115184E-15  5.15211144E-12
  7.55375938E-16 -1.90525472E+00 -1.02412968E-12 -1.15148362E-12 -6.61253571E-12
 -5.09719490E-14  1.90631776E-01  4.48462513E+00  1.81234038E+01  3.56140862E-01
 -7.77447799E-14 -3.65322721E-14  1.00814460E-01  3.05076345E-12  1.20194527E-12
 -3.61283376E+00  2.99799995E-12  8.33305017E-13 -5.67238083E+00  1.05842886E-01
  1.31425861E-15 -4.25853092E-15  3.43355371E-12  6.60542163E-15  1.25228923E+00
 -2.57707835E-12 -7.32868022E-13  2.58677594E-11  3.35765412E-14  7.52071954E-01
 -1.36487026E+01  1.59471791E+01 -4.36816500E-01  1.28714369E-14  2.52588411E-14
  6.53560996E-02  1.13933293E-13 -4.44003038E-15 -8.24369435E+00  2.81001661E-14
 -3.47322190E-14  1.76355267E+00 -2.08898857E-01 -5.84166920E-15  6.54245058E-15
  2.66318838E-11  7.90247026E-16 -2.20147126E+00  2.04080533E-14 -2.46156611E-14
  2.50498929E-13 -4.97581445E-15 -4.88886604E-05  3.23774254E-03 -1.51110080E-03
  1.16805601E-04 -1.07382369E-14  3.15889994E-14  1.48135913E-02  1.45594676E-13
  1.29430751E-13 -1.60698813E+01  1.20157092E-13  1.51839079E-13  1.37290641E+01
  9.50998165E-05 -2.34993337E-14 -1.09298109E-14  1.43467239E-15  1.17238341E-14
  3.44774644E-04  2.92561921E-13  1.01635107E-13  1.57488049E-14  1.11884046E-14
 -7.51983752E-01  1.36451510E+01 -1.59454777E+01  4.36647199E-01 -5.55829773E-15
 -1.01131834E-14  6.54163985E-02 -2.37892737E-13 -1.24686465E-13 -8.24224306E+00
 -1.62803199E-13 -1.22702663E-13  1.76339085E+00  2.08802816E-01  1.92653655E-15
 -2.39146780E-14 -2.66349299E-11  2.68012034E-14  2.20127349E+00  1.25616851E-13
  1.27245617E-13 -2.69146640E-13 -3.18522507E-14 -9.17417190E-01 -4.32644534E+00
 -6.35959682E+00  6.35853925E-02 -8.22332336E-15 -1.62078741E-15  1.15375986E-01
 -9.07144463E-14  3.37618914E-15 -3.42668131E+00 -1.60081846E-13 -8.08419627E-14
 -1.80263455E+00 -8.76401717E-02 -4.39916407E-17 -7.02381649E-15 -1.58372204E-11
 -3.79491039E-16 -6.65141606E-01 -9.16983665E-14 -3.41368501E-14 -3.02371960E-12
 -5.30967260E-15  6.83172118E-05  8.51183887E-04  5.79259529E-04  7.12262877E-05
 -1.73535638E-15 -9.59526187E-15  1.13021661E-01  1.23472736E-13  7.59998445E-14
 -7.18116322E+00  2.52168153E-13  1.93196172E-13 -3.34353682E+00 -1.59844689E-05
 -1.56257267E-15 -1.14154058E-14  9.86231353E-16 -4.05497292E-15  1.34044365E-05
 -5.86319665E-14  5.82886511E-14  5.97048246E-15  8.07851484E-15  9.17512269E-01
  4.32551714E+00  6.35906501E+00 -6.36857205E-02 -1.11146524E-14  3.36629924E-16
  1.15368050E-01  1.13951290E-16 -5.19931117E-14 -3.42628563E+00 -1.20657595E-13
 -1.31923820E-13 -1.80246905E+00  8.76948241E-02 -2.56413048E-15  1.08885859E-14
  1.58377269E-11 -5.36469652E-15  6.65038862E-01  4.88804510E-14  5.61546369E-14
  3.01819918E-12 -4.23547646E-15 -9.47545345E-01  1.89301697E+00 -2.31669515E+00
  1.18522457E+00 -5.48167562E-15  1.29409029E-16  1.16360577E-01 -1.19268553E-14
 -9.34568731E-15  1.62590203E+00 -1.49278260E-13 -2.51524665E-14 -1.19177653E-01
 -9.99833419E-02 -1.52790960E-15 -3.89857651E-15 -4.76273436E-11  9.68321444E-16
  8.18409035E-01 -6.48249044E-14 -1.45175536E-14 -5.02726817E-12  1.73931380E-15
 -4.99895946E-01 -4.93053257E+00  5.21168953E+00 -2.04266282E+00 -1.68479791E-15
  9.64450853E-15  8.51184371E-06  1.31434193E-13  3.81486938E-14 -8.30306214E-04
  3.09543820E-13  6.12111837E-14 -6.63371503E-04 -3.81086159E-01 -1.57156264E-15
 -1.06055499E-14 -4.18309165E-11 -1.15544397E-15  1.13361820E+00  5.67253483E-14
  1.77789001E-14  1.49184038E-11 -2.44449201E-15 -9.47490509E-01  1.89406867E+00
 -2.31447385E+00  1.18521144E+00 -1.52791429E-14 -4.76941826E-15 -1.16315896E-01
 -7.68587569E-14 -2.57758754E-14 -1.62663320E+00 -1.91477398E-13 -3.70313918E-14
  1.18592528E-01 -9.99797964E-02  1.50458595E-14 -4.83162980E-15 -4.76267696E-11
  7.30089025E-16  8.18608951E-01  9.17261065E-14  3.15606386E-14 -5.02512227E-12
  1.33289285E-15 -1.41323512E-10  1.30851370E-09  9.44614482E-10  1.26246307E-10
  1.12709342E-15  3.05259439E-15  4.82079135E-11  5.41593028E-15  1.28570985E-15
  4.68074145E-10  3.82013801E-15 -1.16453287E-16  3.06325073E-10  3.39039999E-11
 -1.76053801E-15 -2.86690219E-15  5.24861017E-01  8.64413982E-05  9.10381158E-11
  5.49847252E-15  5.06075631E-15 -1.09170389E-01 -1.79796950E-05  1.69021280E-10
 -1.86752190E-09 -2.36623427E-09 -1.34821571E-10  2.39856035E-15  5.15602988E-15
  1.29617053E-14 -6.04087142E-15 -7.50192728E-15 -4.44855759E-14 -3.78440382E-15
  3.66524475E-15 -1.22805794E-12 -6.12583893E-11  5.25439355E-15  7.44090132E-15
  6.89129827E-01  1.13495466E-04 -4.96703148E-10  2.61145122E-15 -2.33265147E-15
 -3.17919572E-01 -5.23594082E-05 -1.41328544E-10  1.30853837E-09  9.47858733E-10
  1.26268785E-10  1.71280556E-15  2.17481379E-15 -4.82123722E-11 -2.90219255E-15
 -9.99574221E-16 -4.68118256E-10  1.13886335E-15 -1.77904172E-15 -3.07012586E-10
  3.38863828E-11 -2.63780364E-15 -7.35130767E-15  5.24850101E-01  8.64396003E-05
  9.10401904E-11  1.68740000E-15  4.09162133E-15 -1.09166343E-01 -1.79790288E-05
  3.55286939E-14 -1.28605296E-13  1.19567593E-11  9.77683227E-14  1.64050793E-14
 -5.56133990E-15  6.19490244E-14 -1.44304983E-14  7.43569986E-15 -1.12838585E-13
 -4.58668603E-15  2.96949138E-15  2.41180338E-12 -1.25994496E-14  1.56067041E-14
 -9.01851784E-15  8.64413982E-05 -5.24861017E-01 -1.17490552E-13 -8.00084213E-15
  5.20453714E-15 -1.79796950E-05  1.09170389E-01 -3.75284593E-14  2.12353866E-13
 -3.63475193E-13 -4.19649406E-14  1.59457301E-14 -4.57021727E-15 -7.94407090E-14
 -2.60106744E-14  8.58750918E-15  6.62283245E-14  5.91102678E-15 -3.46134176E-15
  8.99038934E-12  9.06268834E-15 -7.62161600E-15  4.89433960E-15  1.13495466E-04
 -6.89129827E-01  4.67917675E-14 -1.03404269E-14  5.63340016E-15 -5.23594082E-05
  3.17919572E-01 -3.61029973E-14 -1.02713960E-13 -1.15910605E-11 -4.87518520E-14
  1.58714888E-14 -8.78801012E-16  5.45632965E-14  7.05702002E-15 -8.10493649E-15
 -1.95289860E-14  7.61115971E-15 -1.47261711E-15  2.28171635E-12 -1.02915321E-14
 -7.64006806E-16 -2.54618901E-16  8.64396003E-05 -5.24850101E-01  1.19765816E-13
 -1.38326975E-14  5.71363569E-15 -1.79790288E-05  1.09166343E-01  1.50275554E-13
 -2.50135946E-12 -7.14042717E-12  7.83105505E-14  1.85897487E-01  5.77288081E-15
 -9.32325363E-14 -6.74369554E-01 -1.69844155E-14 -8.40276829E-13 -2.47002570E-01
 -1.12201447E-14 -1.47702506E-12 -1.11012859E-13  4.74361678E-01  2.15360745E-14
 -2.53735163E-15  8.73174078E-15 -3.44587521E-14 -6.10439367E-01 -1.82060126E-14
  2.89102480E-16 -2.44862111E-15 -4.64092538E-13  3.69816162E-12  2.78023455E-12
 -3.36099143E-13 -7.36200860E-07  4.62336955E-15  5.12198038E-14  6.21564639E-05
 -1.32730497E-14 -6.72564787E-14 -1.42854951E-05  6.44855628E-15 -4.69351062E-12
  1.12803653E-13 -5.57358946E-01 -1.84131913E-14  5.77315873E-15  9.10491524E-15
  1.07453686E-12 -4.54225383E-01 -1.51980054E-14 -8.72665639E-16 -3.64977099E-15
  1.87664299E-13 -2.46726816E-12  5.09586184E-12  1.49041232E-13 -1.85898992E-01
  1.25903222E-15  2.18622961E-14  6.74307254E-01  2.02713066E-14  9.05592963E-13
  2.47017415E-01  7.02768322E-15 -9.42030617E-13 -9.85614919E-14  4.74419621E-01
  7.51097222E-15  8.55268468E-15  7.37579362E-15 -1.76779887E-13 -6.10443454E-01
 -1.99620676E-14 -4.35539188E-15 -2.50939164E-15 -8.17820952E-14  7.58725755E-13
 -7.07658998E-12 -2.30423517E-15 -5.33048853E-15 -1.85897487E-01 -1.23442381E-14
 -8.88666602E-15  6.74369554E-01  2.57127082E-13  3.63482206E-14  2.47002570E-01
 -1.36162532E-12  4.72789274E-14  3.19191796E-15 -4.74361677E-01 -7.21585916E-15
  1.02190819E-14  9.09860244E-14 -7.14125980E-16  6.10439367E-01  2.19023836E-15
 -2.71516363E-15  1.79643163E-13 -1.39764572E-12 -1.91430581E-12 -7.16627308E-14
 -2.48583440E-14  7.36200891E-07  5.46457332E-14  1.54701007E-14 -6.21564640E-05
 -2.62201527E-13 -8.05734355E-14  1.42854950E-05 -5.97957696E-12 -2.96294562E-14
 -1.52264349E-14  5.57358946E-01 -5.77323732E-15  7.65626792E-15 -4.20295561E-13
 -4.88423344E-15  4.54225383E-01  2.33927761E-15 -4.78618473E-15 -4.20518220E-14
  1.09186721E-12  8.72180651E-12  1.19346329E-13 -2.54315769E-14  1.85898992E-01
 -7.00678236E-14  2.48548637E-14 -6.74307254E-01 -3.90193336E-13  4.14935139E-14
 -2.47017415E-01 -1.86188934E-12  2.04638785E-14  2.61179104E-14 -4.74419621E-01
 -7.61739102E-15 -2.31275366E-15  1.21534827E-14 -2.71596275E-14  6.10443454E-01
  2.62229561E-15  2.34893456E-15 -5.93289793E-01  9.78266299E+00  9.52788486E+00
 -4.89524314E-02  7.68093798E-13 -1.30984294E-13  2.81982255E-01 -2.01599843E-13
  4.65851779E-14  3.24809522E+00  1.67096150E-14  1.58538133E-13  2.78210071E+00
  3.55515412E-01  6.41617415E-13  9.73450157E-14 -9.82123055E-11 -8.18802215E-14
  4.24484352E-01 -1.20006398E-14  2.67231638E-15  1.12614937E-11  4.15845951E-14
  1.82011204E+00 -1.39638720E+01 -2.23769469E+01  6.00991792E-01  9.32349546E-13
 -4.51113826E-14  3.77414947E-05 -1.49801563E-12 -1.23478629E-13  3.52512495E-04
  3.00550397E-13 -4.78308205E-13  1.84394410E-03 -2.98610073E-01 -1.25723624E-13
 -2.84549402E-14 -2.26060164E-11 -4.58535286E-14 -4.72449697E+00 -4.80851008E-14
 -1.16231475E-13  3.40696281E-11  3.71656824E-15 -5.93388368E-01  9.78188365E+00
  9.52272455E+00 -4.89624378E-02  8.09267710E-13 -1.53872034E-14 -2.81931219E-01
 -4.87015671E-14  1.51688693E-13 -3.24790324E+00  1.54739011E-13  3.32816602E-13
 -2.78116803E+00  3.55401933E-01 -3.54201417E-13  6.53351950E-14 -9.82963658E-11
  7.37693385E-14  4.24530871E-01 -2.90351352E-13 -2.03202616E-13  1.12961696E-11
 -2.30669663E-14  7.39064263E-13 -1.30161992E-11 -1.75281440E-11 -1.64469516E-13
  5.30785279E-01 -1.82423329E-14 -4.25365747E-13 -4.67753231E-02  2.00128952E-14
 -4.26110171E-12 -5.54116975E-02  1.02036694E-16 -4.96075919E-12 -4.32253857E-13
  4.18900488E-01 -2.83981693E-14  3.34321023E-14 -4.05852779E-15 -5.57424838E-13
  6.43987468E-02  1.25015191E-14 -1.46743204E-14  2.86919542E-15 -2.37831425E-12
  1.80171674E-11  3.45095668E-11 -4.10469189E-13  7.56113474E-01 -1.73303490E-14
  3.79877055E-14 -1.17147310E+00  4.06655057E-14 -2.76132839E-13  4.43498230E-01
  7.35487004E-15 -1.91850520E-12  3.23252965E-13  8.53998408E-06  1.56317737E-14
 -2.62487730E-15  1.79124477E-14  6.41590093E-12  2.05480731E-06  2.00474075E-14
  9.61610423E-16 -7.66265430E-15  7.58385390E-13 -1.26342520E-11 -1.24187772E-11
 -1.20112943E-13  5.30764518E-01 -8.24912314E-15  3.73017001E-13 -4.67859670E-02
 -2.75504507E-14  4.07723003E-12 -5.54128920E-02 -1.77735292E-14  3.89230168E-12
 -4.47113798E-13 -4.18892206E-01 -2.85712377E-15 -3.50088047E-14  3.00643083E-14
 -5.52588057E-13 -6.43940492E-02  2.67875167E-14  1.44102829E-14 -9.78246929E-15
  1.07920152E-13  6.09479420E-14  2.14035012E-11  2.04203390E-13 -2.11683557E-14
 -5.30785279E-01  1.97450764E-13  2.07088592E-14  4.67753231E-02 -6.00908019E-14
  1.36456699E-14  5.54116974E-02  4.21745851E-12 -3.14064131E-14 -4.82713384E-16
 -4.18900488E-01  5.06600530E-15  1.88603092E-15 -2.30336535E-13  3.39846883E-15
 -6.43987468E-02 -7.83227366E-16 -2.27061955E-15 -1.13546031E-13  9.50809167E-13
  1.93537114E-12 -9.87941417E-14 -2.30202495E-14 -7.56113474E-01 -2.89449925E-13
  2.00470818E-14  1.17147310E+00  1.15457032E-12 -2.82889129E-14 -4.43498230E-01
  1.70416028E-11  2.66093298E-14 -4.34162776E-15 -8.53998404E-06  4.94485227E-15
  2.64814338E-15  3.29283773E-13  1.78988660E-14 -2.05480729E-06 -2.83892816E-15
  1.11801921E-15 -3.90059775E-14 -1.39720508E-12 -2.31060795E-11 -1.39348223E-13
 -1.29663345E-14 -5.30764518E-01  2.27061917E-13 -4.95062541E-15  4.67859670E-02
  4.05108604E-13  7.63775373E-15  5.54128919E-02  4.71659336E-12 -2.54397346E-14
  1.37242851E-14  4.18892206E-01  1.04320171E-16  8.94399763E-15  1.69576572E-13
 -2.28605620E-15  6.43940492E-02  7.96416230E-16 -4.49025642E-15 -4.48819100E-11
  5.63865859E-10 -5.07766886E-10  2.02438836E-11 -2.59459767E-14  1.16384946E-15
  1.03439852E-11 -1.44200872E-15 -1.71439309E-15  2.84739981E-10 -2.62246973E-16
 -1.81559857E-15 -7.82270935E-11  1.32841802E-11 -1.41146103E-14 -8.56396112E-16
  7.86741703E-01 -1.10822250E-04  6.80744540E-11 -5.73820584E-15  4.16655798E-16
 -3.35860004E-01  4.73100146E-05 -9.35984120E-14  5.17142903E-13  1.47349891E-12
 -8.82867223E-15 -3.11302307E-14  6.18352805E-15 -1.33619987E-11  3.61508039E-14
 -7.47608351E-15  6.00625183E-10 -2.41825831E-14  3.71829705E-15 -3.34969548E-10
 -6.17560722E-15 -5.88899806E-15 -1.36795236E-15  1.41207296E-05 -1.98907910E-09
  2.52243995E-13 -1.29154763E-14 -3.83364544E-15 -1.50301459E-05  2.11718105E-09
  4.49439646E-11 -5.64713567E-10  5.06490944E-10 -2.02647224E-11 -3.09509638E-14
 -3.78522931E-16  1.03882145E-11  2.45828919E-14  5.47800010E-15  2.84955204E-10
  7.98317224E-15 -1.17526720E-15 -7.78558584E-11 -1.33022957E-11  1.86484601E-14
 -1.01189868E-15 -7.86791764E-01  1.10829302E-04 -6.81006699E-11 -7.67626069E-15
  3.42902571E-17  3.35889059E-01 -4.73141073E-05  1.15598055E-14 -1.93426696E-12
 -7.85573988E-12 -1.07026139E-13 -1.64368571E-14 -3.64251675E-15 -2.53628359E-13
  2.45075542E-15  1.26629424E-14 -5.79922704E-13  1.08152553E-14  1.35707682E-15
 -1.71856924E-12 -1.87023717E-14 -9.09776909E-15  1.23717407E-15 -1.10822250E-04
 -7.86741703E-01  3.12324146E-14  4.42729848E-16  7.01635169E-15  4.73100146E-05
  3.35860004E-01 -1.61825885E-13  9.51737131E-13  3.06243446E-12 -1.51569440E-15
 -1.29864367E-14  3.31061301E-15  2.82396397E-13  1.72635684E-14 -1.33368247E-14
 -1.64089747E-12 -2.81569667E-14  4.33905150E-16 -5.09837581E-12 -2.33112887E-14
 -2.90128749E-15  5.21213935E-15 -1.98908288E-09 -1.41207297E-05  4.70493909E-13
 -2.80996713E-15  3.39120747E-15  2.11718185E-09  1.50301459E-05  8.56996518E-14
  3.68744889E-13  5.16194713E-12  5.40504007E-14 -1.58195993E-14  1.97996646E-15
 -1.60023941E-13  9.97381647E-15 -2.61262477E-16 -2.09374644E-13  1.14470732E-14
 -2.33691478E-15 -9.08611446E-13 -3.09039544E-17  7.07384368E-15 -8.73979852E-15
  1.10829302E-04  7.86791764E-01 -7.76219144E-14 -4.46894903E-15  3.15148658E-15
 -4.73141073E-05 -3.35889059E-01  6.87058622E-02  5.35894562E+00 -3.43193259E+01
 -3.20926563E-02 -1.05361051E-13  2.01526553E-13  7.43067943E-01  2.87378702E-14
  7.27689690E-14  2.05008715E+00 -3.18177326E-13 -7.25023113E-14 -6.81433006E+00
  4.92571663E-02  1.12448271E-13  2.63415672E-14 -1.20921539E-11 -1.87892941E-13
  2.96401520E-01 -1.18351846E-13  4.06793269E-14  5.89104606E-12  8.82719653E-14
  4.40443139E-05 -1.22050402E-03  2.27281224E-03  6.65789246E-05  9.45504653E-14
  1.58955837E-13 -1.02921054E+00 -1.30253061E-13 -6.48065402E-14  7.44552823E+00
  4.22899167E-13  4.44473573E-13 -2.55388806E+01 -8.54673081E-05  1.98207955E-14
  4.92154062E-14 -1.11489611E-14  7.65906914E-14 -1.55030458E-04 -1.36777680E-13
  3.24146688E-13  1.69894140E-15 -4.16860840E-14 -6.86431444E-02 -5.35766179E+00
  3.43170019E+01  3.20194186E-02  1.13913108E-14  4.58415595E-13  7.43116133E-01
  1.12357148E-13 -5.37455440E-13  2.04952752E+00 -1.49547793E-13 -2.52067924E-13
 -6.81414283E+00 -4.92518712E-02  3.23357043E-14 -1.63800368E-14  1.21261110E-11
  2.66101116E-13 -2.96326697E-01 -3.19216009E-14  1.53334758E-13 -5.89675383E-12
 -8.73955104E-14  2.75881433E-01 -7.03444142E+00 -1.15225777E+01 -1.22264696E+00
 -2.64919789E-12  1.43211359E-12  6.35394385E-01  3.81046217E-12 -2.16613238E-12
 -4.61897689E+00 -3.08258112E-13 -5.21877330E-14 -3.70378034E+00 -4.87325434E-01
  2.15366741E-12 -1.07099185E-12  6.04901664E-11 -4.20683263E-13 -1.08019986E+00
  7.76772391E-13 -4.81743745E-13 -3.82014201E-11  2.71162358E-13 -7.07646478E-01
  1.44489718E+01  2.30244815E+01  2.30516844E+00  9.13854675E-13 -3.28255945E-13
 -1.12908127E-04 -5.57643781E-12  2.53048858E-12 -3.44925990E-04 -1.38054223E-13
  3.54254081E-13 -1.08573304E-03  1.07649567E+00  8.24882218E-16 -3.90260201E-14
 -1.01142707E-10  6.05313474E-13  1.91075653E+00 -2.64029596E-13 -2.57526483E-13
  6.89017617E-11 -4.11133969E-13  2.75963584E-01 -7.03351741E+00 -1.15190166E+01
 -1.22258041E+00 -2.91684941E-12  1.11866393E-12 -6.35386751E-01  4.33992895E-12
 -1.57744600E-12  4.61846194E+00 -2.42082028E-13  6.92761786E-15  3.70303811E+00
 -4.87216272E-01 -2.26605557E-12  9.64080078E-13  6.04593119E-11 -3.50722176E-13
 -1.08012838E+00 -8.62064834E-13  3.61462173E-13 -3.81864180E-11  2.38337113E-13
 -1.07220488E-12  2.69696259E-11  6.27380337E-11  4.82231144E-12 -7.45471327E-01
 -5.24188885E-14 -2.44787459E-12  1.09343734E+00  8.68257657E-14  1.74135364E-11
 -5.22787969E-02  1.31122366E-15  1.83113304E-11  1.77277282E-12  5.93249437E-01
  4.06002259E-14 -2.64911304E-13  8.61498600E-14  4.02988903E-12  2.25007410E-01
  1.84604943E-14  1.83149262E-13 -5.93976793E-14  2.92648908E-12 -5.61995407E-11
 -9.67791006E-11 -8.88875276E-12  2.01217583E-01  1.30595272E-14  8.65425840E-14
 -1.46884506E+00 -9.32110186E-14 -1.16607476E-12 -8.68401789E-02 -8.09030508E-15
  1.10827959E-11 -4.00736985E-12  6.04697467E-06 -1.29382876E-15  3.97977474E-13
 -1.33309745E-13 -8.09631023E-12 -5.74727139E-05  1.96691384E-14 -2.87435387E-13
  9.45562156E-14 -1.12632993E-12  2.87835554E-11  3.34568999E-11  4.70323170E-12
 -7.45557425E-01 -2.87520776E-14  2.34779815E-12  1.09353558E+00  4.34680625E-14
 -1.82773269E-11 -5.22655913E-02 -2.81651943E-15 -1.24872872E-11  1.85135719E-12
 -5.93224096E-01 -3.70831543E-14 -2.54892396E-13  7.88216848E-14  4.32647383E-12
 -2.25039777E-01 -1.09244972E-14  1.78465049E-13 -5.59228781E-14  4.91398444E-13
 -1.08269404E-11 -5.16283349E-11 -2.27554011E-12  4.43628459E-14 -7.45471327E-01
  1.26880491E-12 -5.40948422E-14  1.09343734E+00 -7.32273994E-12  1.12472173E-14
 -5.22787969E-02 -1.28385611E-11 -7.70977495E-13 -2.87552435E-14  5.93249437E-01
  2.85202886E-13  1.68948283E-13 -1.62712650E-12 -7.62199385E-15  2.25007410E-01
 -1.97548788E-13 -1.13672742E-13 -1.35352668E-12  2.54487776E-11  4.20338614E-11
  3.99279739E-12 -1.56570650E-14  2.01217583E-01 -2.32380347E-13  8.06188979E-14
 -1.46884506E+00  2.34757720E-12  3.73336013E-16 -8.68401789E-02 -2.32035713E-11
  1.80556080E-12  7.06901489E-15  6.04697467E-06 -4.35602284E-13 -2.54043529E-13
  3.60341616E-12  9.75361222E-15 -5.74727140E-05  3.13619721E-13  1.77896824E-13
  5.26560822E-13 -1.43288746E-11  9.79517049E-12 -1.99510848E-12  4.34464054E-14
 -7.45557425E-01 -9.31761526E-13 -7.09910491E-14  1.09353558E+00  8.81231977E-12
  1.63326308E-15 -5.22655913E-02  5.69420221E-13 -8.39283661E-13  3.13995946E-14
 -5.93224096E-01  2.85474523E-13  1.60769940E-13 -2.15613597E-12  1.61865177E-14
 -2.25039777E-01 -1.96991547E-13 -1.09962925E-13  7.91597140E-11 -1.46273034E-09
 -1.52431329E-09 -2.05697370E-10  3.20629298E-13 -3.54973719E-13  4.68093080E-11
 -4.66480926E-13  5.22899986E-13 -7.46503179E-10  1.48539644E-14 -2.58315589E-14
 -4.98285453E-10 -8.30360589E-11 -2.53472223E-13  2.85503439E-13 -5.99433991E-01
  3.63931641E-04 -1.64798726E-10 -9.98713310E-14  1.05960140E-13  4.14121381E-01
 -2.51423636E-04 -1.74575013E-10  2.62428177E-09  3.26149599E-09  3.39790230E-10
 -9.44238484E-14  9.14259605E-14 -3.60297743E-14  6.49598129E-13 -6.94635928E-13
 -4.36382691E-14  5.66930092E-14 -3.62989711E-14 -9.31886449E-13  1.44689095E-10
  1.95121992E-15 -3.19850362E-15  9.14286531E-01 -5.55086635E-04  4.99552980E-10
  1.22519163E-14  6.31201709E-15 -6.58026503E-01  3.99504647E-04  7.91640667E-11
 -1.46256997E-09 -1.52170791E-09 -2.05680858E-10  3.33384026E-13 -3.51320401E-13
 -4.67693006E-11 -4.93478546E-13  5.14164122E-13  7.46360844E-10  1.07054085E-14
 -2.91307601E-14  4.97749317E-10 -8.29825658E-11  2.56099749E-13 -2.84322369E-13
 -5.99371760E-01  3.63893859E-04 -1.64778483E-10  1.07471174E-13 -1.03823892E-13
  4.14089213E-01 -2.51404106E-04  1.46941292E-13 -3.90703755E-12 -8.60531795E-12
 -6.84255158E-13  9.73824322E-14  2.07359314E-13  4.07641272E-13 -1.40369885E-13
 -3.12189132E-13 -2.63578661E-12 -5.01202017E-15 -2.10148038E-14 -2.57477867E-12
 -2.63930755E-13 -8.40202893E-14 -1.72538589E-13  3.63931641E-04  5.99433991E-01
 -6.16130756E-13 -3.09430677E-14 -7.24162959E-14 -2.51423636E-04 -4.14121381E-01
 -4.17913866E-13  8.16751499E-12  1.42978899E-11  1.29633964E-12 -2.42669931E-14
 -4.59258802E-14 -1.51378781E-14  2.14412850E-13  4.10483757E-13  6.66884482E-14
  4.14076020E-14  8.60913032E-14 -1.08354286E-12  6.02159036E-13  1.45613112E-15
 -7.42859818E-15 -5.55086635E-04 -9.14286531E-01  1.09695214E-12  1.55612394E-14
 -8.38563331E-15  3.99504647E-04  6.58026503E-01  1.45849457E-13 -3.99473280E-12
 -5.72860434E-12 -6.76127664E-13  1.12488161E-13  2.04652856E-13 -3.77420436E-13
 -1.74382547E-13 -2.94760620E-13  2.64268658E-12 -1.26689472E-14 -1.93632306E-14
  2.00033228E-12 -2.46237957E-13  8.65780162E-14  1.60014070E-13  3.63893859E-04
  5.99371760E-01 -6.32039135E-13  4.43512996E-14  7.24536419E-14 -2.51404106E-04
 -4.14089213E-01 -5.74932511E-14  1.81405244E-12 -1.62157974E-11  3.04675518E-13
  1.07082484E+00  6.20167706E-14 -8.47530438E-15 -2.69976361E+00 -6.19885194E-14
  7.19196885E-13 -5.49502890E-01 -1.35735698E-13 -2.67871818E-12 -5.82146895E-14
 -4.02332876E-01  2.11546107E-13 -5.41505282E-15  2.86002537E-15  3.07142156E-13
 -7.34335787E-01 -1.71871397E-13  4.41039225E-15 -4.96376688E-15  2.75872697E-13
 -2.93855730E-12 -1.14896429E-11 -7.59704595E-13  6.94178978E-05 -4.96732634E-13
 -7.70499318E-14  6.75544458E-05  6.07163744E-13  1.50201077E-13 -4.75129878E-05
  2.73706760E-13 -1.63502549E-11 -7.27634918E-14 -3.14349586E-01  2.10968364E-14
  5.22815797E-15 -9.33822967E-15 -8.72004219E-13 -2.75069644E+00  1.49243009E-13
 -6.17179343E-15  9.59872768E-15 -8.03247346E-14  1.70231665E-12  2.72722879E-11
  5.58530301E-13 -1.07082771E+00  1.91494757E-13  2.22629336E-13  2.69964645E+00
 -3.67095511E-13 -1.03260366E-12  5.49564916E-01 -1.84234699E-13 -6.16753883E-12
  9.07615778E-14 -4.02201781E-01 -1.50878110E-13 -3.17732023E-15  3.10977505E-15
  1.58756392E-13 -7.34411890E-01  2.39775206E-13  3.88250954E-15 -5.96678018E-15
  4.17487753E-14 -1.61453920E-12  2.23447204E-11 -6.04265048E-14 -3.13623805E-14
 -1.07082484E+00 -2.17889808E-14  1.21807128E-13  2.69976361E+00 -4.54958137E-13
  4.47655063E-15  5.49502890E-01  4.01611972E-12  1.44438982E-13  4.90464341E-14
  4.02332876E-01  3.03139960E-15  3.70127420E-15 -2.69193471E-13  9.65325019E-15
  7.34335787E-01 -1.85570050E-15 -2.36990910E-15 -3.48675958E-13  2.92549936E-12
  1.08179291E-11  3.47795473E-13 -8.63631771E-14 -6.94178977E-05  9.67880153E-14
  1.32075128E-13 -6.75544459E-05  1.70765306E-13  6.90120208E-14  4.75129878E-05
  2.06509626E-11  5.95233062E-14  2.29234934E-14  3.14349586E-01 -1.60893750E-16
 -2.89312958E-15  9.67061074E-13  1.86442661E-13  2.75069643E+00  9.33715136E-16
  2.62624675E-15  9.30012820E-14 -2.07713300E-12 -3.26186004E-11 -3.94838564E-13
  9.50115902E-14  1.07082771E+00 -2.85771058E-13 -2.30768869E-13 -2.69964645E+00
  1.24630549E-12 -8.07527616E-14 -5.49564916E-01  7.18816180E-12 -1.06437152E-13
 -2.51902023E-15  4.02201781E-01  8.39296839E-16  1.31419438E-15 -1.49441702E-13
  9.83746146E-14  7.34411890E-01 -5.64730594E-16 -1.60585217E-15 -3.02433527E-14
  5.09752979E-13 -2.23690309E-11 -3.63405385E-13  3.34633426E-01  8.18071590E-14
  3.66785034E-14 -6.14218707E-01 -1.67507215E-13  4.68909160E-13 -7.33117563E-01
  1.49621729E-15 -5.07274837E-12  1.03013162E-13  4.71878899E-01 -2.09536197E-14
  5.47427172E-15  8.00209222E-16  1.28731055E-13 -6.57394709E-01 -2.98153000E-14
 -3.65563277E-15 -3.17159373E-15 -1.83070720E-13  2.73423038E-12  1.29463839E-11
  5.03399194E-13 -1.26136753E+00  1.70152031E-14 -1.01517650E-13  1.71644690E+00
 -2.92557318E-14  2.77355481E-12  1.29769429E+00 -5.69973027E-14 -1.23728265E-11
  1.25166780E-13 -8.14251299E-05 -2.84653910E-15 -5.66347077E-15 -3.03794787E-15
  8.80299843E-13 -1.73401834E-04 -1.73140527E-13  4.28172902E-15  6.91574580E-15
  1.01393306E-13 -3.92525776E-12  9.91837912E-12 -2.43101844E-13  3.34514810E-01
 -7.70627527E-14 -8.49608053E-14 -6.13820941E-01  1.77613983E-13  2.15198489E-12
 -7.33017573E-01  6.50537672E-14 -1.17782998E-12 -2.34729637E-13 -4.71969311E-01
 -6.48519652E-15  3.01299624E-15  6.44111118E-15 -5.32087553E-13  6.57284781E-01
 -6.13797296E-14 -2.36883261E-15 -6.45843278E-15  3.19660114E-14 -7.51789354E-13
 -5.52622317E-12 -2.29846844E-13  4.27541315E-13 -3.34633426E-01  9.97994655E-14
 -1.09110793E-12  6.14218707E-01 -7.10640472E-13 -2.22748844E-13  7.33117563E-01
 -1.03804768E-12 -1.18979225E-13 -1.48778243E-13 -4.71878899E-01 -6.56422295E-15
 -5.18082328E-15 -1.07558658E-13 -2.98563875E-13  6.57394709E-01  3.29906998E-15
  9.86076200E-15  4.31267921E-14 -8.77542935E-13 -3.87728686E-12  3.56834230E-13
  1.36000011E-14  1.26136753E+00  1.04645191E-14 -2.19613855E-14 -1.71644690E+00
 -1.70750786E-12 -8.30564350E-15 -1.29769429E+00 -5.39884126E-12 -4.63147192E-14
 -1.01076769E-13  8.14251299E-05  3.36085571E-15  8.23486603E-15 -3.58946673E-13
 -1.13376899E-12  1.73401833E-04 -2.44633943E-15 -1.53750232E-14 -6.79215707E-14
  2.08520590E-12  9.11587346E-12 -9.09716945E-14 -4.43524383E-13 -3.34514810E-01
  9.49124978E-14  1.11302505E-12  6.13820941E-01 -1.24240788E-12  2.30444468E-13
  7.33017573E-01 -2.10259313E-12  2.14872437E-13 -1.38079416E-13  4.71969311E-01
 -3.07431324E-16 -3.48654334E-15  1.75002258E-13 -3.13482434E-13 -6.57284781E-01
  7.14690945E-16  8.54556063E-15 -3.75909244E-01  1.21967431E+01  5.08840565E+00
  2.72772552E-01  1.36564472E-14  1.15258745E-13 -4.95286818E-01 -4.24421069E-14
 -3.13339115E-13  7.88475997E+00  2.54246558E-13  1.23281740E-13  1.94533808E+00
  1.06602384E+00 -7.03552329E-14 -9.76342981E-14 -4.00995206E-12  7.05385674E-15
  1.52436942E+00  1.21611342E-13  9.96739461E-15  2.29839672E-12  4.99372895E-15
 -7.71007050E-05 -9.61759648E-04  1.33755354E-03  1.31351575E-04  1.97037169E-13
  2.00079822E-13 -3.84218909E-01 -4.36182334E-13 -3.33809513E-13  1.50433271E+01
 -5.65660619E-13 -4.68506982E-13  2.55039065E+00 -3.27838068E-05 -2.38597301E-15
  8.77960018E-15  1.35859381E-14 -8.29895424E-15  1.97784841E-05 -2.47968056E-13
 -4.84724746E-13 -1.66841815E-14 -6.63492664E-15  3.76080794E-01 -1.21957700E+01
 -5.08975570E+00 -2.72918563E-01 -1.80856542E-13 -2.14524232E-13 -4.95383154E-01
  4.13059839E-13  5.40479804E-13  7.88458342E+00  3.68404846E-13  3.95624461E-13
  1.94578097E+00 -1.06609979E+00  4.71084178E-14  8.05428961E-14  3.98509813E-12
  5.48852083E-15 -1.52442163E+00 -2.62132689E-13 -3.18618536E-13 -2.27273450E-12
  7.92569425E-15 -5.59756220E-01  6.45599556E+00  3.92745097E+00  1.13276205E-01
  1.36832413E-14  1.35673105E-13  1.52826954E-01 -8.39627001E-14 -4.04651004E-13
  3.78067626E+00 -6.31277448E-14 -1.95490180E-14  1.23282700E+00  1.34149759E+00
  8.19890431E-15 -8.02822590E-14 -5.72287343E-12 -7.57467132E-15  5.22092750E-01
 -3.37166690E-14 -1.01696672E-13  7.08770704E-12  1.47287255E-14 -6.85024880E-01
 -1.15115130E+01 -8.31981452E+00 -1.49212586E-01  1.88514811E-14 -3.84021123E-14
  1.48754864E-05 -1.04083080E-13  9.28616003E-14  7.11519100E-04  3.50140171E-14
 -1.20544605E-13 -2.82537496E-05 -8.87280670E-01 -1.55159944E-14 -6.95359097E-14
  5.48245274E-12  1.68312912E-14 -1.33029303E+00 -1.61953766E-13 -3.74689534E-13
 -1.02835920E-11 -2.60392684E-14 -5.59802003E-01  6.45456743E+00  3.92719388E+00
  1.13243547E-01 -1.14019205E-13 -6.13595250E-14 -1.52792168E-01  2.40316992E-13
  2.80656181E-13 -3.77990355E+00  5.07457049E-15  1.60958364E-13 -1.23269635E+00
  1.34139765E+00 -4.09544140E-14 -4.72715552E-14 -5.71834700E-12 -1.87850796E-14
  5.21949297E-01 -6.86879127E-14 -9.96091336E-14  7.08568801E-12  2.01790249E-14
 -2.21002155E-14  1.80328726E-13 -1.17285708E-11 -2.98970354E-13 -3.64976073E-01
 -4.87532387E-14 -2.34708244E-16 -5.67319702E-01 -1.60012044E-14  1.16344093E-13
  2.50727917E-02  8.83302766E-14 -2.58030433E-12 -2.77426821E-15 -9.26360458E-01
 -9.68631441E-14  3.74402751E-16  1.11725949E-15  6.14533978E-14  6.26504921E-02
  4.89922234E-14 -2.60659750E-16  1.33633246E-15 -4.15752682E-14  7.34070811E-13
  4.43613958E-12  4.74290663E-13  8.29443583E-05  2.90552903E-14 -5.35401891E-14
  1.68510594E-05 -8.64772763E-14  7.95370223E-13 -2.28548022E-05 -1.65499292E-13
 -7.28647945E-12  5.57581690E-14 -1.53381183E+00 -1.45539186E-13  5.18691680E-16
  1.57729126E-15  2.37634376E-13 -4.32633546E-01 -4.00533307E-14 -1.49996710E-16
 -2.71950642E-15  8.77722012E-15 -1.05206373E-12  7.40617626E-12 -2.07742806E-13
  3.64895863E-01  2.71108023E-14  6.40830542E-15  5.67299899E-01  8.32569811E-14
  5.60217808E-13 -2.50485446E-02  9.40168372E-14 -1.20134485E-12 -3.88159954E-14
 -9.26287198E-01 -8.22423167E-14  2.38537904E-15 -2.53420553E-15 -1.81428785E-13
  6.26299747E-02 -4.20762392E-14 -1.29072013E-15  2.26281418E-15 -1.49430393E-14
 -4.22183515E-13 -1.14083582E-11  1.44382151E-13 -4.49423825E-14  3.64976073E-01
  4.44775121E-14 -2.61769669E-14  5.67319702E-01 -2.46495592E-13  4.94561554E-14
 -2.50727917E-02 -2.43734287E-12  6.73384327E-15 -8.87412598E-14  9.26360458E-01
 -1.11172898E-15  4.13807236E-15  1.54720055E-15  3.01747925E-14 -6.26504921E-02
  1.95943769E-16 -9.75351613E-15 -3.69912877E-14 -1.64830772E-13  1.90417266E-12
 -4.59441184E-13  2.34774710E-14 -8.29443583E-05  4.38031935E-14 -6.72880496E-14
 -1.68510594E-05 -4.84933851E-13 -1.07210657E-13  2.28548021E-05 -7.87032347E-12
 -9.90956049E-15 -1.42667765E-13  1.53381183E+00 -1.33035282E-16 -6.80688915E-15
  1.42268151E-13 -4.60089946E-14  4.32633546E-01 -3.38593566E-16  1.57910058E-14
 -3.52478383E-14  3.47152549E-13  9.67463486E-12  3.01966621E-13  2.87120097E-14
 -3.64895863E-01  6.52917319E-14  7.68598965E-14 -5.67299899E-01 -3.69062504E-13
  6.96201536E-14  2.50485446E-02 -1.94624585E-12  5.01530996E-14 -7.84287726E-14
  9.26287198E-01 -2.66200333E-15  3.89721652E-15  4.02255231E-14 -3.53114960E-14
 -6.26299747E-02  1.09813312E-15 -9.92613357E-15  1.56260484E-01 -6.14239393E+00
 -4.98263247E+00 -1.90795859E-01  1.17529436E-14 -5.61335870E-16 -6.52227581E-01
 -2.85467129E-14  6.91882475E-14 -3.59514305E+00 -1.14143745E-13 -4.82456408E-14
 -1.22306900E+00 -1.13944028E+00  1.45767011E-14  3.98856158E-14  1.05930661E-12
 -9.63034484E-16 -5.36800276E-01 -4.93750143E-14 -5.87456140E-15 -5.26422807E-13
 -2.28192800E-15  1.39439037E-04  1.08087850E-03  6.17282421E-07 -3.11015209E-05
 -1.47932012E-14 -8.52221219E-15 -1.71012411E+00  8.50294453E-14  3.47365846E-14
 -6.56138510E+00  2.08746256E-13  1.54616296E-13 -3.82943350E+00  6.40244982E-05
  1.77973177E-14  5.12913434E-14 -3.01133617E-15  1.85249840E-15  7.06084278E-05
  9.12618142E-15  9.98240983E-14  6.77138887E-15  2.61520352E-15 -1.56339715E-01
  6.14121743E+00  4.98267433E+00  1.90823775E-01  1.29829088E-14 -1.72592068E-15
 -6.52061894E-01 -4.72395100E-14 -8.63898478E-14 -3.59467656E+00 -1.17053160E-13
 -1.18885236E-13 -1.22313333E+00  1.13933829E+00  5.67110090E-15  1.58169890E-14
 -1.05314907E-12 -7.08472015E-16  5.36759762E-01  5.07235135E-14  6.12351181E-14
  5.16618102E-13 -2.86382087E-15 -4.78982677E-01 -9.71023352E+00 -5.35091699E+00
  4.60444386E-01 -6.45690836E-15 -7.40492627E-14 -1.44797276E+00  9.17027007E-14
  2.36834037E-13 -3.71887139E+00  5.89890304E-14 -6.54050916E-14 -1.58279061E+00
 -9.85347501E-01  9.46822958E-15  2.64390531E-14  1.60415772E-13  4.69177631E-16
 -4.10771515E-01  3.38389985E-14  4.10977636E-14 -1.62421187E-12 -1.35544206E-14
 -9.50558784E-01  1.60601414E+01  1.29433343E+01 -1.13136882E+00 -5.68193987E-15
  7.38558500E-15 -1.13765135E-04  7.75971617E-14  2.47886708E-15  5.45020737E-04
 -2.56452997E-14  2.67254475E-13 -4.85790317E-04  2.95156820E+00  3.80095065E-14
  1.36187051E-15  5.31561275E-13 -9.45507875E-15  3.62503907E+00  1.59734726E-13
  2.67209660E-13 -1.07863297E-12  2.63541145E-14 -4.78696041E-01 -9.71093351E+00
 -5.34960386E+00  4.60404791E-01  7.30226186E-14  3.57187185E-14  1.44784479E+00
 -2.10934841E-13 -1.92471614E-13  3.71960379E+00 -1.37139587E-14 -2.37199022E-13
  1.58265714E+00 -9.85496757E-01  4.70344403E-14 -4.70484358E-15  1.56622753E-13
  1.23174469E-14 -4.10930702E-01  6.36080653E-14  1.24992091E-13 -1.62209571E-12
 -2.02738294E-14
Beta MO coefficients                       R   N=        4761
  1.21360469E-01  2.10283640E-01  1.26666660E-01  1.68366685E-02 -4.31559608E-18
  3.37768452E-17  8.82018464E-03 -5.78651476E-18 -3.63769180E-17  1.60962260E-02
  3.61724926E-15 -7.26228245E-16  1.53327362E-02  2.55949542E-03 -1.41626207E-16
  1.39324021E-17  2.43128672E-12  2.91926348E-17  4.05873122E-04  6.72105201E-16
 -1.07831239E-16 -3.71065851E-11  1.45552405E-16  1.79087956E-01  2.74034546E-01
  2.31474532E-02 -3.50343739E-02  1.08940442E-16  7.97047067E-17 -9.38639366E-07
 -1.01236856E-15 -3.79017678E-16 -7.08575874E-07 -6.82048174E-15  1.01968696E-15
  3.51299647E-06  1.98383516E-03 -4.62671788E-17  3.57560611E-18  2.01614866E-12
 -7.66926881E-18 -9.12435429E-03 -5.15745236E-16 -1.98808538E-16 -3.41290701E-11
 -1.07796033E-16  1.21343725E-01  2.10253873E-01  1.26630817E-01  1.68347293E-02
 -5.16627448E-18 -4.72360713E-17 -8.81961722E-03  5.75295998E-16  2.42189058E-16
 -1.60960841E-02  4.20131927E-15 -4.94972163E-16 -1.53289701E-02  2.55958685E-03
  1.36334106E-16  1.32188359E-17  2.43088930E-12 -1.79871812E-17  4.05829942E-04
 -1.19117856E-15 -9.93859721E-17 -3.71008841E-11  5.75580697E-18 -1.79852817E-01
 -3.84746162E-01 -3.51505791E-01 -1.99025238E-02  6.16391463E-18 -3.08441859E-17
 -1.25446496E-03 -1.70383424E-18  5.89103583E-16 -1.03037025E-03 -2.16259244E-15
 -2.47452615E-16 -1.08993929E-02 -3.15238033E-04  9.47622728E-18  4.10491005E-17
 -3.93570399E-12 -6.72739803E-18  5.67968169E-05 -4.31689666E-16  1.55046749E-16
  7.99944458E-11 -5.02093637E-17 -5.08258458E-06 -2.06131046E-05 -4.00026366E-05
  7.74508734E-08 -6.65187461E-17 -1.69708937E-17  1.74510184E-02  9.53934396E-16
  4.92617641E-16  2.09256328E-02  4.53840072E-15  3.12250477E-15 -5.36887298E-03
  3.83449749E-07 -5.18968418E-17  4.52601394E-17  1.80903369E-16 -1.31896242E-17
 -1.82542484E-06  3.33086454E-16  1.57746626E-15  1.50198464E-15  5.08485867E-18
  1.79876620E-01  3.84810329E-01  3.51566792E-01  1.99025307E-02  4.37454097E-17
  6.88951519E-17 -1.25409221E-03 -6.83508338E-16 -1.05838422E-15 -1.03383336E-03
 -3.11144236E-15 -2.93338285E-15 -1.09064852E-02  3.15356271E-04 -3.75598819E-17
  3.63459114E-18  3.93582867E-12 -3.13452213E-17 -5.57752729E-05  8.52405243E-16
  1.06679195E-15 -8.00031691E-11 -2.55272423E-18 -2.29007772E-01 -8.33372388E-01
 -6.94064447E-01  1.39447127E-02  1.26563344E-16 -5.66900940E-16  1.31091012E-02
 -4.91525910E-16  4.03572050E-15 -9.17833272E-02 -1.73578007E-15 -4.56222826E-15
 -1.45586286E-01  2.48094014E-03  1.06284696E-16  3.23308537E-16  4.67672887E-12
  5.22820271E-17 -2.22244493E-02 -8.09988346E-16  6.54767154E-17  6.13748885E-11
 -6.85971849E-16  3.25100216E-01  1.18728372E+00  1.43439471E+00 -3.70483418E-02
 -2.33930434E-16 -7.85711199E-17  2.03951404E-06  2.22148693E-15  1.46529262E-15
  4.14659611E-07  4.18294970E-15  1.31850630E-14 -2.65291750E-05 -7.48047513E-03
  1.69754124E-16  7.44344149E-17 -2.98320560E-12 -2.12413945E-16  1.08978674E-01
  5.44112767E-16  5.78339461E-15 -9.73308037E-11  8.70953356E-16 -2.28981766E-01
 -8.33306674E-01 -6.93963848E-01  1.39452950E-02  5.55162030E-16  4.87267209E-16
 -1.31086660E-02 -2.11105018E-15 -3.77180124E-15  9.17844749E-02 -1.52929718E-15
 -1.01586672E-14  1.45570677E-01  2.47979280E-03  2.70063781E-16 -1.26979515E-16
  4.67646817E-12  1.14211995E-16 -2.22249688E-02  1.83248381E-15  3.93210825E-15
  6.13699528E-11 -6.36441134E-16  3.84274043E-02 -1.05201525E-01 -8.71383044E+00
 -2.40424328E+00 -1.45084963E-16  7.67147450E-17  1.74781145E-03  2.03787303E-15
 -1.24813077E-15 -9.06366332E-02  1.58139517E-14  2.00610563E-15 -2.18914986E+00
 -4.83105859E-03 -2.63693326E-17 -1.22813566E-16 -8.60644336E-12 -1.50869868E-18
 -3.77215678E-02  3.46139659E-15 -1.35434696E-16  5.10845515E-11  1.13575798E-16
  1.63484804E-07  3.68307390E-05  9.32600888E-04 -1.14369988E-04  3.22356501E-16
 -1.08874270E-16 -5.36131152E-03 -2.61378229E-15  1.06026636E-16 -1.73343734E-01
 -2.27936283E-14 -9.39412927E-15 -6.57103098E+00  1.14841214E-06  1.79059727E-16
 -1.25953963E-16  1.78486434E-16 -8.54429647E-17  1.48231920E-05  2.42718387E-15
 -2.65177202E-15  6.42105425E-16  7.59064627E-17 -3.84297020E-02  1.05134978E-01
  8.71290120E+00  2.40437983E+00  9.39232155E-17  3.00090003E-17  1.74862951E-03
 -9.79383453E-16  1.00581138E-15 -9.06179065E-02  1.30185896E-14  7.90191469E-15
 -2.18901232E+00  4.82939185E-03  2.03415217E-16 -1.53955964E-17  8.60671029E-12
 -2.17210110E-17  3.77229860E-02 -1.90703003E-15 -1.48935092E-15 -5.10890279E-11
 -2.15456697E-16  1.46426617E-02 -4.35084268E-01  3.22777161E-01  9.15735989E+00
 -4.25502677E-16  1.16525270E-16 -7.58684256E-03  3.33495125E-15 -6.75417691E-16
 -1.47221121E-02  6.82714984E-14  6.63301544E-14  1.90119766E-01 -3.94617040E-03
 -4.69829555E-16 -8.24897223E-16 -1.16857885E-11 -4.51360578E-18  7.87338400E-02
  1.33027743E-14  1.18656797E-14  7.69204510E-11 -6.64542321E-16  1.72021256E-02
 -5.55985829E-02  7.56656098E-01 -1.87154021E+01  1.32010215E-15  1.44772212E-15
  6.68239622E-07 -1.34208581E-14 -1.60148828E-14 -2.23667387E-05 -1.13081484E-13
 -1.27888250E-13 -3.57395886E-04  8.34425490E-03 -2.78949793E-16 -4.96407361E-16
 -1.25549747E-11 -1.52725782E-16  3.43039209E-01  5.85324225E-16 -9.06057336E-15
  3.79027247E-11  1.61783194E-15  1.46440304E-02 -4.35049509E-01  3.23725767E-01
  9.15702755E+00 -9.11710766E-17 -4.24330255E-16  7.58539880E-03  2.60341528E-15
  8.51566450E-15  1.47156452E-02  6.77420898E-14  8.67954150E-14 -1.90315267E-01
 -3.94540881E-03  2.19351947E-16  1.98561077E-16 -1.16868019E-11  6.35406016E-17
  7.87374539E-02 -1.31396749E-14 -1.89077580E-14  7.69224312E-11 -1.09561117E-15
 -1.32651325E-15 -7.55400299E-15  6.92963429E-12  1.41712149E-13 -1.85811802E-02
 -1.56251155E-16 -2.04117791E-15  2.65229385E-02  4.69836298E-16  1.26006834E-14
 -8.78850991E-01 -8.67148834E-15  1.46579403E-12  8.95391134E-16 -8.20593526E-04
  8.34585378E-17  4.54769841E-17 -5.05543352E-17 -1.43272307E-14 -5.58649504E-02
 -1.05779883E-15  1.37299756E-17  2.22452121E-16  1.82088528E-15  3.99505413E-14
  5.78029068E-13 -1.41610148E-13 -2.15220682E-02 -4.74299657E-16  2.01663062E-15
  6.98944396E-02  1.49439142E-15  1.15741785E-14  5.14746650E-01  1.03124014E-14
  5.31144062E-12  1.17197950E-15 -2.26394998E-07  4.59034167E-19  4.31951078E-17
  1.66480032E-17  1.04152601E-14  5.70547010E-06  1.17970907E-15 -3.89611210E-16
 -2.53542028E-16 -4.98462564E-15 -3.59398685E-14 -7.45499116E-12 -3.05017001E-14
 -1.85811678E-02 -3.83499772E-17 -1.75334471E-15  2.65179126E-02 -6.94879324E-16
  3.38954897E-14 -8.78865524E-01 -1.07799048E-14  1.68396411E-12 -2.15096806E-15
  8.20581251E-04 -1.22614483E-16 -2.51367972E-17  7.91867956E-17  2.18571442E-15
  5.58674465E-02  1.57180653E-15 -2.01731931E-16 -2.49397144E-17  4.36408506E-15
  2.19633719E-14  2.13282769E-13 -3.03979870E-14 -1.99413237E-16  1.85811802E-02
  4.60264139E-17  8.05575365E-16 -2.65229387E-02  9.75534572E-15 -3.16901162E-15
  8.78850991E-01  1.16159970E-13  2.63193086E-16  4.63208098E-17  8.20593530E-04
  1.19092223E-16  2.20319042E-17  6.74260020E-15  8.60628396E-16  5.58649504E-02
 -1.92424502E-16 -8.35334861E-16 -2.56400921E-15 -3.90151959E-14 -8.24024820E-13
  9.40921555E-14 -7.53690358E-17  2.15220683E-02 -8.75817397E-18 -1.23300868E-15
 -6.98944398E-02 -1.09911741E-15 -7.16211202E-15 -5.14746651E-01 -1.20245958E-13
 -5.60013884E-16  1.60488293E-16  2.26394998E-07 -9.41720704E-18 -3.01390612E-16
 -1.33822618E-14 -3.91747968E-16 -5.70547013E-06  5.86662491E-17  1.18631786E-15
  4.32277786E-15  2.33767425E-14  5.42824806E-13 -2.22212547E-14 -1.27415956E-16
  1.85811678E-02  1.08779757E-16  3.33122349E-16 -2.65179128E-02 -1.16849300E-14
  1.17798736E-15  8.78865525E-01 -1.90873388E-13  2.96987746E-16  1.34150678E-16
 -8.20581255E-04 -1.26842387E-16  2.85022059E-16  7.16560114E-15 -1.43677994E-15
 -5.58674465E-02  3.50106356E-16 -6.75659146E-16 -1.76029887E-01 -7.50695304E-01
 -8.98455377E+00 -5.82011965E+00  5.49765219E-16  2.37522317E-16 -1.00065468E-02
 -8.52742751E-15  2.03865540E-15 -2.89119954E-01  3.88578354E-14  1.30489775E-14
 -4.00060462E+00 -1.10740954E-02 -2.92583000E-16  3.51051524E-16  1.46129512E-11
  1.51260750E-16 -1.85452159E-01  3.25020982E-15  1.61444945E-16 -7.36227651E-11
  7.38499202E-16  7.44311291E-02  1.11979634E+00  2.00498970E+01  1.00577054E+01
  1.36384601E-15  7.92111800E-16  5.57841822E-06 -1.84569137E-14  2.95693856E-16
 -5.26117292E-05 -1.10985399E-13  4.47120981E-14 -9.16365419E-04  1.94677912E-02
  4.69375143E-16 -5.08150667E-17 -1.01262544E-11 -4.97639842E-16  3.43834374E-01
 -2.95311026E-14  8.16205767E-15  1.20398243E-10 -2.03367972E-15 -1.76025081E-01
 -7.50561852E-01 -8.98149677E+00 -5.81980039E+00 -2.10829400E-15  8.55887650E-16
  1.00023550E-02  2.27645599E-14 -3.60395490E-15  2.89055626E-01  1.08047501E-13
 -2.58550439E-14  3.99987961E+00 -1.10696739E-02  1.56620930E-15 -3.90626537E-16
  1.46118059E-11 -8.21034603E-17 -1.85431287E-01 -2.72404225E-14  5.12897437E-15
 -7.36117557E-11  1.81563480E-15  1.44851537E-14  2.97754033E-14  1.27206636E-11
  4.25634479E-13  1.60149304E-02 -2.17674717E-16 -2.19680315E-15 -3.51875881E-01
  1.54483209E-15  5.88515192E-14 -1.44499418E+00  6.46960685E-14  2.95597182E-12
  1.85671439E-15 -3.35149616E-03 -5.03716164E-16 -4.89489811E-17 -1.90784203E-17
  2.10393104E-14 -3.16897077E-01  9.79779251E-15  1.42306552E-16  1.12946135E-16
 -6.57668552E-15  5.28258282E-14  1.48077818E-12 -1.77028874E-13 -1.47937009E-06
 -4.89596655E-17  1.33530136E-15  2.41850356E-05 -9.09448244E-15  1.01128051E-13
  5.06816095E-05 -1.31799780E-13  9.73792142E-12  2.45072290E-15  8.25589109E-04
 -2.73894703E-16 -3.18671396E-17  1.00048520E-17  5.58234923E-14 -7.83060177E-01
 -2.51960247E-15  3.19049418E-16  3.20518800E-16  1.62676449E-15 -1.54903900E-13
 -1.41907934E-11 -2.13525938E-13 -1.60141013E-02  7.67024810E-17 -3.67485183E-15
  3.51853115E-01  3.27034783E-15  1.06880625E-13  1.44492715E+00  7.63170756E-14
  3.37571586E-12 -4.72769640E-15 -3.35012095E-03  2.05890269E-16  2.20685008E-17
  5.84872325E-17 -3.04681452E-14 -3.16896704E-01 -1.31781590E-14  1.64365582E-16
 -1.97694223E-16 -1.31941309E-14 -2.22580101E-13 -2.20978416E-11 -6.85127104E-13
 -3.81363307E-17  1.60149305E-02  3.18072609E-15  5.76238992E-16 -3.51875881E-01
 -1.48334401E-13  4.21413212E-15 -1.44499418E+00 -5.17546423E-12 -7.51679425E-15
  1.26371033E-16 -3.35149616E-03 -5.00975276E-17  1.01591035E-18 -3.44628544E-14
  7.92088502E-16 -3.16897078E-01 -6.75679891E-17 -3.79318497E-16 -1.29192477E-15
  2.73367981E-14 -3.05395721E-14  3.15487605E-13 -9.03291616E-17 -1.47937010E-06
 -2.28499143E-15 -1.80980361E-16  2.41850357E-05 -1.74283063E-13 -4.61699590E-15
  5.06816098E-05 -1.60638115E-11  2.31483866E-15  1.56268511E-16  8.25589097E-04
  4.80551455E-18  5.76275806E-17  3.16481051E-14  6.41640078E-16 -7.83060178E-01
 -1.07542715E-17  2.97295317E-16  6.62142663E-15  1.04501868E-13  2.22081556E-11
  3.33233231E-13  3.68329827E-18 -1.60141014E-02  6.19044685E-15 -4.95550635E-16
  3.51853115E-01 -1.30177498E-13 -3.10115501E-16  1.44492715E+00 -5.19963896E-12
  4.58794353E-15  9.87447589E-17 -3.35012095E-03  4.39523891E-17 -5.74002426E-17
  4.16167876E-14 -1.37783938E-16 -3.16896705E-01 -5.06512306E-17 -5.11497558E-16
  3.70820033E-02  7.25828710E-01  5.54076050E+01  1.80230820E+00  4.60147463E-15
  6.82441378E-15 -9.77383793E-03 -6.69685407E-15 -1.01906426E-13  5.34207164E-01
 -2.65851526E-13 -8.99932210E-13  1.38107016E+01  1.95935722E-02  3.07413406E-15
  4.01028144E-15 -5.55767666E-12 -1.75135721E-16  2.56795583E-01 -5.90611623E-14
 -1.55820815E-13  2.96450137E-11 -3.82560228E-15  5.23559532E-06 -1.16480147E-04
 -5.23124195E-03  2.98497037E-04 -2.61103272E-15  1.52741638E-15 -3.33762584E-03
  7.19893416E-14  3.51888680E-14  8.02876793E-01  9.95742632E-13  8.99515121E-13
  3.94216657E+01 -3.07471431E-06 -1.86127195E-15  1.02321884E-15 -8.42746223E-16
  7.65822552E-16 -6.79244955E-05  6.03382718E-14 -1.99232347E-13 -9.72675423E-15
  1.78021806E-16 -3.70936194E-02 -7.25560595E-01 -5.54024322E+01 -1.80262519E+00
  3.40341211E-15 -4.47452673E-15 -9.77617204E-03 -3.76451448E-14  9.17322475E-14
  5.34140318E-01 -7.30824285E-13 -7.86642414E-14  1.38100051E+01 -1.95890024E-02
 -4.01920414E-15 -6.28197251E-15  5.55937759E-12  1.43406012E-15 -2.56814279E-01
  1.18217148E-13 -1.95617530E-14 -2.96184305E-11  4.57833914E-15 -1.22473045E-13
  9.74347497E-12  5.38425537E-11 -1.36203889E-11  3.94366441E-03  3.76572067E-16
  1.03878675E-13 -3.21832267E-02 -6.08776235E-15  1.04226651E-12 -3.14421223E+00
  9.40023319E-14  1.15097078E-11  1.11800541E-13  1.62682554E-02 -2.87623925E-16
  1.25318121E-16 -5.04045573E-16 -1.08963460E-12 -3.54289748E-01 -1.57022310E-15
  3.91254757E-17  3.72061025E-15  5.29106908E-13  3.19831044E-13 -7.07419651E-11
  2.83796753E-11 -6.61862746E-03 -2.64954868E-16  1.64706609E-14  2.68089761E-01
 -1.77896243E-15 -3.24329907E-13  5.72233957E+00 -1.85800764E-13  1.98467944E-11
 -1.80032499E-13 -1.25717076E-07  7.23880048E-16 -1.25779167E-16  3.74241302E-16
 -7.00992266E-12 -7.02913015E-06 -1.26976576E-14  9.77741915E-16 -3.90815287E-15
 -9.57340259E-14  1.03711323E-11  2.11390906E-12 -1.31161836E-11  3.94205434E-03
 -4.25370571E-16 -1.22890785E-13 -3.21649211E-02  2.21606589E-15 -1.25575988E-12
 -3.14409300E+00  1.15386104E-13 -2.02368181E-12  1.11846775E-13 -1.62687502E-02
  7.12753223E-16 -8.58980325E-17 -1.31972056E-17 -7.20604094E-13  3.54273181E-01
 -1.49293062E-14  2.44674533E-16  2.46914157E-15  4.06670990E-14 -8.84410582E-12
 -4.05408925E-11  1.36978410E-11 -2.12154383E-15 -3.94366443E-03 -1.13278661E-13
  2.69388977E-14  3.21832269E-02 -7.19391699E-13  1.47803432E-13  3.14421224E+00
 -7.14097915E-12 -9.69174532E-14  8.01503779E-16 -1.62682555E-02  8.48017268E-17
  5.10921349E-16  1.20348313E-12  2.54232440E-14  3.54289748E-01 -4.04521363E-16
 -7.12996967E-15 -4.56720308E-13 -1.02926060E-12  4.21938399E-11 -2.87138310E-11
  9.89325838E-16  6.61862748E-03 -1.59639659E-14 -1.55950973E-14 -2.68089762E-01
  3.58301770E-13 -1.95303976E-13 -5.72233958E+00 -2.02316081E-11  1.52835160E-13
  1.23631853E-15  1.25717077E-07  4.66717504E-17 -7.04076366E-16  6.30062427E-12
  3.70478628E-14  7.02913023E-06 -3.06629211E-16  9.74539588E-15  1.84387317E-14
 -9.53327889E-12  1.23203655E-11  1.32929922E-11  1.43491168E-15 -3.94205436E-03
  1.31234032E-13 -1.97683571E-14  3.21649213E-02  9.69960936E-13  6.32021798E-14
  3.14409300E+00 -2.67386388E-12 -9.97314707E-14  2.22391952E-15  1.62687502E-02
 -3.31100784E-19  6.16632234E-16  8.29843381E-13 -9.00350559E-15 -3.54273182E-01
 -2.33531821E-16 -6.81982884E-15  5.07309195E-03 -2.86275939E+00 -3.53253608E+00
  4.65149604E+00  1.11313391E-14  1.38135979E-14 -3.91360070E-02 -9.03482997E-14
 -1.12106853E-13 -2.35280346E-01 -1.00418345E-11 -9.80143093E-12 -3.84360605E-01
 -2.87702325E-02  5.15066921E-14  4.87703794E-14  3.07162409E-11 -2.48397646E-16
  3.37055148E-01 -1.10457797E-12 -1.09051895E-12 -2.05572250E-10  2.98270451E-16
 -1.41234048E-01 -4.43069570E-01  1.15120350E+01 -9.84616423E+00 -1.79805053E-14
 -1.71852769E-14 -6.76467516E-07  8.16919808E-13  8.00114948E-13 -1.20133738E-04
  1.82661230E-11  1.78310362E-11 -1.00256396E-03  4.43480501E-02 -3.55634151E-16
 -2.00150899E-15  4.76781099E-11  1.02159735E-17  1.95778724E+00 -7.80863742E-15
 -4.09246435E-14 -3.05059718E-10  1.38829976E-15  5.07797253E-03 -2.86256487E+00
 -3.52986064E+00  4.65129483E+00  9.38686863E-15  8.89403881E-15  3.91283373E-02
 -7.92920939E-14 -6.26573304E-14  2.35257343E-01 -1.00462052E-11 -9.80717376E-12
  3.83931931E-01 -2.87666074E-02 -5.17387404E-14 -5.09018574E-14  3.07150200E-11
 -8.46612588E-17  3.37063190E-01  1.09513646E-12  1.05659761E-12 -2.05567978E-10
 -1.24687495E-16 -1.79193465E-01  1.21829499E+00  2.63939048E+01  1.22621674E+00
  3.97967984E-16 -4.81353722E-15 -1.61216688E-02  3.51650376E-15  4.24280818E-14
  5.11951414E-01  1.64911653E-12  2.32075585E-13  8.99648267E+00  2.65859456E-02
 -6.76718745E-15  2.06295628E-15  8.67782895E-12 -1.45621231E-16  3.01146260E-01
  1.33686983E-13  2.71463923E-14 -4.56038187E-11 -6.93150629E-15  1.33470605E-01
 -1.53554439E+00 -5.38012599E+01 -2.69029211E+00 -5.47743536E-15 -3.42613207E-15
  1.05896350E-05 -3.18470704E-14  1.71625344E-14  9.60979402E-05 -2.99523430E-12
 -3.38339012E-13  1.41515773E-03 -6.09909219E-02  1.07082036E-15  2.20994943E-15
 -1.53428082E-11 -8.24784575E-16 -8.97559148E-01  7.65562489E-14  8.01591373E-14
  1.67369936E-10  1.46190678E-14 -1.79188904E-01  1.21815559E+00  2.63883906E+01
  1.22617690E+00  1.37556003E-14  4.46718637E-15  1.61216300E-02 -9.54021222E-14
 -5.75341793E-14 -5.11871432E-01  1.66415869E-12  1.27614738E-13 -8.99527006E+00
  2.65817489E-02  6.25142836E-15  1.14475965E-15  8.67602239E-12  1.86887358E-15
  3.01116348E-01 -6.31346232E-14  4.51373795E-14 -4.55955571E-11 -1.38726144E-14
  5.50295374E-02  8.34550525E-01 -3.85903796E+01  1.62692374E-02 -1.07795523E-14
 -1.24276452E-15  3.16172905E-02  1.18309606E-13 -1.00776806E-14 -3.74482390E-01
 -2.95741937E-13 -3.80931585E-13 -9.37773565E+00 -1.74709954E-03  2.78143165E-15
 -1.64473638E-15 -4.35765348E-11 -9.27681459E-18 -3.06007239E-01  7.95529853E-14
 -2.56362667E-14  4.08064343E-10  7.06267101E-15  1.13225472E-05 -9.42779160E-05
  3.57569037E-04 -2.22776073E-04  3.38136865E-15 -3.72592664E-15 -5.05357347E-03
 -1.45274590E-14  3.79610884E-14 -4.88726302E-01  5.95542672E-13  6.71880268E-13
 -2.52768957E+01 -9.01554328E-06  3.03939237E-15 -1.17226480E-15 -5.48468786E-16
 -1.29032495E-15 -9.16365494E-05  1.77055292E-13 -5.91266693E-14  2.18498393E-14
 -1.98999354E-16 -5.50494411E-02 -8.34400992E-01  3.85900098E+01 -1.60551818E-02
  3.70925415E-15  1.28140386E-16  3.16154428E-02 -6.93850874E-14  1.10775669E-14
 -3.74564249E-01 -4.11187995E-13 -3.75383967E-13 -9.37815845E+00  1.75690677E-03
  1.27390448E-15  1.63680761E-15  4.35800654E-11 -1.99775813E-15  3.06028707E-01
  5.19134496E-14  2.41215566E-15 -4.08133904E-10 -1.00209031E-14 -2.80235281E-02
  5.23583341E-01  1.39172556E+02  9.82916299E-01  1.00296995E-13 -3.64185931E-14
 -2.89223209E-02 -1.17439505E-12  5.52030812E-13  2.63604483E-01 -9.71775731E-13
  1.37467671E-12  2.85101257E+01  2.23646582E-02 -6.42051802E-15  2.29968012E-14
 -3.32383754E-11 -6.42656942E-16 -1.52669873E-01 -1.30910287E-12  5.56817572E-13
  3.90332872E-10 -3.73233004E-14  1.10172152E-06 -1.57173040E-04 -1.91818759E-02
 -5.61966254E-04 -2.35845518E-14  1.62199721E-14  4.18698733E-02  2.27373184E-13
 -8.19300030E-14  1.70119761E-01 -1.43803025E-13 -6.23085364E-13  1.05014554E+02
 -7.45962444E-06 -1.76750253E-14  9.69819248E-15 -1.38091480E-15  2.83138334E-15
 -3.36086628E-04 -2.32034748E-12  1.82879520E-12 -2.35439261E-14  2.49149364E-14
  2.80274165E-02 -5.22900628E-01 -1.39153639E+02 -9.82269864E-01 -5.50684029E-14
  5.08461049E-14 -2.89259590E-02  7.81118963E-13 -6.69769600E-13  2.63387136E-01
  1.41908084E-12 -5.32091741E-13  2.85066162E+01 -2.23486952E-02 -1.89917727E-14
 -1.28800766E-14  3.32423662E-11  4.30181410E-15  1.52589340E-01 -6.19078492E-13
  8.72099046E-13 -3.90266036E-10  1.21158310E-13  6.79213362E-15  5.71723483E-13
  1.75684035E-11  7.60384495E-13 -1.64972232E-15 -3.57230116E-17 -4.53675642E-15
  1.77648878E-14  4.02838508E-16  2.67837594E-13  2.44985672E-14  1.66967005E-15
  4.13485388E-12  1.42051852E-14  1.10556728E-16 -4.04254452E-16 -4.79796351E-07
  3.99650024E-02 -2.02236434E-14  2.12337699E-14  5.22930340E-15  6.11951067E-06
 -5.09729302E-01  1.25385780E-15 -1.83863458E-13 -1.18022532E-11 -1.16304350E-12
  9.15534448E-17  4.78631630E-16  2.40196882E-15 -1.72216585E-15 -3.32056992E-15
  1.40707848E-13 -3.30805206E-15 -1.43602003E-15  8.84943032E-12 -9.30754601E-15
  1.22979795E-16  1.06527812E-16 -4.34514144E-07  3.61931865E-02 -5.14593457E-13
  4.25291783E-14 -4.34789316E-16  3.25655735E-06 -2.71257424E-01  1.67009208E-14
  2.93363946E-13 -6.11068986E-12  5.59468849E-13  1.25402358E-15  2.05930916E-17
 -1.58022221E-15 -1.52679631E-14  1.18399878E-15 -9.73028795E-14 -2.19588266E-14
 -9.37724476E-16  8.30568672E-13  5.24788085E-15  1.71684295E-16 -1.80941748E-16
 -4.79808174E-07  3.99659872E-02 -7.40765025E-14  1.51147399E-14 -3.59124708E-15
  6.11974157E-06 -5.09748534E-01  1.41795035E-09  5.27687128E-08  6.80979777E-07
  7.10262785E-08  1.37974176E-15 -3.48914841E-16 -1.28803147E-10 -2.00164374E-14
  3.64162125E-15  2.05558444E-08 -2.98748659E-14  6.89563807E-15  1.95657315E-07
  1.09098288E-09 -2.80144829E-16 -1.32120134E-16  3.99650024E-02  4.79796351E-07
 -6.83032932E-09 -2.23307704E-14  6.03497999E-15 -5.09729302E-01 -6.11951067E-06
  2.61490674E-10 -1.58027004E-08 -1.40995605E-06 -1.23370408E-07  2.38209504E-18
 -7.53189105E-17 -2.31780798E-13  1.65669526E-16 -1.54820836E-15  1.61127662E-12
 -1.18829161E-15  2.22421314E-16 -1.94588686E-10 -9.75150398E-10 -7.54515516E-17
 -7.14251800E-17  3.61931865E-02  4.34514144E-07 -6.24001962E-08 -5.16995751E-14
  1.00661525E-14 -2.71257424E-01 -3.25655735E-06  1.41766153E-09  5.27696771E-08
  6.81452679E-07  7.10273660E-08 -1.71101122E-15  1.77962945E-16  1.29131692E-10
  2.08391198E-14 -5.29647579E-16 -2.05571878E-08  3.08571121E-14 -7.98193559E-15
 -1.95753499E-07  1.09106766E-09 -1.16675451E-16 -2.52045034E-16  3.99659872E-02
  4.79808174E-07 -6.83156823E-09 -2.50199372E-14  4.45391581E-15 -5.09748534E-01
 -6.11974157E-06  5.86760603E-02  2.13083873E+00  2.83012907E+01  3.04036826E+00
 -7.92844438E-14 -6.95926776E-14 -6.29446230E-03  9.57583201E-13  8.05325590E-13
  8.53467364E-01  1.65644369E-12  1.18016172E-12  8.14797011E+00  4.47021882E-02
  1.33101426E-14  1.24312538E-14 -9.42788537E-10 -2.05731320E-14 -2.71174928E-01
  1.09606572E-12  8.80235632E-13  1.18355012E-08  2.49197148E-13  7.96932722E-03
 -6.79767748E-01 -5.84966308E+01 -5.30659776E+00 -2.14765098E-14 -1.22330471E-14
 -9.64565051E-06  2.65335949E-13  1.26580251E-13  5.78209731E-05  4.78331741E-13
  3.32478526E-13 -8.25115153E-03 -3.99970470E-02  9.40018068E-15  1.26816760E-14
 -8.99580398E-10 -1.80637478E-14 -2.55080098E+00  3.15556811E-12  2.28620883E-12
  7.11607997E-09  1.62841209E-13  5.86636862E-02  2.13089031E+00  2.83214027E+01
  3.04041476E+00  1.27591548E-13  7.66322954E-14  6.30818148E-03 -1.38431295E-12
 -9.17027205E-13 -8.53530494E-01 -2.00858826E-12 -1.51243352E-12 -8.15207053E+00
  4.47060373E-02 -5.14145546E-15  4.34929604E-15 -9.42823492E-10 -1.61304626E-14
 -2.71221242E-01  1.74541347E-12  1.18374118E-12  1.18361011E-08  2.18572533E-13
  1.12420078E-13  1.70651814E-12 -7.40594842E-11  2.99187421E-12  7.40584780E-02
 -1.72843132E-15  1.88824524E-14 -8.64270559E-01  1.79704053E-14  4.74112520E-13
 -1.44744033E+00  1.83461966E-14 -1.26126353E-11  2.47581376E-14 -5.65892324E-03
 -7.63306316E-16 -8.77448477E-16  8.26874033E-16 -5.77849078E-13 -1.08762898E+00
  1.83731838E-14  1.01498430E-14 -9.66293764E-15  1.01576517E-14 -7.32856477E-13
 -7.64649865E-11 -6.87415447E-12 -1.61611579E-06  3.52424962E-16 -2.57629894E-14
  5.86026642E-05 -6.67569635E-15 -9.44115453E-13  4.10346998E-05 -2.74877339E-14
 -8.29751508E-11 -4.92406720E-14 -7.86869580E-03 -3.56529297E-16 -8.34560002E-16
  6.14095737E-16 -3.24807934E-12 -2.42585336E+00  1.62810891E-14  7.06698234E-15
 -6.19069623E-15  2.91612284E-14  3.65910563E-12  1.48071540E-10  4.87199648E-12
 -7.40536008E-02  5.70615547E-16  3.53455012E-14  8.64165504E-01 -2.03893161E-15
 -1.66336074E-12  1.44742260E+00  2.96954083E-15 -3.40034543E-11  8.72044360E-14
 -5.65502786E-03  7.23598095E-17 -5.87002835E-16  5.10846779E-16 -1.62648896E-13
 -1.08764329E+00 -6.71822965E-15  7.98833531E-15 -5.15714518E-15 -2.41236993E-14
 -2.50642228E-12 -1.33058041E-10 -3.57674217E-12 -4.16756323E-16 -7.40584780E-02
  3.26722595E-14  3.23641003E-15  8.64270559E-01 -1.15430639E-12 -1.42602015E-14
  1.44744033E+00 -2.99059268E-11 -5.70396175E-14 -3.68798501E-16  5.65892324E-03
 -3.07540639E-16 -1.02812388E-16  1.15447822E-13  6.03522341E-15  1.08762898E+00
  3.02035140E-15  3.57144513E-15 -4.12865718E-15  3.95503438E-13  5.39660713E-11
  4.64806238E-12  5.98541659E-16  1.61611580E-06 -2.64949722E-14 -5.22116764E-15
 -5.86026643E-05 -6.12411027E-13  1.55510932E-14 -4.10346998E-05 -8.00164689E-11
  2.77231074E-14 -5.76682860E-16  7.86869581E-03 -2.27393023E-16  6.72761308E-17
  2.22827424E-12 -6.02366834E-15  2.42585336E+00  1.37529500E-15 -6.16259356E-15
 -9.02612613E-14 -1.06900233E-12  8.08023000E-11 -1.78418907E-12 -1.37274902E-15
  7.40536008E-02  1.68075864E-14  1.55522064E-14 -8.64165504E-01  3.12707282E-13
 -1.14175888E-14 -1.44742260E+00 -1.48210561E-11 -1.35760171E-14 -6.36665082E-18
  5.65502785E-03 -1.07540382E-16 -1.62239016E-16  3.92217013E-13 -9.69862877E-15
  1.08764329E+00  3.15004834E-15  4.22118705E-15  2.54375003E-14 -1.44345711E-12
 -2.40916568E-11 -9.36213045E-13  4.80519040E-02 -8.59125154E-16  1.10269209E-14
 -6.13643661E-01  9.80291097E-15 -7.67490496E-13 -7.19778564E-01  1.13047054E-15
 -6.57581684E-12 -2.80387671E-14  1.83143703E-02  6.05441402E-16 -3.04562383E-16
 -1.11325241E-15 -4.26752134E-13 -2.99607662E-01 -5.91126315E-15  4.58106387E-15
  1.85480565E-14  2.74823597E-15 -5.01893749E-13  1.68940140E-11  8.82419423E-13
  2.77864484E-02 -1.14681592E-15  6.31923914E-15 -3.65986436E-01  1.72645969E-14
 -1.42460179E-12  2.13703930E+00  2.75955513E-14 -1.07035122E-11 -2.86127703E-15
  6.39826471E-07  4.45000101E-16 -1.97514220E-17  5.64731951E-16  5.65928759E-13
  4.77958637E-05  3.79139138E-14  4.24718011E-16 -1.35040337E-14 -4.43888863E-14
  7.85888220E-13  7.85442009E-12 -1.25328566E-13  4.80538296E-02  1.83212264E-15
  1.15988836E-14 -6.13681730E-01 -1.79201639E-14 -6.02445484E-13 -7.19805538E-01
 -3.17340114E-14 -1.86803274E-12  1.89905022E-14 -1.83146728E-02  4.69044309E-16
  6.75631688E-16  6.35013215E-16  8.35682061E-13  2.99670156E-01  2.09034291E-14
 -7.13997275E-15 -5.43196808E-15  2.08124515E-14 -9.07013616E-13 -1.62859749E-11
 -3.43115882E-13  2.02913285E-15  4.80519040E-02  1.14299000E-14 -2.34964398E-14
 -6.13643661E-01 -5.65896622E-13 -2.97789882E-14 -7.19778564E-01 -4.28355674E-12
 -1.79288849E-14 -1.42159667E-15  1.83143704E-02  2.04876525E-16 -3.85522228E-16
 -4.61409917E-13 -1.77959469E-14 -2.99607663E-01 -4.71943789E-15  1.20980348E-14
  2.14068110E-15 -1.86494356E-13  4.56854339E-12 -3.49585812E-14 -5.98214774E-16
  2.77864484E-02  4.54124483E-15  5.13972193E-15 -3.65986436E-01 -1.13739343E-12
  3.10383248E-15  2.13703930E+00 -9.53839497E-12 -4.11449011E-15 -1.18483659E-15
  6.39826471E-07  1.73984026E-17  8.47149033E-16  1.01724999E-13 -5.37313812E-14
  4.77958638E-05 -3.58341750E-16 -2.01365225E-14 -3.49019074E-14  8.77665352E-13
  1.18642535E-11  3.23694829E-13 -2.38538638E-15  4.80538296E-02  7.97637252E-15
  2.57515752E-14 -6.13681731E-01 -5.34847278E-13  2.55059275E-14 -7.19805538E-01
 -3.00542202E-12  2.01012935E-14 -1.89355463E-15 -1.83146728E-02 -9.69707900E-17
 -7.75355295E-17  5.43074117E-13 -6.84334654E-15  2.99670156E-01  3.72434934E-15
  8.77180000E-15  4.01892016E-11 -4.54476049E-10  7.93157851E-08  3.81014114E-10
  4.03439436E-16 -3.93394251E-17  7.26848179E-12 -4.65043601E-15  2.89039556E-15
 -7.54574362E-10 -8.07459536E-15  2.50751703E-15  1.48086783E-08 -9.90183611E-12
  1.96053161E-16 -1.02355949E-16  5.19646221E-02 -3.10960300E-06 -9.03104345E-10
 -2.61384607E-15  2.49570118E-15 -8.13968288E-01  4.87084892E-05  2.77050319E-15
  2.68288191E-13 -7.07454153E-12  1.99922223E-13  9.45369731E-17 -4.64686145E-16
  3.08055807E-11 -5.69509077E-16  2.80252617E-15 -1.60046013E-09  1.88143665E-14
 -9.07390711E-15  6.28014730E-08  2.96655357E-15  3.62642574E-16  3.64350882E-16
  7.08771592E-07 -4.24135483E-11  3.62706062E-15 -2.67931218E-15 -7.64695814E-16
  1.53796500E-06 -9.20342963E-11 -4.01990020E-11  4.54300860E-10 -7.93087537E-08
 -3.81234586E-10  1.69995364E-16 -1.79334994E-16  7.26582696E-12 -4.98099296E-15
  2.91511796E-15 -7.54437083E-10 -7.28172753E-15  1.36868603E-15  1.48078300E-08
  9.89998901E-12  7.93715556E-18  2.12696023E-16 -5.19633869E-02  3.10952908E-06
  9.03051282E-10  5.17850135E-15  3.60552441E-16  8.13955406E-01 -4.87077183E-05
  2.35389104E-14 -7.82210332E-13  7.83035051E-12 -7.78986310E-14  5.22976670E-16
  1.29276611E-16  6.69911725E-15 -7.77618456E-15 -1.27440594E-15 -5.36315182E-13
 -3.78919810E-15 -5.02194607E-15  9.55423788E-13 -1.74863969E-14  2.27661970E-16
 -8.96687866E-19  3.10960300E-06  5.19646221E-02 -5.32718748E-13  1.62404048E-15
 -2.61629859E-15 -4.87084892E-05 -8.13968288E-01 -1.20606044E-15  7.50338376E-14
 -1.28720733E-12 -1.26310181E-13  3.91779366E-16  1.33161816E-16  9.27755798E-15
 -8.14271423E-15 -3.19440483E-16 -1.11955598E-12  2.54554131E-14  8.16487233E-15
  6.48827511E-12  1.35505307E-15 -2.21214819E-16  1.30493079E-16  4.24134997E-11
  7.08771591E-07 -5.26712859E-14  7.99851286E-15  7.84246444E-16  9.20322861E-11
  1.53796500E-06 -2.27368953E-14  8.34730753E-13 -6.60715339E-12  2.17357150E-13
  8.84429302E-16  1.60892830E-16  6.36262795E-15 -1.26743810E-14 -1.84958399E-15
 -5.31780075E-13 -1.02625095E-14 -2.27119625E-15  6.10684907E-13  1.73126613E-14
 -2.06492054E-17 -3.29163420E-17 -3.10952909E-06 -5.19633869E-02  4.76734564E-13
  2.10433660E-15 -8.84507421E-16  4.87077183E-05  8.13955406E-01  5.93212700E-13
 -2.79034876E-11  8.50081944E-10  5.60394528E-12 -6.85024581E-03 -8.13114937E-16
  8.75070278E-14  1.06515150E-01  1.07479447E-15 -1.55985357E-11 -2.48945440E+00
  1.17047543E-13  1.55329521E-10 -4.84337685E-13  2.24623727E-02  9.31538352E-16
  1.41752003E-16 -1.17907509E-15 -1.57650616E-11 -1.26534407E+00  2.11127810E-14
 -3.98229377E-15  2.20929900E-14  1.40718994E-13 -6.52179845E-12 -1.70654988E-11
 -1.17320019E-11 -8.19383534E-02  1.50568602E-15  4.07179298E-13  1.02902395E+00
 -1.38771993E-14 -3.66757849E-11  4.31980268E+00 -2.08476673E-13  6.64193342E-10
 -1.00176685E-13 -1.04683534E-06  1.77618217E-15 -3.72234792E-16  2.07005994E-15
  2.00232973E-12 -6.53615215E-06  3.56484557E-14  6.32433527E-15 -4.67156273E-14
 -5.55614393E-13  2.53313054E-11 -8.29041706E-10  6.56842276E-12 -6.85177414E-03
  1.13137380E-15  1.91153432E-13  1.06563133E-01 -2.18047970E-14 -1.79758609E-11
 -2.48936416E+00  1.18868585E-13  1.45363512E-10  5.34134671E-13 -2.24645910E-02
  2.87242131E-15  5.54583551E-16 -1.03766475E-15  2.08553195E-11  1.26532372E+00
 -6.35129818E-14 -5.94913106E-15  2.96396740E-14  3.68107933E-13 -1.77333495E-11
  5.97569026E-10 -1.12025651E-12  5.19101576E-15 -6.85024582E-03  1.18758950E-13
 -6.24560750E-14  1.06515150E-01 -1.19063949E-11 -8.66255762E-14 -2.48945440E+00
  1.06207419E-10 -3.40048003E-13 -4.40611350E-15  2.24623727E-02 -3.96134879E-16
 -2.56967942E-15 -1.33190923E-11 -3.87823745E-14 -1.26534407E+00  2.09157577E-15
  5.59607177E-14  4.06060122E-15 -6.64011079E-13  8.29576837E-12  1.46129044E-12
 -4.19038494E-15 -8.19383534E-02  2.90552893E-13  4.61454635E-14  1.02902395E+00
 -2.61964513E-11  8.57513192E-14  4.31980268E+00  4.76366058E-10 -3.62767060E-14
 -2.82466806E-15 -1.04683534E-06  8.61269888E-17  5.03622975E-15 -8.39195351E-13
 -1.16221782E-13 -6.53615197E-06 -2.69040057E-15 -9.92652703E-14 -4.55312640E-13
  2.02677936E-11 -6.06661279E-10 -4.50007474E-13 -6.35150078E-15 -6.85177415E-03
  8.11050623E-14  7.08595201E-14  1.06563133E-01 -1.20586086E-11 -2.14315335E-14
 -2.48936416E+00  1.09424587E-10  3.83544482E-13 -5.78798677E-15 -2.24645910E-02
  2.55715855E-16 -2.69362123E-15  1.29418099E-11  4.02900276E-14  1.26532372E+00
  1.43401693E-15  5.60038458E-14 -2.86446635E-02  1.25250080E+00 -1.11516348E+01
 -4.20908588E+00 -9.16711502E-15  2.52108367E-15  3.61823369E-02  1.19154777E-13
 -3.59324102E-14 -7.09896547E-01 -3.94278959E-12  5.98791504E-13 -4.53846063E+00
 -1.13604832E-02  3.70567664E-14 -5.20013141E-15  3.29081561E-13 -1.17251458E-15
 -1.52991859E+00 -1.97952503E-12  2.67131119E-13 -4.07680036E-11  4.96083862E-14
 -8.73617164E-02  3.44326430E+00  1.97286866E+01  8.05131681E+00 -1.19514300E-13
  1.87992245E-14 -1.17113720E-05  1.47806698E-12 -2.32268488E-13  7.05922428E-04
  6.92625923E-12 -1.10814347E-12 -1.33133689E-02  5.12472241E-02 -3.03318397E-16
 -8.86735606E-17 -1.08308848E-11  1.67807499E-15 -1.43015654E+00 -2.64293728E-14
 -2.53760661E-14  2.06440895E-10 -6.47834883E-14 -2.86237032E-02  1.25158754E+00
 -1.11171990E+01 -4.20892690E+00 -1.88436854E-14  1.51592228E-15 -3.61869113E-02
  2.15214937E-13 -2.30135687E-14  7.10410436E-01 -3.96069934E-12  6.77128711E-13
  4.53219114E+00 -1.13740036E-02 -3.22846699E-14  5.76737931E-15  3.26377003E-13
 -1.82254448E-15 -1.53060703E+00  1.93365268E-12 -3.33996239E-13 -4.07097496E-11
  2.67380447E-14 -7.05409520E-02  3.36998037E+00 -1.13805692E+02 -4.36862052E-03
 -6.78594193E-14 -5.43442105E-14 -1.74740994E-02  1.06400761E-12  5.93839269E-13
  2.13522369E+00 -2.08118226E-11 -1.46051382E-11 -2.05937125E+01  6.46053006E-02
  2.00770796E-13  1.03205516E-13  1.33794299E-11  1.41824955E-14  2.33673854E+00
 -1.02789982E-11 -6.81808300E-12 -2.21902556E-10 -1.70418431E-13  1.49508349E-05
 -1.38220290E-03  7.80072954E-03 -1.18549392E-03 -6.27057059E-13 -4.98061768E-13
 -5.23443752E-02  7.89860288E-12  6.04447618E-12  4.65817010E+00  3.60823125E-11
  2.64928303E-11 -8.97346774E+01 -2.52748151E-05  1.24698925E-14  8.47753442E-15
 -4.11173467E-15 -9.10665420E-15  7.52054821E-05  2.00476185E-13  3.32617924E-13
  1.34794555E-13 -8.40498967E-16  7.05409679E-02 -3.36938005E+00  1.13798205E+02
  5.62526842E-03 -4.08630307E-14  8.34969973E-15 -1.74703825E-02  4.20085931E-13
  1.14795523E-13  2.13463263E+00 -2.04502736E-11 -1.55876424E-11 -2.05936144E+01
 -6.45861431E-02 -1.74308187E-13 -1.30381147E-13 -1.33814953E-11 -3.10390784E-14
 -2.33619442E+00  1.00718413E-11  8.11265309E-12  2.21744614E-10  2.05855217E-13
 -2.91017828E-14  1.10020608E-12 -1.10671996E-11 -2.68944659E-13 -6.40405572E-03
  8.02857602E-16  6.07333090E-15  1.56024102E-01 -1.10309824E-14  2.86596347E-13
  4.14083187E-01  1.16536694E-13 -2.02995734E-12  1.71840765E-14 -4.93832897E-02
 -3.81774605E-16  1.26799917E-16  2.10183032E-16  2.21653920E-13  1.11137780E+00
  4.56393168E-14 -7.61536737E-15 -2.21145261E-14  1.08517319E-14 -8.97004112E-13
 -2.33692686E-12  5.13663497E-13  1.52815677E-06  1.72101217E-15 -2.92136963E-15
 -1.48935224E-05 -1.55130067E-14  2.27251445E-13 -4.54683015E-05 -2.08246491E-13
 -9.28870498E-12 -3.01487503E-14  3.67968629E-02  6.86613109E-16 -4.82428515E-16
 -8.08041960E-16 -6.59646868E-13 -2.95602651E-01 -5.41465217E-15  1.50055305E-14
  3.42558694E-14 -2.35920775E-14  8.01970371E-13  1.28548070E-11 -2.03340003E-13
  6.40320572E-03 -3.37797182E-16 -7.42540209E-15 -1.56007156E-01 -2.94021988E-15
 -1.01039258E-13 -4.14037405E-01  1.13004667E-13 -2.49942621E-12  1.44378120E-14
 -4.93848927E-02  1.33456336E-15  6.01539620E-16  4.19866768E-16 -1.10424751E-13
  1.11134798E+00 -4.07278908E-14 -1.20221383E-14 -1.90257955E-14  4.34371958E-15
  6.20292398E-13 -7.60446152E-11  4.38155399E-14  3.56031898E-16  6.40405571E-03
 -1.58914035E-14 -5.10653878E-15 -1.56024102E-01  8.30925932E-13  1.04236086E-13
 -4.14083187E-01 -1.44222431E-11  1.54264925E-14 -2.23322988E-16  4.93832897E-02
  1.74693885E-16  1.83244889E-16  1.08130064E-12  4.17867596E-14 -1.11137779E+00
 -1.50400695E-15  1.33084524E-15 -8.18632888E-15  7.59162590E-13  1.54546845E-12
 -5.51721440E-13  5.64130386E-16 -1.52815677E-06 -2.38555064E-14 -7.52651632E-15
  1.48935223E-05  2.07486857E-12 -1.81178314E-13  4.54683009E-05 -5.86973201E-11
  2.38265875E-14  1.03380382E-15 -3.67968629E-02  7.21267103E-17  3.44164322E-18
  5.84135853E-13  3.40566226E-15  2.95602652E-01 -5.08204060E-16 -3.05971314E-16
  4.20225127E-14 -2.28435978E-12  7.49908036E-11  4.75777086E-13  8.92669668E-16
 -6.40320571E-03 -3.10934762E-15 -1.20668808E-14  1.56007156E-01  1.13435543E-12
  9.53446487E-14  4.14037405E-01 -1.41739900E-11 -3.97659494E-14  1.46947721E-15
  4.93848927E-02 -2.62689840E-16  2.36025156E-16 -1.17822286E-12 -3.25419451E-14
 -1.11134798E+00  1.70535803E-15 -1.48032659E-15  3.39107842E-14 -1.24328392E-12
  4.59822018E-13  4.90456652E-13  1.23498636E-15  2.01822576E-15 -8.40287908E-15
 -1.68705461E-14 -1.94829903E-14 -3.02906505E-13  8.65034602E-14  1.73421477E-13
  6.50891682E-14 -2.36416931E-14 -1.58575647E-15 -4.23605328E-16 -1.92889773E-06
 -3.98889688E-02 -8.59756560E-14  4.52714914E-14  5.78348584E-14  5.84083244E-05
  1.20786488E+00 -1.19925408E-14  1.03743098E-12  1.86123672E-12 -1.01814570E-12
  5.65162063E-16  8.72948343E-16  1.27253252E-15 -4.17277481E-15 -8.24032873E-15
 -1.48753976E-13 -1.50098874E-13 -3.23029892E-13  8.43701709E-13  3.79333179E-14
  6.53633989E-16  1.64604016E-15  3.38800000E-06  7.00627225E-02  7.70118846E-13
 -2.00053279E-14 -6.23938406E-15 -9.74067185E-05 -2.01433881E+00  2.88685019E-14
 -1.01225872E-12 -1.65391921E-12  4.90692940E-13 -3.64009055E-16  8.16447632E-16
  1.01206536E-14  2.79369531E-15 -2.11687982E-14  1.45262454E-13  7.78828772E-14
  1.87730549E-13  3.09329020E-13 -1.59456117E-14 -3.87169584E-16  2.74846269E-15
 -1.92886214E-06 -3.98882329E-02 -1.98520807E-14 -1.40865539E-14 -6.49091993E-14
  5.84061092E-05  1.20781907E+00 -9.67926648E-10  3.38690618E-08  8.31031394E-08
 -2.49067700E-09  2.25401730E-16  7.95534413E-18  2.43440583E-10 -2.34114029E-15
 -3.31206508E-15  6.43097430E-09 -1.50675265E-14  2.63376728E-15  2.45924018E-08
  4.67078562E-10 -1.47574623E-16 -5.09771041E-17 -3.98889688E-02  1.92889773E-06
  2.10010865E-09 -1.44521734E-15  1.17093997E-15  1.20786488E+00 -5.84083244E-05
  3.48449458E-10 -2.86209255E-08 -1.88710032E-07  7.96635429E-09 -9.28419954E-16
  1.91008170E-16  3.37831903E-14  1.34233195E-14 -2.90803583E-15  2.66587237E-12
  3.05287504E-14 -7.21332847E-15 -4.64088502E-12 -9.27274999E-10  2.00585148E-16
 -6.92740529E-17  7.00627225E-02 -3.38800000E-06 -2.55770867E-08 -3.35607575E-15
 -5.40538582E-15 -2.01433881E+00  9.74067185E-05 -9.67895480E-10  3.38642393E-08
  8.31101301E-08 -2.49059439E-09  6.04200320E-16 -9.41373599E-17 -2.43353017E-10
 -6.08229690E-15  4.22657136E-15 -6.42892225E-09 -1.76706691E-14  5.61519766E-15
 -2.45935787E-08  4.66957075E-10 -1.61020209E-17 -1.55498533E-16 -3.98882329E-02
  1.92886214E-06  2.09919258E-09  1.67757679E-14 -3.83694176E-15  1.20781907E+00
 -5.84061092E-05 -1.94966272E-01  6.65683422E+00  1.50399309E+01 -5.03389522E-01
  5.92040389E-15 -1.18247352E-14  4.82986358E-02 -2.23783617E-14  1.29308246E-13
  1.25294537E+00  6.20131305E-13  5.80834597E-13  4.49517694E+00  9.13616272E-02
  2.63074550E-15  1.11028874E-14  1.91302711E-10 -1.60792101E-14  4.73320545E-01
  6.48786865E-14  1.29986016E-13 -5.92988654E-09  4.84563903E-13  6.29743472E-02
 -5.79088718E+00 -3.44310709E+01  1.58421317E+00 -2.53711774E-15  6.70701632E-15
  7.57033124E-06  1.27015141E-13 -7.46800168E-14  4.78320834E-04 -1.24634343E-12
 -1.12235523E-12  1.32455376E-03 -1.85075441E-01 -2.43315802E-15  2.66464530E-15
 -3.36811478E-10  2.79125253E-14 -4.97603168E+00  1.78224259E-13  2.56654558E-13
  9.87462396E-09 -8.11282892E-13 -1.94959326E-01  6.65593701E+00  1.50355925E+01
 -5.03394958E-01  3.01580659E-14  1.44321516E-14 -4.82807485E-02 -2.49738028E-13
 -2.52563321E-13 -1.25258203E+00  7.41797329E-13  6.73538082E-13 -4.49430862E+00
  9.13383032E-02  1.34382634E-14  1.64949624E-14  1.91298675E-10 -1.32966521E-14
  4.73212760E-01 -3.26179560E-13 -3.42358534E-13 -5.92966722E-09  4.93041997E-13
 -4.39324315E-02 -2.40927634E+00 -2.90872408E+01 -2.31744247E-01 -2.86906321E-14
 -6.26294652E-15  6.50450136E-02  5.51458011E-13 -2.91268833E-14 -3.16299659E+00
 -2.12144033E-13 -3.15246774E-13 -7.35810575E+00 -7.64105939E-02  1.00555597E-14
 -1.13726103E-15 -2.07222751E-12  2.37081096E-15 -1.51368221E+00  9.64871546E-14
 -1.66267815E-13  1.46304899E-11 -1.70431575E-14 -3.43712766E-06  4.13070572E-04
  1.78176092E-03 -1.28255794E-04  5.18913007E-15 -1.75600518E-14  4.51191179E-03
 -1.36566125E-13  1.34992195E-13 -3.45718441E+00  5.76335727E-13  6.40693404E-13
 -1.86450294E+01 -2.10034352E-06  7.01709915E-15 -6.97118656E-15 -6.65676536E-17
 -4.59005140E-15  4.03444064E-05  5.76081975E-13  7.50223294E-14 -3.31821934E-14
  1.20259313E-14  4.39313100E-02  2.40877311E+00  2.90854934E+01  2.31887433E-01
  1.04287302E-14  7.79874300E-15  6.50467216E-02 -3.72592416E-13 -4.41750398E-14
 -3.16285270E+00 -4.35402310E-13 -3.79662580E-13 -7.35796988E+00  7.64074036E-02
  5.74201125E-15  1.10811213E-14  2.06877291E-12 -8.24846878E-15  1.51371324E+00
  1.98933784E-13  9.69572737E-14 -1.45892359E-11  5.57452482E-15  3.62502603E-14
  1.05778203E-12  7.13012243E-11  1.13883805E-13 -1.04509095E-01 -1.39343591E-14
 -2.01209017E-14  3.08424313E+00  3.65639322E-13  1.28225270E-12  1.04479761E+00
  2.12479936E-13  1.44718797E-11  3.89568164E-14  3.61167002E-02 -1.37707596E-15
  4.05993780E-16 -1.13957464E-15 -1.25547587E-14  1.14432685E+00  2.71410057E-13
 -1.63077914E-15  8.17278398E-15  1.62376004E-14 -2.11613102E-12 -4.18738762E-14
  4.15971995E-13 -1.42152276E-05  2.83300840E-14 -9.27497691E-15  3.15881644E-04
 -6.66469694E-13  4.40968663E-13  3.61733927E-04 -3.59101528E-13  5.35465790E-11
 -3.42248210E-14  9.05728354E-03 -1.36284676E-15  3.35787332E-16 -6.83843604E-16
 -5.77349267E-14  4.10568064E+00  8.46094359E-14  7.24255961E-16 -1.07202597E-14
  8.10775521E-14  1.90032788E-13 -7.06961159E-11 -7.33718817E-13  1.04519774E-01
 -1.33062480E-14  2.58709666E-14 -3.08449218E+00  2.50743927E-13 -1.74911540E-13
 -1.04518956E+00  1.60539016E-13  1.43505128E-11  1.21461386E-14  3.61109027E-02
  3.54614783E-15 -5.75422414E-16 -2.31994605E-16  4.51576767E-13  1.14473705E+00
 -2.20914267E-13 -2.31921327E-15  7.61495351E-15 -3.92285707E-14 -1.17763776E-12
  1.37258843E-12 -1.05515783E-13 -3.68973004E-15  1.04509095E-01  2.27623860E-14
  8.21003777E-14 -3.08424313E+00 -1.22431022E-12  3.19116851E-14 -1.04479761E+00
  4.19704364E-14 -6.09504124E-14  1.37121388E-15 -3.61167002E-02 -3.02336210E-16
  3.01804271E-16 -4.08914675E-13  4.16584892E-14 -1.14432685E+00 -1.06341035E-15
  2.72565625E-15 -5.06648290E-14  2.83765924E-12  1.59385574E-12  4.31565353E-13
  3.03834730E-15  1.42152276E-05  3.94582934E-15 -9.41055193E-14 -3.15881643E-04
 -5.90902995E-13 -5.14223349E-14 -3.61733925E-04  2.04228827E-12  6.46755341E-14
  8.54629395E-16 -9.05728356E-03 -9.61829514E-17 -4.13793087E-16 -5.26890633E-14
  4.57612502E-14 -4.10568064E+00  4.07252442E-15 -4.74626142E-15 -7.21814701E-14
 -2.22096038E-13 -3.83221680E-12 -1.04906824E-13  2.03706430E-15 -1.04519774E-01
 -2.14944329E-14  2.99014119E-15  3.08449218E+00  6.61870694E-13  2.21106533E-14
  1.04518956E+00  8.92298294E-13 -3.03118515E-14  6.22691022E-16 -3.61109027E-02
 -2.33012002E-16 -3.58742892E-16 -2.45735102E-13 -2.62088102E-14 -1.14473705E+00
 -1.29174168E-15  3.95361522E-15 -3.09776753E-13 -6.40683657E-12  1.62315633E-11
  8.65824950E-14 -6.37031441E-02  3.69493887E-15  1.67680561E-13  1.48170494E+00
 -5.00771488E-14 -5.54610272E-12  1.52324861E+00 -1.57051739E-13  1.29176615E-12
 -1.85353139E-13 -8.28494973E-03  2.02474248E-15 -1.35857329E-15  3.81179814E-16
 -2.02121850E-12  1.38482634E+00 -1.21609747E-13  4.47749532E-15  1.09894987E-14
 -3.02562503E-14  1.52842528E-11  3.28057721E-11  1.12003178E-12  1.20667391E-01
 -1.08315670E-14  3.84582306E-15 -3.32696847E+00  3.12641232E-13 -9.93123718E-13
 -2.85777955E+00  3.25354895E-13  2.56437134E-11  2.37902272E-13  4.43126405E-06
 -5.13643893E-15 -1.22577724E-16  6.08441412E-17  1.82515759E-12  5.16239967E-04
  1.15212014E-13 -7.18233977E-15 -1.88239282E-14 -3.34770490E-13 -4.87353053E-12
 -5.14831709E-11 -2.88210518E-13 -6.36771461E-02  1.02255332E-14 -1.54255582E-13
  1.48083136E+00 -2.22443607E-13  4.85138031E-12  1.52290859E+00 -1.95284391E-13
  1.22986195E-11 -1.37075516E-13  8.30072462E-03 -2.85157836E-16  5.06691824E-16
  1.29452629E-15 -1.53264551E-12 -1.38448996E+00  1.52718701E-13  4.68261511E-15
  1.13795739E-14  3.82211370E-14  1.02411266E-12  1.76474947E-11  6.23087367E-13
 -1.17623885E-14  6.37031441E-02 -2.28181976E-14  5.16104164E-13 -1.48170494E+00
  1.07294624E-12  1.36896704E-13 -1.52324860E+00  3.76475746E-12  3.78816520E-14
  3.24003044E-15  8.28494972E-03  2.87574132E-17 -4.99394591E-16  2.40210917E-13
  1.26540367E-13 -1.38482633E+00 -1.42805473E-16 -2.63073407E-14  1.90540513E-14
 -2.13924964E-12 -1.97028332E-12 -1.20208401E-12 -1.22787186E-14 -1.20667391E-01
 -6.39165629E-15  2.81805529E-13  3.32696847E+00  6.47822927E-13  1.30875006E-13
  2.85777955E+00  1.23694548E-11 -2.57497847E-14 -5.20233397E-15 -4.43126405E-06
  9.47125995E-17 -2.86037584E-16  3.75125372E-14  8.61939323E-13 -5.16239965E-04
 -1.76091717E-15  4.29286549E-14  8.21350688E-14 -1.06970019E-13 -1.49307992E-11
  4.07486449E-13  2.09049204E-14  6.36771461E-02  2.55852359E-14 -7.71809181E-13
 -1.48083136E+00 -3.48834562E-13 -2.73877195E-13 -1.52290859E+00  2.80111278E-12
  3.79124102E-15  2.71736402E-15 -8.30072461E-03 -1.01963645E-16  3.02643177E-16
  3.20758012E-13  3.27589902E-13  1.38448996E+00  1.64394433E-16 -2.63559842E-14
  1.90612564E-01  4.48522487E+00  1.81244387E+01  3.56170019E-01 -6.28603212E-14
 -1.43561959E-15 -1.00807090E-01  1.55161198E-12 -5.00182226E-13  3.61309757E+00
  2.40615363E-12  2.08024657E-13  5.67262676E+00  1.05855864E-01 -2.44623244E-14
 -1.35471936E-15  3.43548819E-12 -2.13889201E-15  1.25236995E+00  1.95285278E-12
  4.33952275E-14  2.58688246E-11  2.97542692E-14 -6.34693666E-03 -1.05854147E+01
 -3.53384666E+01 -1.15329954E+00  1.82212744E-13  2.84822558E-14  1.43603975E-05
 -5.23074484E-12 -8.22132327E-13  1.69165108E-04 -5.06669659E-12 -9.71720933E-13
  1.18859845E-05 -1.67396813E-01 -8.31746699E-16  2.94115184E-15  5.15211144E-12
  7.55375938E-16 -1.90525472E+00 -1.02412968E-12 -1.15148362E-12 -6.61253571E-12
 -5.09719490E-14  1.90631776E-01  4.48462513E+00  1.81234038E+01  3.56140862E-01
 -7.77447799E-14 -3.65322721E-14  1.00814460E-01  3.05076345E-12  1.20194527E-12
 -3.61283376E+00  2.99799995E-12  8.33305017E-13 -5.67238083E+00  1.05842886E-01
  1.31425861E-15 -4.25853092E-15  3.43355371E-12  6.60542163E-15  1.25228923E+00
 -2.57707835E-12 -7.32868022E-13  2.58677594E-11  3.35765412E-14  7.52071954E-01
 -1.36487026E+01  1.59471791E+01 -4.36816500E-01  1.28714369E-14  2.52588411E-14
  6.53560996E-02  1.13933293E-13 -4.44003038E-15 -8.24369435E+00  2.81001661E-14
 -3.47322190E-14  1.76355267E+00 -2.08898857E-01 -5.84166920E-15  6.54245058E-15
  2.66318838E-11  7.90247026E-16 -2.20147126E+00  2.04080533E-14 -2.46156611E-14
  2.50498929E-13 -4.97581445E-15 -4.88886604E-05  3.23774254E-03 -1.51110080E-03
  1.16805601E-04 -1.07382369E-14  3.15889994E-14  1.48135913E-02  1.45594676E-13
  1.29430751E-13 -1.60698813E+01  1.20157092E-13  1.51839079E-13  1.37290641E+01
  9.50998165E-05 -2.34993337E-14 -1.09298109E-14  1.43467239E-15  1.17238341E-14
  3.44774644E-04  2.92561921E-13  1.01635107E-13  1.57488049E-14  1.11884046E-14
 -7.51983752E-01  1.36451510E+01 -1.59454777E+01  4.36647199E-01 -5.55829773E-15
 -1.01131834E-14  6.54163985E-02 -2.37892737E-13 -1.24686465E-13 -8.24224306E+00
 -1.62803199E-13 -1.22702663E-13  1.76339085E+00  2.08802816E-01  1.92653655E-15
 -2.39146780E-14 -2.66349299E-11  2.68012034E-14  2.20127349E+00  1.25616851E-13
  1.27245617E-13 -2.69146640E-13 -3.18522507E-14 -9.17417190E-01 -4.32644534E+00
 -6.35959682E+00  6.35853925E-02 -8.22332336E-15 -1.62078741E-15  1.15375986E-01
 -9.07144463E-14  3.37618914E-15 -3.42668131E+00 -1.60081846E-13 -8.08419627E-14
 -1.80263455E+00 -8.76401717E-02 -4.39916407E-17 -7.02381649E-15 -1.58372204E-11
 -3.79491039E-16 -6.65141606E-01 -9.16983665E-14 -3.41368501E-14 -3.02371960E-12
 -5.30967260E-15  6.83172118E-05  8.51183887E-04  5.79259529E-04  7.12262877E-05
 -1.73535638E-15 -9.59526187E-15  1.13021661E-01  1.23472736E-13  7.59998445E-14
 -7.18116322E+00  2.52168153E-13  1.93196172E-13 -3.34353682E+00 -1.59844689E-05
 -1.56257267E-15 -1.14154058E-14  9.86231353E-16 -4.05497292E-15  1.34044365E-05
 -5.86319665E-14  5.82886511E-14  5.97048246E-15  8.07851484E-15  9.17512269E-01
  4.32551714E+00  6.35906501E+00 -6.36857205E-02 -1.11146524E-14  3.36629924E-16
  1.15368050E-01  1.13951290E-16 -5.19931117E-14 -3.42628563E+00 -1.20657595E-13
 -1.31923820E-13 -1.80246905E+00  8.76948241E-02 -2.56413048E-15  1.08885859E-14
  1.58377269E-11 -5.36469652E-15  6.65038862E-01  4.88804510E-14  5.61546369E-14
  3.01819918E-12 -4.23547646E-15 -9.47545345E-01  1.89301697E+00 -2.31669515E+00
  1.18522457E+00 -5.48167562E-15  1.29409029E-16  1.16360577E-01 -1.19268553E-14
 -9.34568731E-15  1.62590203E+00 -1.49278260E-13 -2.51524665E-14 -1.19177653E-01
 -9.99833419E-02 -1.52790960E-15 -3.89857651E-15 -4.76273436E-11  9.68321444E-16
  8.18409035E-01 -6.48249044E-14 -1.45175536E-14 -5.02726817E-12  1.73931380E-15
 -4.99895946E-01 -4.93053257E+00  5.21168953E+00 -2.04266282E+00 -1.68479791E-15
  9.64450853E-15  8.51184371E-06  1.31434193E-13  3.81486938E-14 -8.30306214E-04
  3.09543820E-13  6.12111837E-14 -6.63371503E-04 -3.81086159E-01 -1.57156264E-15
 -1.06055499E-14 -4.18309165E-11 -1.15544397E-15  1.13361820E+00  5.67253483E-14
  1.77789001E-14  1.49184038E-11 -2.44449201E-15 -9.47490509E-01  1.89406867E+00
 -2.31447385E+00  1.18521144E+00 -1.52791429E-14 -4.76941826E-15 -1.16315896E-01
 -7.68587569E-14 -2.57758754E-14 -1.62663320E+00 -1.91477398E-13 -3.70313918E-14
  1.18592528E-01 -9.99797964E-02  1.50458595E-14 -4.83162980E-15 -4.76267696E-11
  7.30089025E-16  8.18608951E-01  9.17261065E-14  3.15606386E-14 -5.02512227E-12
  1.33289285E-15 -1.41323512E-10  1.30851370E-09  9.44614482E-10  1.26246307E-10
  1.12709342E-15  3.05259439E-15  4.82079135E-11  5.41593028E-15  1.28570985E-15
  4.68074145E-10  3.82013801E-15 -1.16453287E-16  3.06325073E-10  3.39039999E-11
 -1.76053801E-15 -2.86690219E-15  5.24861017E-01  8.64413982E-05  9.10381158E-11
  5.49847252E-15  5.06075631E-15 -1.09170389E-01 -1.79796950E-05  1.69021280E-10
 -1.86752190E-09 -2.36623427E-09 -1.34821571E-10  2.39856035E-15  5.15602988E-15
  1.29617053E-14 -6.04087142E-15 -7.50192728E-15 -4.44855759E-14 -3.78440382E-15
  3.66524475E-15 -1.22805794E-12 -6.12583893E-11  5.25439355E-15  7.44090132E-15
  6.89129827E-01  1.13495466E-04 -4.96703148E-10  2.61145122E-15 -2.33265147E-15
 -3.17919572E-01 -5.23594082E-05 -1.41328544E-10  1.30853837E-09  9.47858733E-10
  1.26268785E-10  1.71280556E-15  2.17481379E-15 -4.82123722E-11 -2.90219255E-15
 -9.99574221E-16 -4.68118256E-10  1.13886335E-15 -1.77904172E-15 -3.07012586E-10
  3.38863828E-11 -2.63780364E-15 -7.35130767E-15  5.24850101E-01  8.64396003E-05
  9.10401904E-11  1.68740000E-15  4.09162133E-15 -1.09166343E-01 -1.79790288E-05
  3.55286939E-14 -1.28605296E-13  1.19567593E-11  9.77683227E-14  1.64050793E-14
 -5.56133990E-15  6.19490244E-14 -1.44304983E-14  7.43569986E-15 -1.12838585E-13
 -4.58668603E-15  2.96949138E-15  2.41180338E-12 -1.25994496E-14  1.56067041E-14
 -9.01851784E-15  8.64413982E-05 -5.24861017E-01 -1.17490552E-13 -8.00084213E-15
  5.20453714E-15 -1.79796950E-05  1.09170389E-01 -3.75284593E-14  2.12353866E-13
 -3.63475193E-13 -4.19649406E-14  1.59457301E-14 -4.57021727E-15 -7.94407090E-14
 -2.60106744E-14  8.58750918E-15  6.62283245E-14  5.91102678E-15 -3.46134176E-15
  8.99038934E-12  9.06268834E-15 -7.62161600E-15  4.89433960E-15  1.13495466E-04
 -6.89129827E-01  4.67917675E-14 -1.03404269E-14  5.63340016E-15 -5.23594082E-05
  3.17919572E-01 -3.61029973E-14 -1.02713960E-13 -1.15910605E-11 -4.87518520E-14
  1.58714888E-14 -8.78801012E-16  5.45632965E-14  7.05702002E-15 -8.10493649E-15
 -1.95289860E-14  7.61115971E-15 -1.47261711E-15  2.28171635E-12 -1.02915321E-14
 -7.64006806E-16 -2.54618901E-16  8.64396003E-05 -5.24850101E-01  1.19765816E-13
 -1.38326975E-14  5.71363569E-15 -1.79790288E-05  1.09166343E-01  1.50275554E-13
 -2.50135946E-12 -7.14042717E-12  7.83105505E-14  1.85897487E-01  5.77288081E-15
 -9.32325363E-14 -6.74369554E-01 -1.69844155E-14 -8.40276829E-13 -2.47002570E-01
 -1.12201447E-14 -1.47702506E-12 -1.11012859E-13  4.74361678E-01  2.15360745E-14
 -2.53735163E-15  8.73174078E-15 -3.44587521E-14 -6.10439367E-01 -1.82060126E-14
  2.89102480E-16 -2.44862111E-15 -4.64092538E-13  3.69816162E-12  2.78023455E-12
 -3.36099143E-13 -7.36200860E-07  4.62336955E-15  5.12198038E-14  6.21564639E-05
 -1.32730497E-14 -6.72564787E-14 -1.42854951E-05  6.44855628E-15 -4.69351062E-12
  1.12803653E-13 -5.57358946E-01 -1.84131913E-14  5.77315873E-15  9.10491524E-15
  1.07453686E-12 -4.54225383E-01 -1.51980054E-14 -8.72665639E-16 -3.64977099E-15
  1.87664299E-13 -2.46726816E-12  5.09586184E-12  1.49041232E-13 -1.85898992E-01
  1.25903222E-15  2.18622961E-14  6.74307254E-01  2.02713066E-14  9.05592963E-13
  2.47017415E-01  7.02768322E-15 -9.42030617E-13 -9.85614919E-14  4.74419621E-01
  7.51097222E-15  8.55268468E-15  7.37579362E-15 -1.76779887E-13 -6.10443454E-01
 -1.99620676E-14 -4.35539188E-15 -2.50939164E-15 -8.17820952E-14  7.58725755E-13
 -7.07658998E-12 -2.30423517E-15 -5.33048853E-15 -1.85897487E-01 -1.23442381E-14
 -8.88666602E-15  6.74369554E-01  2.57127082E-13  3.63482206E-14  2.47002570E-01
 -1.36162532E-12  4.72789274E-14  3.19191796E-15 -4.74361677E-01 -7.21585916E-15
  1.02190819E-14  9.09860244E-14 -7.14125980E-16  6.10439367E-01  2.19023836E-15
 -2.71516363E-15  1.79643163E-13 -1.39764572E-12 -1.91430581E-12 -7.16627308E-14
 -2.48583440E-14  7.36200891E-07  5.46457332E-14  1.54701007E-14 -6.21564640E-05
 -2.62201527E-13 -8.05734355E-14  1.42854950E-05 -5.97957696E-12 -2.96294562E-14
 -1.52264349E-14  5.57358946E-01 -5.77323732E-15  7.65626792E-15 -4.20295561E-13
 -4.88423344E-15  4.54225383E-01  2.33927761E-15 -4.78618473E-15 -4.20518220E-14
  1.09186721E-12  8.72180651E-12  1.19346329E-13 -2.54315769E-14  1.85898992E-01
 -7.00678236E-14  2.48548637E-14 -6.74307254E-01 -3.90193336E-13  4.14935139E-14
 -2.47017415E-01 -1.86188934E-12  2.04638785E-14  2.61179104E-14 -4.74419621E-01
 -7.61739102E-15 -2.31275366E-15  1.21534827E-14 -2.71596275E-14  6.10443454E-01
  2.62229561E-15  2.34893456E-15 -5.93289793E-01  9.78266299E+00  9.52788486E+00
 -4.89524314E-02  7.68093798E-13 -1.30984294E-13  2.81982255E-01 -2.01599843E-13
  4.65851779E-14  3.24809522E+00  1.67096150E-14  1.58538133E-13  2.78210071E+00
  3.55515412E-01  6.41617415E-13  9.73450157E-14 -9.82123055E-11 -8.18802215E-14
  4.24484352E-01 -1.20006398E-14  2.67231638E-15  1.12614937E-11  4.15845951E-14
  1.82011204E+00 -1.39638720E+01 -2.23769469E+01  6.00991792E-01  9.32349546E-13
 -4.51113826E-14  3.77414947E-05 -1.49801563E-12 -1.23478629E-13  3.52512495E-04
  3.00550397E-13 -4.78308205E-13  1.84394410E-03 -2.98610073E-01 -1.25723624E-13
 -2.84549402E-14 -2.26060164E-11 -4.58535286E-14 -4.72449697E+00 -4.80851008E-14
 -1.16231475E-13  3.40696281E-11  3.71656824E-15 -5.93388368E-01  9.78188365E+00
  9.52272455E+00 -4.89624378E-02  8.09267710E-13 -1.53872034E-14 -2.81931219E-01
 -4.87015671E-14  1.51688693E-13 -3.24790324E+00  1.54739011E-13  3.32816602E-13
 -2.78116803E+00  3.55401933E-01 -3.54201417E-13  6.53351950E-14 -9.82963658E-11
  7.37693385E-14  4.24530871E-01 -2.90351352E-13 -2.03202616E-13  1.12961696E-11
 -2.30669663E-14  7.39064263E-13 -1.30161992E-11 -1.75281440E-11 -1.64469516E-13
  5.30785279E-01 -1.82423329E-14 -4.25365747E-13 -4.67753231E-02  2.00128952E-14
 -4.26110171E-12 -5.54116975E-02  1.02036694E-16 -4.96075919E-12 -4.32253857E-13
  4.18900488E-01 -2.83981693E-14  3.34321023E-14 -4.05852779E-15 -5.57424838E-13
  6.43987468E-02  1.25015191E-14 -1.46743204E-14  2.86919542E-15 -2.37831425E-12
  1.80171674E-11  3.45095668E-11 -4.10469189E-13  7.56113474E-01 -1.73303490E-14
  3.79877055E-14 -1.17147310E+00  4.06655057E-14 -2.76132839E-13  4.43498230E-01
  7.35487004E-15 -1.91850520E-12  3.23252965E-13  8.53998408E-06  1.56317737E-14
 -2.62487730E-15  1.79124477E-14  6.41590093E-12  2.05480731E-06  2.00474075E-14
  9.61610423E-16 -7.66265430E-15  7.58385390E-13 -1.26342520E-11 -1.24187772E-11
 -1.20112943E-13  5.30764518E-01 -8.24912314E-15  3.73017001E-13 -4.67859670E-02
 -2.75504507E-14  4.07723003E-12 -5.54128920E-02 -1.77735292E-14  3.89230168E-12
 -4.47113798E-13 -4.18892206E-01 -2.85712377E-15 -3.50088047E-14  3.00643083E-14
 -5.52588057E-13 -6.43940492E-02  2.67875167E-14  1.44102829E-14 -9.78246929E-15
  1.07920152E-13  6.09479420E-14  2.14035012E-11  2.04203390E-13 -2.11683557E-14
 -5.30785279E-01  1.97450764E-13  2.07088592E-14  4.67753231E-02 -6.00908019E-14
  1.36456699E-14  5.54116974E-02  4.21745851E-12 -3.14064131E-14 -4.82713384E-16
 -4.18900488E-01  5.06600530E-15  1.88603092E-15 -2.30336535E-13  3.39846883E-15
 -6.43987468E-02 -7.83227366E-16 -2.27061955E-15 -1.13546031E-13  9.50809167E-13
  1.93537114E-12 -9.87941417E-14 -2.30202495E-14 -7.56113474E-01 -2.89449925E-13
  2.00470818E-14  1.17147310E+00  1.15457032E-12 -2.82889129E-14 -4.43498230E-01
  1.70416028E-11  2.66093298E-14 -4.34162776E-15 -8.53998404E-06  4.94485227E-15
  2.64814338E-15  3.29283773E-13  1.78988660E-14 -2.05480729E-06 -2.83892816E-15
  1.11801921E-15 -3.90059775E-14 -1.39720508E-12 -2.31060795E-11 -1.39348223E-13
 -1.29663345E-14 -5.30764518E-01  2.27061917E-13 -4.95062541E-15  4.67859670E-02
  4.05108604E-13  7.63775373E-15  5.54128919E-02  4.71659336E-12 -2.54397346E-14
  1.37242851E-14  4.18892206E-01  1.04320171E-16  8.94399763E-15  1.69576572E-13
 -2.28605620E-15  6.43940492E-02  7.96416230E-16 -4.49025642E-15 -4.48819100E-11
  5.63865859E-10 -5.07766886E-10  2.02438836E-11 -2.59459767E-14  1.16384946E-15
  1.03439852E-11 -1.44200872E-15 -1.71439309E-15  2.84739981E-10 -2.62246973E-16
 -1.81559857E-15 -7.82270935E-11  1.32841802E-11 -1.41146103E-14 -8.56396112E-16
  7.86741703E-01 -1.10822250E-04  6.80744540E-11 -5.73820584E-15  4.16655798E-16
 -3.35860004E-01  4.73100146E-05 -9.35984120E-14  5.17142903E-13  1.47349891E-12
 -8.82867223E-15 -3.11302307E-14  6.18352805E-15 -1.33619987E-11  3.61508039E-14
 -7.47608351E-15  6.00625183E-10 -2.41825831E-14  3.71829705E-15 -3.34969548E-10
 -6.17560722E-15 -5.88899806E-15 -1.36795236E-15  1.41207296E-05 -1.98907910E-09
  2.52243995E-13 -1.29154763E-14 -3.83364544E-15 -1.50301459E-05  2.11718105E-09
  4.49439646E-11 -5.64713567E-10  5.06490944E-10 -2.02647224E-11 -3.09509638E-14
 -3.78522931E-16  1.03882145E-11  2.45828919E-14  5.47800010E-15  2.84955204E-10
  7.98317224E-15 -1.17526720E-15 -7.78558584E-11 -1.33022957E-11  1.86484601E-14
 -1.01189868E-15 -7.86791764E-01  1.10829302E-04 -6.81006699E-11 -7.67626069E-15
  3.42902571E-17  3.35889059E-01 -4.73141073E-05  1.15598055E-14 -1.93426696E-12
 -7.85573988E-12 -1.07026139E-13 -1.64368571E-14 -3.64251675E-15 -2.53628359E-13
  2.45075542E-15  1.26629424E-14 -5.79922704E-13  1.08152553E-14  1.35707682E-15
 -1.71856924E-12 -1.87023717E-14 -9.09776909E-15  1.23717407E-15 -1.10822250E-04
 -7.86741703E-01  3.12324146E-14  4.42729848E-16  7.01635169E-15  4.73100146E-05
  3.35860004E-01 -1.61825885E-13  9.51737131E-13  3.06243446E-12 -1.51569440E-15
 -1.29864367E-14  3.31061301E-15  2.82396397E-13  1.72635684E-14 -1.33368247E-14
 -1.64089747E-12 -2.81569667E-14  4.33905150E-16 -5.09837581E-12 -2.33112887E-14
 -2.90128749E-15  5.21213935E-15 -1.98908288E-09 -1.41207297E-05  4.70493909E-13
 -2.80996713E-15  3.39120747E-15  2.11718185E-09  1.50301459E-05  8.56996518E-14
  3.68744889E-13  5.16194713E-12  5.40504007E-14 -1.58195993E-14  1.97996646E-15
 -1.60023941E-13  9.97381647E-15 -2.61262477E-16 -2.09374644E-13  1.14470732E-14
 -2.33691478E-15 -9.08611446E-13 -3.09039544E-17  7.07384368E-15 -8.73979852E-15
  1.10829302E-04  7.86791764E-01 -7.76219144E-14 -4.46894903E-15  3.15148658E-15
 -4.73141073E-05 -3.35889059E-01  6.87058622E-02  5.35894562E+00 -3.43193259E+01
 -3.20926563E-02 -1.05361051E-13  2.01526553E-13  7.43067943E-01  2.87378702E-14
  7.27689690E-14  2.05008715E+00 -3.18177326E-13 -7.25023113E-14 -6.81433006E+00
  4.92571663E-02  1.12448271E-13  2.63415672E-14 -1.20921539E-11 -1.87892941E-13
  2.96401520E-01 -1.18351846E-13  4.06793269E-14  5.89104606E-12  8.82719653E-14
  4.40443139E-05 -1.22050402E-03  2.27281224E-03  6.65789246E-05  9.45504653E-14
  1.58955837E-13 -1.02921054E+00 -1.30253061E-13 -6.48065402E-14  7.44552823E+00
  4.22899167E-13  4.44473573E-13 -2.55388806E+01 -8.54673081E-05  1.98207955E-14
  4.92154062E-14 -1.11489611E-14  7.65906914E-14 -1.55030458E-04 -1.36777680E-13
  3.24146688E-13  1.69894140E-15 -4.16860840E-14 -6.86431444E-02 -5.35766179E+00
  3.43170019E+01  3.20194186E-02  1.13913108E-14  4.58415595E-13  7.43116133E-01
  1.12357148E-13 -5.37455440E-13  2.04952752E+00 -1.49547793E-13 -2.52067924E-13
 -6.81414283E+00 -4.92518712E-02  3.23357043E-14 -1.63800368E-14  1.21261110E-11
  2.66101116E-13 -2.96326697E-01 -3.19216009E-14  1.53334758E-13 -5.89675383E-12
 -8.73955104E-14  2.75881433E-01 -7.03444142E+00 -1.15225777E+01 -1.22264696E+00
 -2.64919789E-12  1.43211359E-12  6.35394385E-01  3.81046217E-12 -2.16613238E-12
 -4.61897689E+00 -3.08258112E-13 -5.21877330E-14 -3.70378034E+00 -4.87325434E-01
  2.15366741E-12 -1.07099185E-12  6.04901664E-11 -4.20683263E-13 -1.08019986E+00
  7.76772391E-13 -4.81743745E-13 -3.82014201E-11  2.71162358E-13 -7.07646478E-01
  1.44489718E+01  2.30244815E+01  2.30516844E+00  9.13854675E-13 -3.28255945E-13
 -1.12908127E-04 -5.57643781E-12  2.53048858E-12 -3.44925990E-04 -1.38054223E-13
  3.54254081E-13 -1.08573304E-03  1.07649567E+00  8.24882218E-16 -3.90260201E-14
 -1.01142707E-10  6.05313474E-13  1.91075653E+00 -2.64029596E-13 -2.57526483E-13
  6.89017617E-11 -4.11133969E-13  2.75963584E-01 -7.03351741E+00 -1.15190166E+01
 -1.22258041E+00 -2.91684941E-12  1.11866393E-12 -6.35386751E-01  4.33992895E-12
 -1.57744600E-12  4.61846194E+00 -2.42082028E-13  6.92761786E-15  3.70303811E+00
 -4.87216272E-01 -2.26605557E-12  9.64080078E-13  6.04593119E-11 -3.50722176E-13
 -1.08012838E+00 -8.62064834E-13  3.61462173E-13 -3.81864180E-11  2.38337113E-13
 -1.07220488E-12  2.69696259E-11  6.27380337E-11  4.82231144E-12 -7.45471327E-01
 -5.24188885E-14 -2.44787459E-12  1.09343734E+00  8.68257657E-14  1.74135364E-11
 -5.22787969E-02  1.31122366E-15  1.83113304E-11  1.77277282E-12  5.93249437E-01
  4.06002259E-14 -2.64911304E-13  8.61498600E-14  4.02988903E-12  2.25007410E-01
  1.84604943E-14  1.83149262E-13 -5.93976793E-14  2.92648908E-12 -5.61995407E-11
 -9.67791006E-11 -8.88875276E-12  2.01217583E-01  1.30595272E-14  8.65425840E-14
 -1.46884506E+00 -9.32110186E-14 -1.16607476E-12 -8.68401789E-02 -8.09030508E-15
  1.10827959E-11 -4.00736985E-12  6.04697467E-06 -1.29382876E-15  3.97977474E-13
 -1.33309745E-13 -8.09631023E-12 -5.74727139E-05  1.96691384E-14 -2.87435387E-13
  9.45562156E-14 -1.12632993E-12  2.87835554E-11  3.34568999E-11  4.70323170E-12
 -7.45557425E-01 -2.87520776E-14  2.34779815E-12  1.09353558E+00  4.34680625E-14
 -1.82773269E-11 -5.22655913E-02 -2.81651943E-15 -1.24872872E-11  1.85135719E-12
 -5.93224096E-01 -3.70831543E-14 -2.54892396E-13  7.88216848E-14  4.32647383E-12
 -2.25039777E-01 -1.09244972E-14  1.78465049E-13 -5.59228781E-14  4.91398444E-13
 -1.08269404E-11 -5.16283349E-11 -2.27554011E-12  4.43628459E-14 -7.45471327E-01
  1.26880491E-12 -5.40948422E-14  1.09343734E+00 -7.32273994E-12  1.12472173E-14
 -5.22787969E-02 -1.28385611E-11 -7.70977495E-13 -2.87552435E-14  5.93249437E-01
  2.85202886E-13  1.68948283E-13 -1.62712650E-12 -7.62199385E-15  2.25007410E-01
 -1.97548788E-13 -1.13672742E-13 -1.35352668E-12  2.54487776E-11  4.20338614E-11
  3.99279739E-12 -1.56570650E-14  2.01217583E-01 -2.32380347E-13  8.06188979E-14
 -1.46884506E+00  2.34757720E-12  3.73336013E-16 -8.68401789E-02 -2.32035713E-11
  1.80556080E-12  7.06901489E-15  6.04697467E-06 -4.35602284E-13 -2.54043529E-13
  3.60341616E-12  9.75361222E-15 -5.74727140E-05  3.13619721E-13  1.77896824E-13
  5.26560822E-13 -1.43288746E-11  9.79517049E-12 -1.99510848E-12  4.34464054E-14
 -7.45557425E-01 -9.31761526E-13 -7.09910491E-14  1.09353558E+00  8.81231977E-12
  1.63326308E-15 -5.22655913E-02  5.69420221E-13 -8.39283661E-13  3.13995946E-14
 -5.93224096E-01  2.85474523E-13  1.60769940E-13 -2.15613597E-12  1.61865177E-14
 -2.25039777E-01 -1.96991547E-13 -1.09962925E-13  7.91597140E-11 -1.46273034E-09
 -1.52431329E-09 -2.05697370E-10  3.20629298E-13 -3.54973719E-13  4.68093080E-11
 -4.66480926E-13  5.22899986E-13 -7.46503179E-10  1.48539644E-14 -2.58315589E-14
 -4.98285453E-10 -8.30360589E-11 -2.53472223E-13  2.85503439E-13 -5.99433991E-01
  3.63931641E-04 -1.64798726E-10 -9.98713310E-14  1.05960140E-13  4.14121381E-01
 -2.51423636E-04 -1.74575013E-10  2.62428177E-09  3.26149599E-09  3.39790230E-10
 -9.44238484E-14  9.14259605E-14 -3.60297743E-14  6.49598129E-13 -6.94635928E-13
 -4.36382691E-14  5.66930092E-14 -3.62989711E-14 -9.31886449E-13  1.44689095E-10
  1.95121992E-15 -3.19850362E-15  9.14286531E-01 -5.55086635E-04  4.99552980E-10
  1.22519163E-14  6.31201709E-15 -6.58026503E-01  3.99504647E-04  7.91640667E-11
 -1.46256997E-09 -1.52170791E-09 -2.05680858E-10  3.33384026E-13 -3.51320401E-13
 -4.67693006E-11 -4.93478546E-13  5.14164122E-13  7.46360844E-10  1.07054085E-14
 -2.91307601E-14  4.97749317E-10 -8.29825658E-11  2.56099749E-13 -2.84322369E-13
 -5.99371760E-01  3.63893859E-04 -1.64778483E-10  1.07471174E-13 -1.03823892E-13
  4.14089213E-01 -2.51404106E-04  1.46941292E-13 -3.90703755E-12 -8.60531795E-12
 -6.84255158E-13  9.73824322E-14  2.07359314E-13  4.07641272E-13 -1.40369885E-13
 -3.12189132E-13 -2.63578661E-12 -5.01202017E-15 -2.10148038E-14 -2.57477867E-12
 -2.63930755E-13 -8.40202893E-14 -1.72538589E-13  3.63931641E-04  5.99433991E-01
 -6.16130756E-13 -3.09430677E-14 -7.24162959E-14 -2.51423636E-04 -4.14121381E-01
 -4.17913866E-13  8.16751499E-12  1.42978899E-11  1.29633964E-12 -2.42669931E-14
 -4.59258802E-14 -1.51378781E-14  2.14412850E-13  4.10483757E-13  6.66884482E-14
  4.14076020E-14  8.60913032E-14 -1.08354286E-12  6.02159036E-13  1.45613112E-15
 -7.42859818E-15 -5.55086635E-04 -9.14286531E-01  1.09695214E-12  1.55612394E-14
 -8.38563331E-15  3.99504647E-04  6.58026503E-01  1.45849457E-13 -3.99473280E-12
 -5.72860434E-12 -6.76127664E-13  1.12488161E-13  2.04652856E-13 -3.77420436E-13
 -1.74382547E-13 -2.94760620E-13  2.64268658E-12 -1.26689472E-14 -1.93632306E-14
  2.00033228E-12 -2.46237957E-13  8.65780162E-14  1.60014070E-13  3.63893859E-04
  5.99371760E-01 -6.32039135E-13  4.43512996E-14  7.24536419E-14 -2.51404106E-04
 -4.14089213E-01 -5.74932511E-14  1.81405244E-12 -1.62157974E-11  3.04675518E-13
  1.07082484E+00  6.20167706E-14 -8.47530438E-15 -2.69976361E+00 -6.19885194E-14
  7.19196885E-13 -5.49502890E-01 -1.35735698E-13 -2.67871818E-12 -5.82146895E-14
 -4.02332876E-01  2.11546107E-13 -5.41505282E-15  2.86002537E-15  3.07142156E-13
 -7.34335787E-01 -1.71871397E-13  4.41039225E-15 -4.96376688E-15  2.75872697E-13
 -2.93855730E-12 -1.14896429E-11 -7.59704595E-13  6.94178978E-05 -4.96732634E-13
 -7.70499318E-14  6.75544458E-05  6.07163744E-13  1.50201077E-13 -4.75129878E-05
  2.73706760E-13 -1.63502549E-11 -7.27634918E-14 -3.14349586E-01  2.10968364E-14
  5.22815797E-15 -9.33822967E-15 -8.72004219E-13 -2.75069644E+00  1.49243009E-13
 -6.17179343E-15  9.59872768E-15 -8.03247346E-14  1.70231665E-12  2.72722879E-11
  5.58530301E-13 -1.07082771E+00  1.91494757E-13  2.22629336E-13  2.69964645E+00
 -3.67095511E-13 -1.03260366E-12  5.49564916E-01 -1.84234699E-13 -6.16753883E-12
  9.07615778E-14 -4.02201781E-01 -1.50878110E-13 -3.17732023E-15  3.10977505E-15
  1.58756392E-13 -7.34411890E-01  2.39775206E-13  3.88250954E-15 -5.96678018E-15
  4.17487753E-14 -1.61453920E-12  2.23447204E-11 -6.04265048E-14 -3.13623805E-14
 -1.07082484E+00 -2.17889808E-14  1.21807128E-13  2.69976361E+00 -4.54958137E-13
  4.47655063E-15  5.49502890E-01  4.01611972E-12  1.44438982E-13  4.90464341E-14
  4.02332876E-01  3.03139960E-15  3.70127420E-15 -2.69193471E-13  9.65325019E-15
  7.34335787E-01 -1.85570050E-15 -2.36990910E-15 -3.48675958E-13  2.92549936E-12
  1.08179291E-11  3.47795473E-13 -8.63631771E-14 -6.94178977E-05  9.67880153E-14
  1.32075128E-13 -6.75544459E-05  1.70765306E-13  6.90120208E-14  4.75129878E-05
  2.06509626E-11  5.95233062E-14  2.29234934E-14  3.14349586E-01 -1.60893750E-16
 -2.89312958E-15  9.67061074E-13  1.86442661E-13  2.75069643E+00  9.33715136E-16
  2.62624675E-15  9.30012820E-14 -2.07713300E-12 -3.26186004E-11 -3.94838564E-13
  9.50115902E-14  1.07082771E+00 -2.85771058E-13 -2.30768869E-13 -2.69964645E+00
  1.24630549E-12 -8.07527616E-14 -5.49564916E-01  7.18816180E-12 -1.06437152E-13
 -2.51902023E-15  4.02201781E-01  8.39296839E-16  1.31419438E-15 -1.49441702E-13
  9.83746146E-14  7.34411890E-01 -5.64730594E-16 -1.60585217E-15 -3.02433527E-14
  5.09752979E-13 -2.23690309E-11 -3.63405385E-13  3.34633426E-01  8.18071590E-14
  3.66785034E-14 -6.14218707E-01 -1.67507215E-13  4.68909160E-13 -7.33117563E-01
  1.49621729E-15 -5.07274837E-12  1.03013162E-13  4.71878899E-01 -2.09536197E-14
  5.47427172E-15  8.00209222E-16  1.28731055E-13 -6.57394709E-01 -2.98153000E-14
 -3.65563277E-15 -3.17159373E-15 -1.83070720E-13  2.73423038E-12  1.29463839E-11
  5.03399194E-13 -1.26136753E+00  1.70152031E-14 -1.01517650E-13  1.71644690E+00
 -2.92557318E-14  2.77355481E-12  1.29769429E+00 -5.69973027E-14 -1.23728265E-11
  1.25166780E-13 -8.14251299E-05 -2.84653910E-15 -5.66347077E-15 -3.03794787E-15
  8.80299843E-13 -1.73401834E-04 -1.73140527E-13  4.28172902E-15  6.91574580E-15
  1.01393306E-13 -3.92525776E-12  9.91837912E-12 -2.43101844E-13  3.34514810E-01
 -7.70627527E-14 -8.49608053E-14 -6.13820941E-01  1.77613983E-13  2.15198489E-12
 -7.33017573E-01  6.50537672E-14 -1.17782998E-12 -2.34729637E-13 -4.71969311E-01
 -6.48519652E-15  3.01299624E-15  6.44111118E-15 -5.32087553E-13  6.57284781E-01
 -6.13797296E-14 -2.36883261E-15 -6.45843278E-15  3.19660114E-14 -7.51789354E-13
 -5.52622317E-12 -2.29846844E-13  4.27541315E-13 -3.34633426E-01  9.97994655E-14
 -1.09110793E-12  6.14218707E-01 -7.10640472E-13 -2.22748844E-13  7.33117563E-01
 -1.03804768E-12 -1.18979225E-13 -1.48778243E-13 -4.71878899E-01 -6.56422295E-15
 -5.18082328E-15 -1.07558658E-13 -2.98563875E-13  6.57394709E-01  3.29906998E-15
  9.86076200E-15  4.31267921E-14 -8.77542935E-13 -3.87728686E-12  3.56834230E-13
  1.36000011E-14  1.26136753E+00  1.04645191E-14 -2.19613855E-14 -1.71644690E+00
 -1.70750786E-12 -8.30564350E-15 -1.29769429E+00 -5.39884126E-12 -4.63147192E-14
 -1.01076769E-13  8.14251299E-05  3.36085571E-15  8.23486603E-15 -3.58946673E-13
 -1.13376899E-12  1.73401833E-04 -2.44633943E-15 -1.53750232E-14 -6.79215707E-14
  2.08520590E-12  9.11587346E-12 -9.09716945E-14 -4.43524383E-13 -3.34514810E-01
  9.49124978E-14  1.11302505E-12  6.13820941E-01 -1.24240788E-12  2.30444468E-13
  7.33017573E-01 -2.10259313E-12  2.14872437E-13 -1.38079416E-13  4.71969311E-01
 -3.07431324E-16 -3.48654334E-15  1.75002258E-13 -3.13482434E-13 -6.57284781E-01
  7.14690945E-16  8.54556063E-15 -3.75909244E-01  1.21967431E+01  5.08840565E+00
  2.72772552E-01  1.36564472E-14  1.15258745E-13 -4.95286818E-01 -4.24421069E-14
 -3.13339115E-13  7.88475997E+00  2.54246558E-13  1.23281740E-13  1.94533808E+00
  1.06602384E+00 -7.03552329E-14 -9.76342981E-14 -4.00995206E-12  7.05385674E-15
  1.52436942E+00  1.21611342E-13  9.96739461E-15  2.29839672E-12  4.99372895E-15
 -7.71007050E-05 -9.61759648E-04  1.33755354E-03  1.31351575E-04  1.97037169E-13
  2.00079822E-13 -3.84218909E-01 -4.36182334E-13 -3.33809513E-13  1.50433271E+01
 -5.65660619E-13 -4.68506982E-13  2.55039065E+00 -3.27838068E-05 -2.38597301E-15
  8.77960018E-15  1.35859381E-14 -8.29895424E-15  1.97784841E-05 -2.47968056E-13
 -4.84724746E-13 -1.66841815E-14 -6.63492664E-15  3.76080794E-01 -1.21957700E+01
 -5.08975570E+00 -2.72918563E-01 -1.80856542E-13 -2.14524232E-13 -4.95383154E-01
  4.13059839E-13  5.40479804E-13  7.88458342E+00  3.68404846E-13  3.95624461E-13
  1.94578097E+00 -1.06609979E+00  4.71084178E-14  8.05428961E-14  3.98509813E-12
  5.48852083E-15 -1.52442163E+00 -2.62132689E-13 -3.18618536E-13 -2.27273450E-12
  7.92569425E-15 -5.59756220E-01  6.45599556E+00  3.92745097E+00  1.13276205E-01
  1.36832413E-14  1.35673105E-13  1.52826954E-01 -8.39627001E-14 -4.04651004E-13
  3.78067626E+00 -6.31277448E-14 -1.95490180E-14  1.23282700E+00  1.34149759E+00
  8.19890431E-15 -8.02822590E-14 -5.72287343E-12 -7.57467132E-15  5.22092750E-01
 -3.37166690E-14 -1.01696672E-13  7.08770704E-12  1.47287255E-14 -6.85024880E-01
 -1.15115130E+01 -8.31981452E+00 -1.49212586E-01  1.88514811E-14 -3.84021123E-14
  1.48754864E-05 -1.04083080E-13  9.28616003E-14  7.11519100E-04  3.50140171E-14
 -1.20544605E-13 -2.82537496E-05 -8.87280670E-01 -1.55159944E-14 -6.95359097E-14
  5.48245274E-12  1.68312912E-14 -1.33029303E+00 -1.61953766E-13 -3.74689534E-13
 -1.02835920E-11 -2.60392684E-14 -5.59802003E-01  6.45456743E+00  3.92719388E+00
  1.13243547E-01 -1.14019205E-13 -6.13595250E-14 -1.52792168E-01  2.40316992E-13
  2.80656181E-13 -3.77990355E+00  5.07457049E-15  1.60958364E-13 -1.23269635E+00
  1.34139765E+00 -4.09544140E-14 -4.72715552E-14 -5.71834700E-12 -1.87850796E-14
  5.21949297E-01 -6.86879127E-14 -9.96091336E-14  7.08568801E-12  2.01790249E-14
 -2.21002155E-14  1.80328726E-13 -1.17285708E-11 -2.98970354E-13 -3.64976073E-01
 -4.87532387E-14 -2.34708244E-16 -5.67319702E-01 -1.60012044E-14  1.16344093E-13
  2.50727917E-02  8.83302766E-14 -2.58030433E-12 -2.77426821E-15 -9.26360458E-01
 -9.68631441E-14  3.74402751E-16  1.11725949E-15  6.14533978E-14  6.26504921E-02
  4.89922234E-14 -2.60659750E-16  1.33633246E-15 -4.15752682E-14  7.34070811E-13
  4.43613958E-12  4.74290663E-13  8.29443583E-05  2.90552903E-14 -5.35401891E-14
  1.68510594E-05 -8.64772763E-14  7.95370223E-13 -2.28548022E-05 -1.65499292E-13
 -7.28647945E-12  5.57581690E-14 -1.53381183E+00 -1.45539186E-13  5.18691680E-16
  1.57729126E-15  2.37634376E-13 -4.32633546E-01 -4.00533307E-14 -1.49996710E-16
 -2.71950642E-15  8.77722012E-15 -1.05206373E-12  7.40617626E-12 -2.07742806E-13
  3.64895863E-01  2.71108023E-14  6.40830542E-15  5.67299899E-01  8.32569811E-14
  5.60217808E-13 -2.50485446E-02  9.40168372E-14 -1.20134485E-12 -3.88159954E-14
 -9.26287198E-01 -8.22423167E-14  2.38537904E-15 -2.53420553E-15 -1.81428785E-13
  6.26299747E-02 -4.20762392E-14 -1.29072013E-15  2.26281418E-15 -1.49430393E-14
 -4.22183515E-13 -1.14083582E-11  1.44382151E-13 -4.49423825E-14  3.64976073E-01
  4.44775121E-14 -2.61769669E-14  5.67319702E-01 -2.46495592E-13  4.94561554E-14
 -2.50727917E-02 -2.43734287E-12  6.73384327E-15 -8.87412598E-14  9.26360458E-01
 -1.11172898E-15  4.13807236E-15  1.54720055E-15  3.01747925E-14 -6.26504921E-02
  1.95943769E-16 -9.75351613E-15 -3.69912877E-14 -1.64830772E-13  1.90417266E-12
 -4.59441184E-13  2.34774710E-14 -8.29443583E-05  4.38031935E-14 -6.72880496E-14
 -1.68510594E-05 -4.84933851E-13 -1.07210657E-13  2.28548021E-05 -7.87032347E-12
 -9.90956049E-15 -1.42667765E-13  1.53381183E+00 -1.33035282E-16 -6.80688915E-15
  1.42268151E-13 -4.60089946E-14  4.32633546E-01 -3.38593566E-16  1.57910058E-14
 -3.52478383E-14  3.47152549E-13  9.67463486E-12  3.01966621E-13  2.87120097E-14
 -3.64895863E-01  6.52917319E-14  7.68598965E-14 -5.67299899E-01 -3.69062504E-13
  6.96201536E-14  2.50485446E-02 -1.94624585E-12  5.01530996E-14 -7.84287726E-14
  9.26287198E-01 -2.66200333E-15  3.89721652E-15  4.02255231E-14 -3.53114960E-14
 -6.26299747E-02  1.09813312E-15 -9.92613357E-15  1.56260484E-01 -6.14239393E+00
 -4.98263247E+00 -1.90795859E-01  1.17529436E-14 -5.61335870E-16 -6.52227581E-01
 -2.85467129E-14  6.91882475E-14 -3.59514305E+00 -1.14143745E-13 -4.82456408E-14
 -1.22306900E+00 -1.13944028E+00  1.45767011E-14  3.98856158E-14  1.05930661E-12
 -9.63034484E-16 -5.36800276E-01 -4.93750143E-14 -5.87456140E-15 -5.26422807E-13
 -2.28192800E-15  1.39439037E-04  1.08087850E-03  6.17282421E-07 -3.11015209E-05
 -1.47932012E-14 -8.52221219E-15 -1.71012411E+00  8.50294453E-14  3.47365846E-14
 -6.56138510E+00  2.08746256E-13  1.54616296E-13 -3.82943350E+00  6.40244982E-05
  1.77973177E-14  5.12913434E-14 -3.01133617E-15  1.85249840E-15  7.06084278E-05
  9.12618142E-15  9.98240983E-14  6.77138887E-15  2.61520352E-15 -1.56339715E-01
  6.14121743E+00  4.98267433E+00  1.90823775E-01  1.29829088E-14 -1.72592068E-15
 -6.52061894E-01 -4.72395100E-14 -8.63898478E-14 -3.59467656E+00 -1.17053160E-13
 -1.18885236E-13 -1.22313333E+00  1.13933829E+00  5.67110090E-15  1.58169890E-14
 -1.05314907E-12 -7.08472015E-16  5.36759762E-01  5.07235135E-14  6.12351181E-14
  5.16618102E-13 -2.86382087E-15 -4.78982677E-01 -9.71023352E+00 -5.35091699E+00
  4.60444386E-01 -6.45690836E-15 -7.40492627E-14 -1.44797276E+00  9.17027007E-14
  2.36834037E-13 -3.71887139E+00  5.89890304E-14 -6.54050916E-14 -1.58279061E+00
 -9.85347501E-01  9.46822958E-15  2.64390531E-14  1.60415772E-13  4.69177631E-16
 -4.10771515E-01  3.38389985E-14  4.10977636E-14 -1.62421187E-12 -1.35544206E-14
 -9.50558784E-01  1.60601414E+01  1.29433343E+01 -1.13136882E+00 -5.68193987E-15
  7.38558500E-15 -1.13765135E-04  7.75971617E-14  2.47886708E-15  5.45020737E-04
 -2.56452997E-14  2.67254475E-13 -4.85790317E-04  2.95156820E+00  3.80095065E-14
  1.36187051E-15  5.31561275E-13 -9.45507875E-15  3.62503907E+00  1.59734726E-13
  2.67209660E-13 -1.07863297E-12  2.63541145E-14 -4.78696041E-01 -9.71093351E+00
 -5.34960386E+00  4.60404791E-01  7.30226186E-14  3.57187185E-14  1.44784479E+00
 -2.10934841E-13 -1.92471614E-13  3.71960379E+00 -1.37139587E-14 -2.37199022E-13
  1.58265714E+00 -9.85496757E-01  4.70344403E-14 -4.70484358E-15  1.56622753E-13
  1.23174469E-14 -4.10930702E-01  6.36080653E-14  1.24992091E-13 -1.62209571E-12
 -2.02738294E-14
Alpha Orbital Energies                     R   N=          69
  1.96139838E+00  1.00000000E+00  3.86016192E-02  0.00000000E+00  0.00000000E+00
  0.00000000E+00  0.00000000E+00  0.00000000E+00  0.00000000E+00  0.00000000E+00
  0.00000000E+00  0.00000000E+00  0.00000000E+00  0.00000000E+00  0.00000000E+00
  0.00000000E+00  0.00000000E+00  0.00000000E+00  0.00000000E+00  0.00000000E+00
  0.00000000E+00  0.00000000E+00  0.00000000E+00  0.00000000E+00  0.00000000E+00
  0.00000000E+00  0.00000000E+00  0.00000000E+00  0.00000000E+00  0.00000000E+00
  0.00000000E+00  0.00000000E+00  0.00000000E+00  0.00000000E+00  0.00000000E+00
  0.00000000E+00  0.00000000E+00  0.00000000E+00  0.00000000E+00  0.00000000E+00
  0.00000000E+00  0.00000000E+00  0.00000000E+00  0.00000000E+00  0.00000000E+00
  0.00000000E+00  0.00000000E+00  0.00000000E+00  0.00000000E+00  0.00000000E+00
  0.00000000E+00  0.00000000E+00  0.00000000E+00  0.00000000E+00  0.00000000E+00
  0.00000000E+00  0.00000000E+00  0.00000000E+00  0.00000000E+00  0.00000000E+00
  0.00000000E+00  0.00000000E+00  0.00000000E+00  0.00000000E+00  0.00000000E+00
  0.00000000E+00  0.00000000E+00  0.00000000E+00  0.00000000E+00
Beta Orbital Energies                      R   N=          69
  1.96139838E+00  1.00000000E+00  3.86016192E-02  0.00000000E+00  0.00000000E+00
  0.00000000E+00  0.00000000E+00  0.00000000E+00  0.00000000E+00  0.00000000E+00
  0.00000000E+00  0.00000000E+00  0.00000000E+00  0.00000000E+00  0.00000000E+00
  0.00000000E+00  0.00000000E+00  0.00000000E+00  0.00000000E+00  0.00000000E+00
  0.00000000E+00  0.00000000E+00  0.00000000E+00  0.00000000E+00  0.00000000E+00
  0.00000000E+00  0.00000000E+00  0.00000000E+00  0.00000000E+00  0.00000000E+00
  0.00000000E+00  0.00000000E+00  0.00000000E+00  0.00000000E+00  0.00000000E+00
  0.00000000E+00  0.00000000E+00  0.00000000E+00  0.00000000E+00  0.00000000E+00
  0.00000000E+00  0.00000000E+00  0.00000000E+00  0.00000000E+00  0.00000000E+00
  0.00000000E+00  0.00000000E+00  0.00000000E+00  0.00000000E+00  0.00000000E+00
  0.00000000E+00  0.00000000E+00  0.00000000E+00  0.00000000E+00  0.00000000E+00
  0.00000000E+00  0.00000000E+00  0.00000000E+00  0.00000000E+00  0.00000000E+00
  0.00000000E+00  0.00000000E+00  0.00000000E+00  0.00000000E+00  0.00000000E+00
  0.00000000E+00  0.00000000E+00  0.00000000E+00  0.00000000E+00
Total SCF Density                          R   N=        2415
  6.34799129E-02  1.27212709E-01  2.62966049E-01  9.99563303E-02  2.10815700E-01
  1.74325170E-01  7.47243252E-03  1.41967879E-02  1.08442608E-02  9.57749007E-04
 -3.31978003E-18 -8.34383552E-18 -6.70623646E-18 -2.05255402E-19  6.97318187E-34
  1.89035039E-17  4.46240679E-17  3.48041895E-17  1.46002891E-18 -3.27285869E-33
  1.57489232E-32  2.21085651E-03  3.71671943E-03  2.29845785E-03  3.21933148E-04
 -2.25133969E-20  3.54072932E-19  1.59883318E-04  3.50660519E-18  1.44761812E-17
  1.25656153E-17 -3.88695693E-19 -2.36893134E-33  1.04804721E-32 -3.29338931E-19
  9.37418540E-33 -1.52272067E-16 -3.75011573E-16 -3.26403011E-16 -1.10201289E-17
  2.37483811E-32 -1.09539918E-31  5.35904653E-19 -7.71627371E-32  9.79711190E-31
  4.88702954E-03  1.01180718E-02  6.91112212E-03  5.07875411E-04 -6.00712668E-19
  3.15536135E-18  2.35661519E-04  1.59002701E-18 -1.63271529E-17  8.46147992E-04
  1.26942669E-15  2.39317132E-15  1.71613941E-15  1.61474684E-16 -5.42700433E-32
  3.52675171E-31  6.42846945E-17  2.56241400E-33 -1.86050221E-30  1.24001986E-16
  3.05063508E-29 -8.64802751E-17 -5.60974707E-17  2.91352186E-17 -2.11693068E-17
 -1.73878591E-32  5.83663359E-32 -1.43660206E-17  9.37344830E-32 -7.93996636E-31
 -6.47833878E-18 -4.25128074E-30  1.87320838E-30  6.98122953E-03  1.53739799E-02
  1.16574445E-02  6.53741429E-04 -9.18553861E-19  4.59238953E-18  2.09510927E-04
  2.63393535E-18 -3.04667543E-17  1.02602854E-03  1.44297696E-16  6.36169133E-18
  1.41590922E-03  6.45121132E-04  1.10344756E-03  6.85955741E-04  9.18254343E-05
 -1.27205148E-20  1.30379407E-19  4.57111044E-05 -7.05731763E-20 -2.21136343E-20
  7.31082525E-05  1.86566152E-17 -3.95161649E-18  6.77829640E-05  1.31359764E-05
 -3.65348763E-17 -6.60329390E-17 -4.18059211E-17 -4.80759462E-18  1.84911328E-33
 -1.23322377E-32 -2.40457200E-18 -6.98018586E-34  3.45186575E-32 -4.91572048E-18
 -1.03491622E-30  1.78423291E-31 -5.04768432E-18 -7.03480195E-19  3.99862269E-32
 -7.06830838E-18 -2.06748526E-17 -1.97571929E-17 -2.05144471E-19  1.71362614E-33
 -7.43209565E-33  3.41210944E-19 -6.32966074E-33  7.33958845E-32 -7.63693880E-19
 -1.61202346E-32 -8.57808283E-32 -1.85744616E-18  8.45730378E-20 -1.97966610E-33
  6.06648205E-33  1.24517279E-12  2.37065802E-12  1.86645001E-12  1.60689005E-13
 -2.31272597E-29  1.84946020E-28  4.90751797E-14 -1.04789631E-28 -1.80151159E-27
  6.48283788E-14  2.53970548E-26 -3.25559779E-27  9.08464718E-14  1.38227770E-14
 -6.91881321E-28 -4.01132355E-29  2.78377244E-23  7.69766754E-18  1.29987241E-17
  8.26979410E-18  1.12097063E-18 -4.67794841E-35  1.05549018E-33  5.36596273E-19
 -1.25420897E-33  1.64357852E-33  7.50555088E-19  2.17612728E-31 -4.84516949E-32
  6.70971745E-19  1.52866261E-19 -7.94147607E-33  1.13413225E-33  1.74082694E-28
  1.81025239E-33  2.93973331E-04  8.80553786E-04  6.88773971E-04  1.76793614E-06
 -1.12269896E-19  5.15462272E-19 -3.54567165E-06  4.17344861E-19 -3.46832438E-18
  9.30709969E-05  4.56686599E-18  3.26629024E-18  1.38092552E-04  1.11325036E-07
 -2.15996834E-19 -2.63312239E-19 -2.09399879E-15 -1.95267684E-20  1.94677987E-05
  2.45783433E-16  4.72248884E-16  3.42676735E-16  3.03674103E-17 -1.26582495E-32
  7.71854268E-32  1.17521566E-17  9.76718821E-33 -4.39320272E-31  2.48294988E-17
  5.77248411E-30 -6.98046681E-31  2.99065896E-17  3.43414684E-18 -1.94849054E-31
 -1.02800003E-32  4.75314788E-27  3.97067405E-32  1.26593212E-18  1.10199430E-30
 -5.42611155E-17 -1.06645423E-16 -8.33735290E-17 -6.60984169E-18  2.24364929E-33
 -1.36103939E-32 -2.02346985E-18 -4.91749546E-34  1.10970445E-31 -3.83951494E-18
 -1.10640346E-30  1.01930460E-31 -5.36703256E-18 -5.83529236E-19  3.17734900E-32
  4.36991683E-33 -1.11122933E-27 -7.07020614E-33 -1.42832776E-19 -2.11647780E-31
  4.70667646E-32 -2.38257046E-11 -4.82308054E-11 -3.91152331E-11 -2.78643354E-12
  1.12681466E-27 -6.36088824E-27 -7.11412930E-13 -9.51093517E-28  5.99408230E-26
 -1.48884241E-12 -4.41502439E-25  2.17505996E-26 -2.35800268E-12 -2.05869987E-13
  1.13673462E-26  3.08023030E-27 -4.80599236E-22 -2.53823286E-27 -8.10403238E-14
 -8.56500320E-26  2.04417606E-26  9.26322203E-21  5.02037772E-17  1.02474141E-16
  7.29375853E-17  5.47428769E-18 -4.97807359E-33  2.66235073E-32  2.25015352E-18
  1.17186995E-32 -1.49274363E-31  7.17418546E-18  1.19802779E-30 -7.34107041E-32
  8.90567577E-18  6.86317537E-19 -4.41672348E-32 -6.79500530E-33  7.71764468E-28
  7.33611019E-33  7.15512758E-19  2.37291213E-31 -4.06338964E-32 -1.63717513E-26
  6.30306827E-32  3.97603613E-02  6.37219458E-02  3.61080408E-02  6.05760684E-03
 -1.11301899E-20  5.10581028E-18  3.24216123E-03 -7.84758813E-18  3.50761162E-17
  4.54610882E-03  1.24539372E-15 -3.08207740E-16  3.64154603E-03  9.25157030E-04
 -4.83071662E-17  8.70595391E-18  9.06286676E-13  1.08361027E-17 -1.21214929E-04
  2.25626664E-16 -3.69626114E-17 -1.22592721E-11  4.28143873E-17  6.65280373E-02
  5.44106857E-02  7.47376550E-02  3.64215543E-02  9.59477484E-03  3.36558760E-18
 -7.37794267E-18  5.28619891E-03 -2.50836673E-17  1.61257658E-16  4.46795524E-03
  1.84959096E-15 -5.91143238E-16  1.65292930E-03  1.47475846E-03 -7.07019107E-17
  2.18945829E-17  1.50472101E-12  1.78941062E-17 -7.78509191E-04  3.21845227E-16
 -5.45219163E-17 -1.70232425E-11  4.68470457E-17  1.09970441E-01  1.99149617E-01
 -7.83570538E-03 -3.77137407E-02 -3.33351182E-02  1.44047525E-03  6.82610381E-18
 -3.00011960E-17  1.07536847E-03 -2.74065420E-17  2.21680667E-16 -4.43499164E-03
  4.78246838E-17 -2.81105373E-16 -7.43995338E-03  2.38899514E-04  2.47675031E-19
  1.84288601E-17  3.55269014E-13  4.05100553E-18 -1.21266580E-03 -1.80657973E-17
 -6.67868751E-19  1.91739123E-12 -3.21420226E-17  2.50924037E-02  7.65362349E-02
  8.02280103E-02 -8.02556032E-03 -1.33418225E-02 -7.78826400E-03 -1.17248830E-03
  1.32364474E-19 -1.58347631E-18 -6.21738244E-04  1.03194838E-18 -2.72134357E-18
 -9.85110847E-04 -2.45789273E-16  5.56931476E-17 -8.63222115E-04 -1.78710075E-04
  9.57394650E-18 -1.37317684E-18 -1.72752477E-13 -2.06929076E-18  8.88392361E-07
 -4.50390689E-17  7.30920790E-18  2.46500179E-12 -9.09403250E-18 -1.27001559E-02
 -2.03247794E-02 -3.44079053E-03  2.45018008E-03  4.01745526E-17  7.86058153E-17
  5.71324858E-17  4.80506782E-18 -2.53378255E-33  1.46646365E-32  1.85218003E-18
  3.52277872E-33 -8.51832186E-32  4.39126026E-18  9.36531850E-31 -9.62138605E-32
  5.39304024E-18  5.46751998E-19 -3.20286004E-32 -2.80017830E-33  7.39297283E-28
  6.21741543E-33  2.93625936E-19  1.80612538E-31 -3.40736461E-32 -1.38650229E-26
  4.10662086E-32  3.53556278E-17  4.75732070E-17 -8.60334523E-18 -7.16767760E-18
  3.00167550E-32  2.28291708E-17  4.22590700E-17  2.81305998E-17  2.92839891E-18
 -1.20437953E-33  7.71246187E-33  1.35900533E-18  7.68272725E-34 -2.92085277E-32
  2.84614303E-18  6.09125279E-31 -9.42825014E-32  3.07418300E-18  3.97966747E-19
 -2.27012627E-32  4.03224421E-34  4.31974633E-28  4.51189978E-33  1.37026449E-19
  1.15317969E-31 -1.97413981E-32 -7.37552283E-27  2.59485052E-32  2.69642029E-17
  3.89502303E-17 -1.17622015E-18 -5.36379724E-18  1.89767695E-32  1.30361721E-32
 -3.13889125E-03 -6.71485111E-03 -6.13458910E-03 -3.47340928E-04  1.07619757E-19
 -5.38523540E-19 -2.19008921E-05 -2.99043482E-20  1.02819922E-17 -1.80401478E-05
 -3.77458168E-17 -4.31881724E-18 -1.90283124E-04 -5.50437896E-06  1.65633492E-19
  7.16444823E-19 -6.86841901E-14 -1.17427145E-19  9.82384402E-07 -7.53478747E-18
  2.70591879E-18  1.39606590E-12 -8.76686593E-19 -2.53947962E-07 -3.60119013E-07
 -2.09862701E-07  4.33960004E-08 -1.16107838E-18 -2.96314634E-19  3.04538047E-04
 -4.34172915E-16 -8.61239937E-16 -6.50257518E-16 -5.13131865E-17  2.58499442E-32
 -1.47684691E-31 -1.76107319E-17 -3.42138504E-32  9.96854602E-31 -4.13254977E-17
 -9.43308993E-30  8.02733782E-31 -5.40478188E-17 -5.18263787E-18  3.01041168E-31
  4.03988150E-32 -8.18356390E-27 -5.99455074E-32 -2.75059697E-18 -1.82497863E-30
  3.68844582E-31  1.55826656E-25 -3.99773342E-31 -3.27990127E-16 -4.39959614E-16
  8.25762277E-17  6.65463752E-17 -3.01728754E-31 -1.82206496E-31  1.66495465E-17
  3.12852140E-30 -1.92822260E-16 -3.95479010E-16 -3.08369275E-16 -2.16084153E-17
  1.36201889E-32 -7.34239142E-32 -6.46450314E-18 -2.50508932E-32  5.51850973E-31
 -1.78970249E-17 -3.87612959E-30  1.57204230E-31 -2.53116167E-17 -1.92871814E-18
  1.16943767E-31  2.85614346E-32 -3.48871243E-27 -2.21481086E-32 -1.56683148E-18
 -7.63231706E-31  1.60968669E-31  7.07719201E-26 -1.73618593E-31 -1.15289526E-16
 -1.36355176E-16  6.59449803E-17  2.40952048E-17 -1.27970978E-31 -7.26363878E-32
  8.59781736E-18  1.35740102E-30  6.11731914E-31 -3.76374691E-03 -8.05158245E-03
 -7.35586660E-03 -4.16486039E-04  1.29033873E-19 -6.45673895E-19 -2.62552716E-05
 -3.58239314E-20  1.23288524E-17 -2.16114211E-05 -4.52581349E-17 -5.17895708E-18
 -2.28145447E-04 -6.59842251E-06  1.98486760E-19  8.59079394E-19 -8.23580377E-14
 -1.40787752E-19  1.18009813E-06 -9.03439410E-18  3.24459100E-18  1.67399639E-12
 -1.05106563E-18 -1.82643614E-07 -3.00570515E-07 -3.47367667E-07  2.60704401E-08
 -1.39214815E-18 -3.55240746E-19  3.65173605E-04  1.99635685E-17  1.03092699E-17
  4.37882109E-04 -2.48491047E-15 -4.71974412E-15 -3.42265972E-15 -3.13207966E-16
  1.09632070E-31 -6.99240568E-31 -1.21360489E-16 -2.28703674E-32  3.92145382E-30
 -2.37569280E-16 -5.85914432E-29  7.74422535E-30 -2.82273060E-16 -3.52450895E-17
  1.95998876E-30  6.06215476E-32 -4.95449937E-26 -4.11685146E-31 -9.36738115E-18
 -1.11140484E-29  2.16029786E-30  8.71619779E-25 -2.30669765E-30 -2.33746279E-15
 -3.44674932E-15 -3.98655889E-17  4.62269935E-16 -1.80513220E-30 -1.15939868E-30
  7.92120705E-17  1.83077323E-29  7.58844207E-30  9.49777555E-17  1.12739256E-28
 -4.40889068E-16 -1.21275504E-15 -1.20147916E-15 -2.23082762E-17  7.47684547E-32
 -3.16861163E-31  1.98861396E-17 -2.64862756E-31  3.80719279E-30 -1.82212059E-17
 -5.83389593E-31 -4.49183381E-30 -7.77027287E-17  5.25472372E-18 -1.92617698E-31
  3.18629499E-31 -5.19169251E-27  6.22682651E-32 -1.02575509E-17 -4.47887909E-31
  3.07182279E-31  2.08516661E-25 -2.19732669E-31  5.13063177E-16  1.13346358E-15
  7.69480128E-16 -8.69613197E-17 -1.13658053E-31  6.25862726E-32  5.44940955E-17
  2.12882003E-30  1.54009090E-30  6.53440204E-17  2.99844071E-30  1.83969220E-29
  9.66703851E-04  2.06804526E-03  1.88884698E-03  1.06954852E-04 -3.32655475E-20
  1.66470048E-19  6.78129722E-06  9.66080900E-21 -3.16761574E-18  5.74651354E-06
  1.16376495E-17  1.32865452E-18  5.87873156E-05  1.70737849E-06 -5.19755348E-20
 -2.20654930E-19  2.11418441E-14  3.62615610E-20 -2.77117793E-07  2.32324589E-18
 -8.33245635E-19 -4.29805688E-13  2.71346096E-19  8.99715997E-07  6.69320144E-07
 -1.23940641E-06 -2.00964535E-07  3.58147240E-19  9.17541112E-20 -9.36923167E-05
 -5.13105288E-18 -2.64907141E-18 -1.12347078E-04 -2.44179657E-17 -1.67721202E-17
  2.88248532E-05  5.43685030E-04  1.07153712E-03  7.02394703E-04  6.18671130E-05
 -5.44621377E-20  3.00583792E-19  3.06911506E-05  1.23121332E-19 -1.33962011E-18
  9.03332671E-05  1.46960002E-17 -1.49395070E-18  1.03297402E-04  9.29866276E-06
 -5.86783119E-19 -4.12725209E-20  8.14358588E-15  9.89409896E-20  8.18403038E-06
  2.87519592E-18 -4.42139263E-19 -1.63662578E-13  7.74125077E-19  6.05689884E-04
  7.22173978E-04 -3.34753464E-04 -1.26364953E-04  4.96484636E-19  3.35791548E-19
  8.05310323E-10 -4.62778686E-18 -1.92049677E-18  3.20281608E-09 -2.79797811E-17
  8.74039160E-20  2.00766569E-08  9.99682816E-06 -3.30370868E-18 -4.87091443E-18
  1.98656480E-18 -4.12414743E-19  9.27157200E-34 -5.30571250E-33 -6.52926244E-19
 -2.69341429E-33 -6.20100404E-35 -2.03625555E-18 -2.30147678E-31  4.85017717E-32
 -1.81671466E-18 -2.00914540E-19  1.31713847E-32 -1.22616462E-33  1.34797984E-29
 -1.96746419E-33 -1.89751522E-19 -4.44962563E-32  2.25267870E-33 -3.45660469E-28
 -1.53211404E-32 -1.41818504E-17 -1.70533975E-17  7.54779244E-18  2.95323059E-18
 -8.08289465E-33 -6.93501436E-33 -9.05517187E-19  5.80083986E-32  1.89548374E-32
 -1.08586351E-18  4.16173617E-31 -1.66447654E-31  2.78116625E-19 -2.31765984E-19
  8.06627783E-33 -7.97990225E-18 -1.83848768E-17 -1.70438029E-17 -7.47780672E-19
  6.12022927E-34 -2.79069587E-33  3.99937145E-20 -1.52202562E-33  3.79634628E-32
 -2.01013930E-19 -7.85384545E-32 -2.91308310E-32 -8.06735145E-19  1.00290702E-20
 -2.18823702E-34  2.87640020E-33 -1.48418785E-28  4.12436985E-35 -5.82752750E-20
 -1.73391675E-32  6.48028011E-33  3.54686024E-27 -3.25663843E-33  2.13323890E-18
  5.23689438E-18  4.25686415E-18 -3.41413197E-19 -2.94779010E-33 -4.57246879E-34
  7.89857094E-19  4.27276717E-32  2.39409817E-32  9.47119911E-19  1.71544591E-31
  1.85897648E-31 -2.43054999E-19 -8.04888244E-21 -2.17426446E-33  2.28548761E-33
  5.09511777E-13  9.36584941E-13  5.87793402E-13  6.50576615E-14 -3.26997869E-29
  2.03765896E-28  3.33684350E-14  3.75723946E-29 -6.41115190E-28  7.51426292E-14
  1.45601932E-26 -2.31865966E-27  7.87377968E-14  9.84598831E-15 -5.74806594E-28
  1.54555843E-29  9.06652012E-24  1.09345702E-28  4.34636474E-15  2.76538464E-27
 -4.35719745E-28 -1.54717229E-22  6.61751007E-28  6.70271832E-13  9.40687438E-13
 -8.48140186E-14 -1.34392204E-13  4.60875779E-28  3.25798507E-28 -1.13469893E-18
 -4.28866224E-27 -1.68361450E-27  5.43178454E-19 -2.75658652E-26  2.42129051E-27
  1.63264342E-17  8.78942669E-15 -2.04416740E-28  5.02364539E-30  8.36382492E-24
  2.52020564E-18  8.89865699E-18  8.50955579E-18 -9.05280956E-20 -1.05419460E-33
  4.55940448E-33 -2.15855327E-19  4.12103347E-33 -4.02321255E-32  5.34931164E-19
 -8.66724165E-33  5.08594829E-32  1.11561519E-18 -5.24702841E-20  1.01827033E-33
 -3.38129497E-33 -2.08258508E-29 -7.53125557E-34  1.75085846E-19  2.76685252E-33
 -1.04886830E-33 -1.02979865E-27  4.20010091E-33 -5.20029409E-18 -1.35938597E-17
 -1.20490078E-17  8.00383318E-19  1.24161520E-33 -2.66265156E-34 -2.30237943E-19
 -1.63572110E-32 -1.30885489E-32 -2.76069183E-19  2.82756898E-33 -1.63418045E-31
  7.09994381E-20  3.29395311E-20 -4.51965815E-35 -1.25613504E-33 -4.26490827E-30
  2.01863098E-33 -3.19587580E-03 -7.39016572E-03 -5.26661240E-03 -2.49373668E-04
  6.16175210E-19 -3.02471400E-18 -1.06010876E-04 -1.97980661E-18  1.77926305E-17
 -6.84478014E-04 -7.36563384E-17 -6.05127644E-18 -8.98803839E-04 -3.63778067E-05
  3.04651336E-18  1.11666352E-18 -2.47094159E-14 -3.13125954E-19 -1.01750416E-04
 -1.57543985E-17  2.25397530E-18  9.40462710E-13 -5.57843382E-18 -1.90241362E-03
  1.63524381E-05  5.66282820E-03  4.84830705E-04 -2.98917448E-18 -1.79411461E-18
  2.25099848E-08  2.79799350E-17  1.31640469E-17  1.07321445E-08  1.42744117E-16
  3.72648046E-17 -1.75930456E-07 -6.81006752E-05  1.56828866E-18  2.50335573E-19
 -4.96081304E-14 -7.60853642E-19  6.29680310E-04 -1.88210271E-16 -3.60530081E-16
 -2.61483266E-16 -2.33755379E-17  9.34493312E-33 -5.75798697E-32 -9.05689892E-18
 -6.03022364E-33  3.26113574E-31 -1.87756579E-17 -4.42721270E-30  5.48618569E-31
 -2.25289830E-17 -2.64243065E-18  1.49175214E-31  7.00095910E-33 -3.66778707E-27
 -3.06289534E-32 -9.04747921E-19 -8.43784698E-31  1.62463808E-31  6.56753599E-26
 -1.80083498E-31 -1.74053700E-16 -2.50436586E-16  9.58132484E-18  3.46611515E-17
 -1.37983143E-31 -8.82618580E-32  5.81371554E-18  1.39520129E-30  5.82074000E-31
  6.97079567E-18  8.52214427E-30  3.10278341E-31 -1.79247739E-18 -2.18333218E-18
  3.35281856E-32  1.31664798E-32 -2.11250422E-27 -1.51449340E-33  1.17606430E-17
  6.46308283E-31 -3.85139031E-16 -8.80512435E-16 -7.62342990E-16 -3.52212909E-17
  3.98685869E-32 -1.89644543E-31 -2.68153079E-18 -1.10453056E-31  1.84878374E-30
 -2.88379709E-17 -5.29355820E-30 -1.11305268E-30 -5.61493177E-17 -9.97695775E-19
  9.72216301E-32  1.31462053E-31 -6.16418518E-27 -1.09448704E-32 -5.05852671E-18
 -1.13993569E-30  3.03773986E-31  1.55265245E-25 -2.93011752E-31 -1.06642116E-18
  1.52941420E-16  3.11838311E-16  6.15714438E-18 -2.02325120E-31 -7.72772740E-32
  2.75308250E-17  2.42056753E-30  1.26194399E-30  3.30117690E-17  1.09120254E-29
  7.45991344E-30 -8.47709971E-18 -2.49459575E-18 -2.47316266E-32  8.66058272E-32
 -1.50039131E-27 -6.52450824E-32  2.81856854E-17  8.60264959E-31  3.86668543E-30
 -7.24746017E-12 -1.09759651E-11 -5.91548416E-12 -1.17110378E-12 -1.71348566E-28
 -1.94003054E-28 -6.34538008E-13  2.16607291E-27 -1.22018204E-26 -7.38750158E-13
 -2.34460947E-25  6.48656429E-26 -4.92985298E-13 -1.79340050E-13  9.04103916E-27
 -2.09875738E-27 -1.78760768E-22 -2.13238876E-27  5.35121311E-14 -4.17978930E-26
  6.93953727E-27  2.24725812E-21 -7.20195347E-27 -1.30974012E-11 -2.25406564E-11
 -6.73784385E-12  2.46600239E-12 -6.40305741E-27 -5.02017050E-27  4.47564966E-17
  5.93300523E-26  1.99166176E-26  3.32755602E-17  4.38788687E-25 -1.15641975E-25
 -1.34512899E-16 -1.04933190E-13  2.46434368E-27 -5.07704215E-28 -1.23378782E-22
  1.28008519E-27  2.12423606E-13  3.23545235E-26 -7.72385745E-27  2.62416947E-21
 -3.47912556E-17 -7.55223514E-17 -5.26427179E-17 -3.24421728E-18  5.26849639E-33
 -2.67191226E-32 -1.45514968E-18 -1.55030701E-32  1.48245584E-31 -6.58923164E-18
 -8.47353390E-31 -5.75441014E-34 -8.30761789E-18 -4.67071843E-19  3.40981546E-32
  8.22512874E-33 -3.83206955E-28 -4.52644636E-33 -8.43717641E-19 -1.74194877E-31
  2.61891960E-32  1.04706591E-26 -5.48892138E-32 -2.74093606E-17 -1.84506453E-17
  4.38709949E-17  6.26608852E-18 -3.17125413E-32 -1.98878457E-32  8.92257992E-20
  2.98032936E-31  1.33845830E-31  1.06832505E-19  1.63106032E-30  2.45806008E-31
 -2.90254534E-20 -6.80984990E-19  1.54572419E-32  1.99711537E-33 -5.34785613E-28
 -5.65260644E-33  5.67150071E-18  1.31042155E-31  2.47697355E-31  4.01880607E-27
  5.28457454E-32 -1.22336603E-03 -1.12033662E-02 -2.64989384E-02  3.12541497E-04
 -1.10144446E-18  7.80309185E-18  1.75943624E-03  2.89044644E-18  5.96747413E-17
  4.51529700E-03  4.91366887E-16 -1.75507808E-16  3.05896801E-03  5.31667386E-04
 -3.31213624E-17  7.70011327E-18 -1.70650417E-13  5.27718184E-18  3.14239961E-04
  9.04678391E-17  1.51718723E-18  4.95209882E-12  3.21332385E-17  3.97558480E-02
  5.44039322E-02 -7.84081453E-03 -8.02482362E-03  1.62411832E-17  1.67215020E-17
  3.13875383E-03 -9.09713854E-17 -1.55926207E-17  3.76381922E-03 -8.52097339E-16
  6.82430900E-16 -9.64638083E-04  5.43716598E-04 -2.19700821E-17  8.30191841E-18
  5.09500690E-13 -2.22574800E-18 -3.19552757E-03 -6.83712997E-17  1.82367487E-16
 -7.24665280E-12 -3.29530905E-17  6.34786234E-02 -1.12033803E-02 -3.31403920E-02
 -5.97043491E-02 -1.11991002E-03 -3.59823334E-18  2.08775407E-17  2.75112111E-03
  1.31578064E-17  7.83997993E-17  9.32299441E-03  7.28737615E-16 -2.46561191E-16
  6.98335252E-03  8.60771161E-04 -5.87321661E-17  1.09189937E-17 -6.58132141E-13
  7.82102897E-18  9.23906155E-04  1.39995371E-16  1.26778796E-17  1.33321174E-11
  6.38179470E-17  6.37145285E-02  7.47268838E-02 -3.77238726E-02 -1.33406746E-02
  2.74072062E-17  2.91940641E-17  6.71469348E-03 -1.27052182E-16 -1.63418466E-17
  8.05187415E-03 -1.22680378E-15  1.19034061E-15 -2.06360636E-03  1.07162540E-03
 -4.48037140E-17  1.64463171E-17  9.36583991E-13 -1.25436253E-18 -7.38948890E-03
 -1.04168702E-16  3.33533995E-16 -1.09746773E-11 -7.15909872E-17  1.27212669E-01
  2.62970362E-01 -2.65040914E-02 -5.97143003E-02 -7.28272559E-02 -3.14945522E-03
 -2.37034228E-18  1.31076988E-17  1.41614996E-03  1.13604508E-17  8.78441018E-17
  6.18431102E-03  1.95435582E-16 -1.44868732E-16  3.99120890E-03  4.64204910E-04
 -3.51332855E-17  9.10746099E-18 -9.00709542E-13  3.53899689E-18  7.28338509E-04
  3.91146295E-17  2.56430867E-17  1.71298486E-11  3.76174068E-17  3.60987186E-02
  3.64089220E-02 -3.33424757E-02 -7.78667478E-03  1.03548130E-17  1.61928222E-17
  6.13474363E-03  2.05228105E-17  3.80221158E-17  7.35637219E-03 -2.31359758E-16
  9.94010700E-16 -1.88586104E-03  7.02429417E-04 -3.44952768E-17  1.47782951E-17
  5.87753244E-13 -7.66527632E-19 -5.26566346E-03 -2.72598865E-17  3.46831597E-16
 -5.91387911E-12 -4.90477549E-17  9.99565461E-02  2.10819724E-01  1.74331381E-01
  3.12836979E-04 -1.11929279E-03 -3.14832252E-03  1.65483386E-04  4.01990672E-20
  2.31782337E-19  2.71979678E-04 -4.56831038E-19  1.24320196E-17  4.66747702E-04
  7.53797940E-17 -3.10199297E-17  2.19742767E-04  7.92708351E-05 -4.42986657E-18
  1.42899135E-18  4.02345888E-15  8.53127920E-19  4.01239158E-06  1.31812752E-17
 -4.37807117E-19  3.97910320E-13  3.47476996E-18  6.05705002E-03  9.59387879E-03
  1.43977957E-03 -1.17239790E-03  2.15677766E-18  2.25256267E-18  3.47297817E-04
 -1.33370244E-17 -1.99753544E-18  4.16459918E-04 -1.32531965E-16  1.01988849E-16
 -1.06753459E-04  6.18709484E-05 -2.47790803E-18  1.05384055E-18  6.50563749E-14
 -6.15660976E-19 -2.49343293E-04 -1.01149905E-17  2.75743922E-17 -1.17100038E-12
 -3.04087885E-18  7.47199588E-03  1.41962475E-02  1.08438041E-02  9.57660137E-04
 -1.42783098E-17 -3.73061076E-17 -3.18323916E-17 -7.79093923E-19  3.03838561E-33
 -1.39290511E-32  1.17692416E-19 -1.05492969E-32  1.12813441E-31 -2.21270395E-18
 -1.76437985E-31 -9.97643101E-32 -3.78949075E-18  7.89856858E-21  4.44019862E-33
  8.56122030E-33 -1.01820490E-28  4.67676894E-34 -4.79358064E-19 -4.45490577E-32
  9.51754658E-33  5.27418579E-27 -1.87084442E-32  4.76827183E-18  2.20964157E-17
  3.04890133E-17 -3.63193055E-19 -9.27202742E-33 -3.41049438E-33  7.63613331E-19
  1.01877093E-31  5.76634535E-32  9.15605133E-19  3.72366851E-31  4.06953536E-31
 -2.35524050E-19 -1.84927664E-19  1.94160342E-33  3.53331358E-33 -8.88424786E-29
 -5.04009798E-33  2.45057043E-18  3.26034726E-32  1.95557769E-31 -1.66769065E-27
  2.02377208E-32  1.46218291E-18 -3.63288524E-18 -1.06730614E-18  9.62586836E-19
  1.38891217E-32 -2.82205720E-17 -6.22309594E-17 -4.93860674E-17 -2.69860483E-18
  3.23762222E-33 -1.60910006E-32 -6.71472943E-19 -8.90950214E-33  1.20712240E-31
 -3.33715135E-18 -5.24069722E-31 -3.50566024E-32 -4.96724085E-18 -2.16630941E-19
  1.60659180E-32  7.65388640E-33 -4.12243473E-28 -2.23086813E-33 -4.56749581E-19
 -1.08695339E-31  2.21247218E-32  1.01871176E-26 -3.02582807E-32 -1.07594572E-17
 -3.35748573E-18  2.50626915E-17  2.60923997E-18 -1.93305669E-32 -1.01998639E-32
  1.20254387E-18  2.03677169E-31  9.76275502E-32  1.44190036E-18  1.03719410E-30
  3.69242077E-31 -3.70764311E-19 -3.29717802E-19  4.02508841E-33  4.19469276E-33
 -2.47336405E-28 -4.21952963E-33  2.93342856E-18  8.20626620E-32  2.37380829E-31
  1.37831580E-27  2.70932756E-32 -3.43228734E-18 -9.20263758E-18 -9.37406305E-19
  4.42518010E-20  1.40511944E-32  1.84725367E-32 -1.75954916E-03 -2.75131411E-03
 -1.41653131E-03 -2.71988820E-04  7.04291632E-21 -2.76647417E-19 -1.56727295E-04
  3.33619760E-19 -2.01384943E-18 -2.33057092E-04 -5.88557789E-17  1.49861095E-17
 -1.82148903E-04 -4.49176290E-05  2.38064551E-18 -4.44178471E-19 -3.91997537E-14
 -5.19690240E-19  3.40421149E-06 -1.06684957E-17  1.63440874E-18  5.10700847E-13
 -2.12402624E-18 -3.24196473E-03 -5.28588411E-03 -1.07528084E-03  6.21701408E-04
 -1.68519087E-18 -1.31634525E-18 -2.18759862E-05  1.52165880E-17  5.22829835E-18
 -2.62378751E-05  1.09968219E-16 -2.77183720E-17  6.68683198E-06 -3.06897868E-05
  7.83058321E-19 -1.53529472E-19 -3.33666462E-14  2.48939584E-19  1.06002805E-04
  8.22076458E-18 -1.27599842E-18  6.34500150E-13  1.44225548E-18 -2.21053075E-03
 -3.71619227E-03 -2.29792123E-03 -3.21888606E-04 -2.27450365E-19  4.98582042E-19
  1.59864132E-04  2.80073539E-16  5.71841934E-16  4.42401606E-16  3.15738475E-17
 -1.97231839E-32  1.06976241E-31  9.78496744E-18  3.57707972E-32 -7.82164410E-31
  2.66911085E-17  5.73535760E-30 -2.74101765E-31  3.70770751E-17  2.91697461E-18
 -1.76368698E-31 -3.93107231E-32  5.06197232E-27  3.34010041E-32  2.28466109E-18
  1.12692121E-30 -2.34037272E-31 -1.02000302E-25  2.57244562E-31  1.76332875E-16
  2.12028854E-16 -9.38452339E-17 -3.67193289E-17  1.88900500E-31  1.08783537E-31
 -1.19296023E-17 -1.98893531E-30 -8.90322154E-31 -1.43042217E-17 -1.12054494E-29
 -2.08000552E-30  3.67602325E-18  2.88152657E-18 -3.13417557E-32 -3.31091307E-32
  2.54158112E-27  1.80955370E-32 -1.95014170E-17 -8.59511669E-31 -1.78881249E-30
 -3.06403355E-26 -1.98982001E-31  3.41650251E-17  4.57845643E-17 -3.82215813E-17
  4.36348627E-18 -8.22895494E-32 -1.41612125E-31 -8.06967480E-18  1.29801772E-30
  2.83389640E-16  6.32420103E-16  5.35851401E-16  2.72694639E-17 -2.71925810E-32
  1.32301751E-31  3.72688929E-18  7.10266864E-32 -1.23299189E-30  2.24314534E-17
  4.31549661E-30  5.74968487E-31  4.03907646E-17  1.22382306E-18 -9.49926073E-32
 -8.40200005E-32  4.67116363E-27  1.37571389E-32  3.39683596E-18  9.04920398E-31
 -2.26532271E-31 -1.11845189E-25  2.25012193E-31  4.00787434E-17 -3.97881811E-17
 -1.98901197E-16 -1.17317351E-17  1.58069341E-31  6.85277664E-32 -1.84716473E-17
 -1.83130410E-30 -9.21896723E-31 -2.21489737E-17 -8.75813759E-30 -4.73839514E-30
  5.68825010E-18  2.06809644E-18  7.37792547E-33 -5.70657103E-32  1.42483813E-27
  4.13433847E-32 -2.04443383E-17 -6.84978018E-31 -2.61490005E-30 -2.45229486E-27
 -1.85872498E-31 -9.73750718E-17 -1.82134921E-16 -2.08342362E-16 -1.48629076E-17
 -1.30220002E-31 -1.67495659E-31 -1.07151318E-18  1.31476657E-30  1.79183259E-30
 -4.51574959E-03 -9.32383484E-03 -6.18551893E-03 -4.66788319E-04  5.87989338E-19
 -3.09169026E-18 -2.33069773E-04 -1.58651638E-18  1.51111555E-17 -8.44018127E-04
 -1.19537095E-16  6.98890845E-18 -1.00352773E-03 -7.24568902E-05  4.89612632E-18
  6.78966864E-19 -5.67036464E-14 -7.36660747E-19 -9.31883656E-05 -2.39382485E-17
  3.51944137E-18  1.32370921E-12 -7.07051477E-18 -4.54605153E-03 -4.46783403E-03
  4.43509449E-03  9.85101803E-04 -4.25392797E-18 -2.81109310E-18 -1.79823075E-05
  3.93561598E-17  1.68800847E-17 -2.15833456E-05  2.28199484E-16  1.17761026E-17
  5.33593397E-06 -9.03336534E-05  2.14337170E-18  1.07589416E-19 -7.51425436E-14
 -5.07709126E-19  6.84480680E-04  1.80879800E-17  2.55817702E-17  7.38737777E-13
  6.57871818E-18 -4.88657184E-03 -1.01172787E-02 -6.90999280E-03 -5.07826348E-04
  2.12240893E-18  3.19493124E-18  2.35643518E-04 -2.52800900E-17 -2.02467126E-17
  8.46149199E-04  1.57771194E-15  2.99424642E-15  2.19074087E-15  1.99711733E-16
 -6.43434655E-32  4.17403034E-31  7.56460826E-17 -5.22367160E-33 -2.43829507E-30
  1.42887118E-16  3.66893721E-29 -4.87363586E-30  1.71368770E-16  2.18997589E-17
 -1.20543489E-30 -3.72922597E-32  3.19410779E-26  2.57710061E-31  4.85196872E-18
  6.94690826E-30 -1.37658848E-30 -5.59535396E-25  1.40841321E-30  1.45224914E-15
  2.17002612E-15  8.24695003E-17 -2.86104748E-16  1.12303567E-30  7.16026548E-31
 -5.43050656E-17 -1.14845805E-29 -4.76914507E-30 -6.51139750E-17 -7.06818215E-29
 -2.30430817E-30  1.67357106E-17  1.69243658E-17 -2.32911221E-31 -1.16968998E-31
  1.68511650E-26 -6.13267056E-33 -8.34837554E-17 -5.33058666E-30 -6.98521270E-30
 -2.74082192E-25 -9.70655279E-31  4.58308234E-16  5.99594721E-16  2.89473644E-18
  7.58460864E-17 -2.20721123E-31 -6.40759536E-31 -6.78363012E-17  7.03053862E-30
  5.57565821E-30 -1.36463463E-16  4.44424857E-29  5.04031018E-16  1.25822136E-15
  1.18416568E-15  3.72705937E-17 -6.34652068E-32  2.80315307E-31 -9.64656786E-18
  2.02236046E-31 -3.26952422E-30  2.38648999E-17  3.65463199E-30  3.18261583E-30
  7.45271724E-17 -2.42598377E-18  6.25426970E-32 -2.59581465E-31  7.45713410E-27
 -2.78441428E-32  8.13020645E-18  9.56938939E-31 -3.80024956E-31 -2.24084829E-25
  2.79558268E-31 -2.93573956E-16 -7.18431433E-16 -5.81299162E-16  4.70706511E-17
  1.85041300E-31  6.26314415E-33 -5.11934505E-17 -2.72318730E-30 -1.66425968E-30
 -6.13860039E-17 -8.59778248E-30 -1.52555452E-29  1.57569708E-17  1.07207564E-18
  1.29049888E-31 -1.65154446E-31 -7.12775041E-28  1.28740179E-31 -3.40380221E-17
 -7.09445712E-31 -6.69989785E-30  6.97531661E-26 -2.54528611E-31 -5.51249753E-16
 -9.99313123E-16 -8.78342551E-16 -7.94981585E-17 -3.40210757E-31 -3.48329471E-31
  1.70048611E-17  2.29360202E-30  4.35160107E-30 -1.78100244E-17  5.81388541E-30
  1.30310794E-29 -3.05829411E-03 -6.98194461E-03 -3.99097551E-03 -2.19643072E-04
  7.83990561E-19 -3.91901352E-18 -1.82106147E-04 -2.59634528E-18  1.76166522E-17
 -1.00335659E-03 -9.71130225E-17 -9.66507657E-19 -1.17798771E-03 -6.08931063E-05
  4.83993504E-18  9.62119494E-19 -5.01222089E-15 -5.24117846E-19 -1.39306568E-04
 -2.04876439E-17  1.98527050E-18  6.13329647E-13 -7.80911337E-18 -3.64047583E-03
 -1.65168219E-03  7.43959655E-03  8.63006946E-04 -3.94153745E-18 -2.70347382E-18
 -1.90251670E-04  3.32370734E-17  1.45655334E-17 -2.28156361E-04  1.83256611E-16
  9.60821757E-18  5.82857261E-05 -1.03284367E-04  2.94787643E-18 -1.80248820E-19
 -7.87244852E-14 -8.27852041E-19  8.98672761E-04  1.52615389E-17  2.17442441E-17
  4.92804096E-13  8.19512405E-18 -6.98024906E-03 -1.53721727E-02 -1.16558554E-02
 -6.53628601E-04  2.83500736E-18  3.46411164E-18  2.09445418E-04 -2.21664272E-17
 -1.73063769E-17  1.02586756E-03 -1.03489632E-16 -1.05558354E-17  1.41556257E-03
  5.31738314E-04  8.60898161E-04  4.64346568E-04  7.92777913E-05 -8.83877516E-21
  1.10955279E-19  4.49212998E-05 -7.16318078E-20  3.49225804E-19  7.24647770E-05
  1.72936558E-17 -4.10764207E-18  6.09178431E-05  1.29375985E-05 -6.97535575E-19
  1.10449933E-19  1.13412536E-14  1.48627846E-19  1.47984069E-07  3.16208360E-18
 -4.85780739E-19 -1.55435231E-13  6.54707543E-19  9.25177256E-04  1.47475757E-03
  2.38829400E-04 -1.78715524E-04  5.04834766E-19  3.87283110E-19  5.50013332E-06
 -4.58136444E-18 -1.61819997E-18  6.59716183E-06 -3.23846623E-17  7.22350075E-18
 -1.67820055E-06  9.29954548E-06 -2.33655178E-19  3.85679851E-20  9.84659479E-15
 -6.07817583E-20 -3.63844719E-05 -2.43250666E-18 -3.19201966E-21 -1.79342351E-13
 -4.63916170E-19  6.45127892E-04  1.10349968E-03  6.85949281E-04  9.18240316E-05
  3.54640702E-20 -1.73211951E-19 -4.57097061E-05  2.48614201E-18  5.56588642E-19
 -7.31150898E-05  1.99385659E-17 -4.27550432E-18 -6.77786464E-05  1.31368698E-05
  3.68124758E-17  6.22142145E-17  4.00730729E-17  5.36955750E-18 -1.29338607E-34
  4.54846696E-33  2.52589674E-18 -6.33774067E-33  8.09659330E-33  3.41812154E-18
  1.02746114E-30 -2.29244403E-31  3.05334915E-18  7.18063872E-19 -3.70253670E-32
  5.36630259E-33  8.41591431E-28  8.54476264E-33 -1.13804223E-19  1.87209231E-31
 -3.38946767E-32 -1.22800635E-26  3.38683808E-32  5.09130382E-17  8.47274352E-17
  2.03508641E-17 -9.69736755E-18  2.91997799E-32  2.10887857E-32 -6.55575732E-19
 -2.83488682E-31 -1.04956669E-31 -7.86014273E-19 -1.94562591E-30  2.84704302E-31
  2.02292997E-19  4.54385201E-19 -8.69518029E-33 -1.12927044E-35  5.07471298E-28
 -3.64780445E-33 -1.35244111E-18 -1.44490817E-31 -5.49994065E-32 -1.00524191E-26
 -2.02885952E-32  2.32991928E-17  3.33074368E-17  1.36617220E-17  3.87422976E-18
  2.47106316E-33 -1.03495970E-32 -2.43153634E-18  1.58016053E-31  6.69520398E-32
 -3.34055444E-18  1.22069594E-30 -1.22127571E-31 -2.23361453E-18  6.94395886E-19
  4.03921126E-32  3.68865610E-18  8.28887670E-18  5.50954905E-18  3.03570592E-19
 -7.18748323E-34  3.58945194E-33  1.63592688E-19  2.27625898E-33 -1.88172115E-32
  8.76412775E-19  9.63416783E-32  2.51273764E-33  1.08696252E-18  5.42053666E-20
 -4.23511598E-33 -1.08457619E-33  2.67853458E-29  4.88027598E-34  1.21048873E-19
  2.02076057E-32 -2.61096477E-33 -9.94158893E-28  7.06309667E-33  3.12217581E-18
  1.35950667E-18 -6.49543096E-18 -7.42331626E-19  3.79651897E-33  2.43410150E-33
  6.33598652E-20 -3.42965771E-32 -1.54873411E-32  7.59963197E-20 -1.84491814E-31
 -2.70366445E-32 -1.92793601E-20  8.94943310E-20 -2.25237142E-33 -1.09887452E-34
  6.80648486E-29  8.01853293E-34 -7.81106497E-19 -1.51161476E-32 -2.81787844E-32
 -4.19717842E-28 -7.14572035E-33  4.99488338E-18  1.10833526E-17  8.06217375E-18
  4.48117335E-19 -2.72829569E-33 -3.41236336E-33 -1.72692750E-19  2.31807260E-32
  2.12440451E-32 -8.83913399E-19  1.07307633E-31  2.65959924E-32 -1.16600044E-18
  5.65042442E-20  2.12853160E-33  9.91702437E-34 -1.70652000E-13 -6.58122304E-13
 -9.00605802E-13  4.01618738E-15  2.54101560E-29 -5.79349829E-29  3.91963591E-14
 -1.18256282E-28  2.83614235E-27  5.66961991E-14  8.37154216E-27 -5.20349431E-27
  5.02403834E-15  1.13399767E-14 -6.17182684E-28  2.83035501E-28 -3.14334504E-24
  1.21114727E-28 -1.64984225E-15  1.35454809E-27  1.09305235E-28  1.49111484E-22
  3.76361814E-28  9.06167233E-13  1.50451956E-12  3.55110106E-13 -1.72733158E-13
  2.15592939E-28  2.98325680E-28  6.86820721E-14 -6.73704478E-28  3.89368628E-28
  8.23587645E-14 -1.38158214E-26  1.93881067E-26 -2.11194203E-14  8.14440118E-15
 -3.94977069E-28  2.07854405E-28  9.06625668E-24 -1.24668705E-28 -2.47047487E-14
 -1.04548067E-27  6.25371379E-27 -1.78738030E-22 -3.43006161E-28  1.24514681E-12
  2.37067660E-12  1.86649347E-12  1.60677429E-13  2.42592625E-28  1.30156331E-28
 -4.90671230E-14 -3.18917784E-28 -3.66055255E-27 -6.48199129E-14  7.44630117E-27
 -1.56339708E-26 -9.08354733E-14  1.38221968E-14  5.45879818E-28  5.53712597E-29
  2.78366120E-23  2.74941359E-19  8.12107769E-19  3.38205884E-18  8.47029213E-20
  5.28021174E-34 -2.77989888E-33 -2.17102799E-19 -1.94194022E-33  9.15697633E-34
 -9.54038079E-19 -6.92404578E-32  1.32654350E-32 -8.58471323E-19 -7.04573331E-20
  5.23957695E-33 -3.35979369E-34  5.74396676E-29 -5.97986479E-34 -1.15850918E-19
 -1.41130318E-32 -7.13481090E-34 -9.06498726E-28 -6.70021471E-33 -4.94231568E-18
 -4.47165525E-18  5.60045526E-18  1.08582450E-18 -2.85563636E-33 -2.66799763E-33
 -5.46935689E-19  1.62255891E-32  4.66690785E-33 -6.55858236E-19  1.20191899E-31
 -7.52341039E-32  1.68035622E-19 -1.04409691E-19  4.04032313E-33 -1.21290069E-33
 -8.54095630E-29 -2.64202477E-34  8.14317298E-19  1.04255802E-32 -1.64295466E-32
  7.83359074E-28  7.59425482E-33 -1.09995723E-17 -2.33072325E-17 -1.86530607E-17
 -1.16286031E-18  1.30065533E-33  1.71138329E-33  2.95711776E-19 -8.58997348E-33
  7.62181166E-33  1.01873780E-18 -5.94443068E-32  6.41164801E-32  1.54174232E-18
 -9.02308581E-20 -2.48415030E-33 -1.15512692E-33 -1.89269752E-28  2.13685572E-33
  3.14214479E-04  9.23865833E-04  7.28348106E-04  4.00668228E-06 -1.12966165E-19
  5.18943929E-19 -3.40548242E-06  4.17547827E-19 -3.53472558E-18  9.31876236E-05
  4.81004619E-18  3.29430682E-18  1.39321388E-04  1.46542313E-07 -2.17053957E-19
 -2.67941419E-19 -1.65125493E-15 -1.87730484E-20  1.94618533E-05  1.31448924E-18
 -1.60279042E-19 -9.00436699E-14  7.21167553E-19 -1.21236520E-04 -7.78555764E-04
 -1.21269440E-03  8.92142805E-07  3.01109983E-19  1.38931882E-19 -9.82113336E-07
 -2.85794623E-18 -1.62228633E-18 -1.17554422E-06 -9.87779407E-18 -1.06094301E-17
  3.27267787E-07  8.18398235E-06 -1.83909170E-19 -6.33722219E-20  4.34623913E-15
  1.76575889E-19 -1.01751807E-04 -9.42212483E-19 -5.23621423E-18  5.35169540E-14
 -8.44299877E-19  2.93985611E-04  8.80587613E-04  6.88766288E-04  1.77019933E-06
 -4.84294197E-19 -4.64511851E-19  3.54641576E-06  2.36160239E-18  3.51604198E-18
 -9.30726205E-05  5.20190921E-18  8.46068586E-18 -1.38080670E-04  1.12214038E-07
 -1.09593391E-19  1.20641362E-19 -2.09321331E-15 -1.12323284E-19  1.94685805E-05
 -4.55009650E-16 -8.83670806E-16 -6.48860180E-16 -5.53710317E-17  2.49191718E-32
 -1.48231596E-31 -2.07508821E-17 -2.49837893E-32  8.91966444E-31 -4.55274730E-17
 -1.04517385E-29  1.14675761E-30 -5.62108907E-17 -6.07987845E-18  3.48010944E-31
  2.67374378E-32 -8.69985481E-27 -7.02044504E-32 -2.57993116E-18 -2.00423807E-30
  3.89816948E-31  1.59782547E-25 -4.35679526E-31 -3.95178149E-16 -5.52642521E-16
  5.39633229E-17  7.93101559E-17 -3.29665885E-31 -2.07190060E-31  1.48779008E-17
  3.35336087E-30  1.41875159E-30  1.78390598E-17  2.01686282E-29  1.26695652E-30
 -4.58675431E-18 -5.21346019E-18  7.70034973E-32  3.58179231E-32 -4.94997958E-27
 -9.29914104E-33  2.96060942E-17  1.53368061E-30  2.24702220E-30  7.26405527E-26
  3.22688958E-31 -1.48328910E-16 -2.27612946E-16 -4.94574712E-17 -2.14359326E-17
  9.12917482E-32  2.06200193E-31  1.86112480E-17 -2.09019588E-30 -1.75441038E-30
  4.37676646E-17 -1.26137881E-29 -2.10707328E-30  3.76131823E-17 -5.54264990E-18
 -3.31146647E-31 -3.74636319E-32 -1.98911380E-27  2.40541318E-32 -2.67582754E-18
  3.65651571E-30 -2.52275661E-16 -5.81579591E-16 -5.07315106E-16 -2.26532552E-17
  2.67504743E-32 -1.26311467E-31 -1.19879516E-18 -7.54235718E-32  1.25048780E-30
 -1.84582604E-17 -3.33257747E-30 -8.05670458E-31 -3.70166688E-17 -4.97239036E-19
  5.60913972E-32  9.00778959E-32 -3.99851187E-27 -5.36139617E-33 -3.40797313E-18
 -7.25282405E-31  1.98070428E-31  1.02493631E-25 -1.88617900E-31  1.17982987E-17
  1.23049767E-16  2.13439928E-16  1.73257298E-18 -1.29500544E-31 -4.68382873E-32
  1.86182028E-17  1.56891081E-30  8.28364544E-31  2.23248144E-17  6.91379672E-30
  5.12380777E-30 -5.73258314E-18 -1.55577695E-18 -1.97892697E-32  5.88644875E-32
 -8.78187215E-28 -4.47926940E-32  1.85075693E-17  5.46711059E-31  2.60515019E-30
 -7.63302329E-27  1.60690760E-31  1.31510733E-16  2.39441360E-16  2.42783788E-16
  1.98134368E-17  1.32267724E-31  1.57616117E-31 -1.47752311E-18 -1.17162144E-30
 -1.75427509E-30  1.62562006E-17 -4.43633509E-30 -4.57175845E-30  1.37498044E-17
  1.75319341E-19 -2.76485828E-32 -1.82337474E-32  4.39931086E-27 -1.22696212E-32
 -3.52814115E-18  1.43900404E-30  1.75759806E-30  4.95202914E-12  1.33318572E-11
  1.71279219E-11  3.98031728E-13  1.40209078E-28 -1.42400037E-27 -5.10660786E-13
 -6.77152554E-28 -3.43260162E-26 -1.32358584E-12 -9.54560941E-26  6.13488690E-26
 -6.13581414E-13 -1.55417109E-13  9.84962720E-27 -3.48831461E-27  1.49112255E-22
 -1.46175539E-27 -9.00615990E-14 -1.65725227E-26 -4.36648251E-27 -3.53619763E-21
 -8.33516272E-27 -1.22577974E-11 -1.70208724E-11  1.91996086E-12  2.46478532E-12
 -3.22056561E-27 -4.65929797E-27 -1.39605544E-12  3.18427098E-27 -8.05318407E-27
 -1.67405495E-12  1.45414706E-25 -2.91104766E-25  4.29201288E-13 -1.63685433E-13
  7.95682586E-27 -3.69483200E-27 -1.54720041E-22  1.08103972E-27  9.40367970E-13
  1.23762529E-26 -9.71436109E-26  2.24699124E-21  9.65369567E-27 -2.38260195E-11
 -4.82324235E-11 -3.91169335E-11 -2.78633821E-12 -1.72658233E-27 -8.37728514E-28
  7.11311870E-13  7.37040115E-27  5.75065010E-26  1.48872029E-12 -6.16707697E-26
  2.45273647E-25  2.35779694E-12 -2.05875934E-13 -6.27013192E-27 -1.57521134E-27
 -4.80603478E-22  4.10818241E-27 -8.10536781E-14  2.33841050E-26 -6.82024699E-26
  9.26361952E-21  7.76828170E-18  2.43852231E-17  1.97197754E-17 -5.96255914E-20
 -3.18824789E-33  1.44884092E-32 -1.97493682E-19  1.20138662E-32 -1.01272635E-31
  2.48222724E-18  9.81524545E-32  1.02822945E-31  3.82029890E-18 -2.48916321E-20
 -4.59283122E-33 -7.86489620E-33 -7.13883504E-29 -8.65810813E-34  5.52078038E-19
  3.03034385E-32 -3.49586672E-33 -2.22663675E-27  1.90091367E-32 -5.52462947E-18
 -2.54202269E-17 -3.49601996E-17  4.27757050E-19  7.42749067E-33  3.07590500E-33
 -4.47896983E-20 -7.10540950E-32 -4.25326189E-32 -5.36519206E-20 -2.08635049E-31
 -3.18225368E-31  1.44612836E-20  2.11361969E-19 -4.68066390E-33 -1.89741378E-33
  1.01195572E-28  5.15240900E-33 -2.80630041E-18 -2.13536277E-32 -1.49032323E-31
  1.92292695E-27 -2.29221759E-32  6.84543223E-18  2.24108394E-17  1.79148467E-17
 -1.61686165E-19 -1.38379297E-32 -1.28130319E-32  2.03920188E-19  6.16132333E-32
  9.88243163E-32 -2.47696300E-18  1.03565823E-31  2.50545727E-31 -3.76397502E-18
 -2.64783504E-20 -4.66472015E-33  3.29623338E-33 -9.15619903E-29 -2.97698961E-33
  5.52378739E-19 -6.36936726E-32 -1.00818051E-31 -1.81636625E-27  1.57395938E-32
Spin SCF Density                           R   N=        2415
  0.00000000E+00  0.00000000E+00  0.00000000E+00  0.00000000E+00  0.00000000E+00
  0.00000000E+00  0.00000000E+00  0.00000000E+00  0.00000000E+00  0.00000000E+00
  0.00000000E+00  0.00000000E+00  0.00000000E+00  0.00000000E+00  0.00000000E+00
  0.00000000E+00  0.00000000E+00  0.00000000E+00  0.00000000E+00  0.00000000E+00
  0.00000000E+00  0.00000000E+00  0.00000000E+00  0.00000000E+00  0.00000000E+00
  0.00000000E+00  0.00000000E+00  0.00000000E+00  0.00000000E+00  0.00000000E+00
  0.00000000E+00  0.00000000E+00  0.00000000E+00  0.00000000E+00  0.00000000E+00
  0.00000000E+00  0.00000000E+00  0.00000000E+00  0.00000000E+00  0.00000000E+00
  0.00000000E+00  0.00000000E+00  0.00000000E+00  0.00000000E+00  0.00000000E+00
  0.00000000E+00  0.00000000E+00  0.00000000E+00  0.00000000E+00  0.00000000E+00
  0.00000000E+00  0.00000000E+00  0.00000000E+00  0.00000000E+00  0.00000000E+00
  0.00000000E+00  0.00000000E+00  0.00000000E+00  0.00000000E+00  0.00000000E+00
  0.00000000E+00  0.00000000E+00  0.00000000E+00  0.00000000E+00  0.00000000E+00
  0.00000000E+00  0.00000000E+00  0.00000000E+00  0.00000000E+00  0.00000000E+00
  0.00000000E+00  0.00000000E+00  0.00000000E+00  0.00000000E+00  0.00000000E+00
  0.00000000E+00  0.00000000E+00  0.00000000E+00  0.00000000E+00  0.00000000E+00
  0.00000000E+00  0.00000000E+00  0.00000000E+00  0.00000000E+00  0.00000000E+00
  0.00000000E+00  0.00000000E+00  0.00000000E+00  0.00000000E+00  0.00000000E+00
  0.00000000E+00  0.00000000E+00  0.00000000E+00  0.00000000E+00  0.00000000E+00
  0.00000000E+00  0.00000000E+00  0.00000000E+00  0.00000000E+00  0.00000000E+00
  0.00000000E+00  0.00000000E+00  0.00000000E+00  0.00000000E+00  0.00000000E+00
  0.00000000E+00  0.00000000E+00  0.00000000E+00  0.00000000E+00  0.00000000E+00
  0.00000000E+00  0.00000000E+00  0.00000000E+00  0.00000000E+00  0.00000000E+00
  0.00000000E+00  0.00000000E+00  0.00000000E+00  0.00000000E+00  0.00000000E+00
  0.00000000E+00  0.00000000E+00  0.00000000E+00  0.00000000E+00  0.00000000E+00
  0.00000000E+00  0.00000000E+00  0.00000000E+00  0.00000000E+00  0.00000000E+00
  0.00000000E+00  0.00000000E+00  0.00000000E+00  0.00000000E+00  0.00000000E+00
  0.00000000E+00  0.00000000E+00  0.00000000E+00  0.00000000E+00  0.00000000E+00
  0.00000000E+00  0.00000000E+00  0.00000000E+00  0.00000000E+00  0.00000000E+00
  0.00000000E+00  0.00000000E+00  0.00000000E+00  0.00000000E+00  0.00000000E+00
  0.00000000E+00  0.00000000E+00  0.00000000E+00  0.00000000E+00  0.00000000E+00
  0.00000000E+00  0.00000000E+00  0.00000000E+00  0.00000000E+00  0.00000000E+00
  0.00000000E+00  0.00000000E+00  0.00000000E+00  0.00000000E+00  0.00000000E+00
  0.00000000E+00  0.00000000E+00  0.00000000E+00  0.00000000E+00  0.00000000E+00
  0.00000000E+00  0.00000000E+00  0.00000000E+00  0.00000000E+00  0.00000000E+00
  0.00000000E+00  0.00000000E+00  0.00000000E+00  0.00000000E+00  0.00000000E+00
  0.00000000E+00  0.00000000E+00  0.00000000E+00  0.00000000E+00  0.00000000E+00
  0.00000000E+00  0.00000000E+00  0.00000000E+00  0.00000000E+00  0.00000000E+00
  0.00000000E+00  0.00000000E+00  0.00000000E+00  0.00000000E+00  0.00000000E+00
  0.00000000E+00  0.00000000E+00  0.00000000E+00  0.00000000E+00  0.00000000E+00
  0.00000000E+00  0.00000000E+00  0.00000000E+00  0.00000000E+00  0.00000000E+00
  0.00000000E+00  0.00000000E+00  0.00000000E+00  0.00000000E+00  0.00000000E+00
  0.00000000E+00  0.00000000E+00  0.00000000E+00  0.00000000E+00  0.00000000E+00
  0.00000000E+00  0.00000000E+00  0.00000000E+00  0.00000000E+00  0.00000000E+00
  0.00000000E+00  0.00000000E+00  0.00000000E+00  0.00000000E+00  0.00000000E+00
  0.00000000E+00  0.00000000E+00  0.00000000E+00  0.00000000E+00  0.00000000E+00
  0.00000000E+00  0.00000000E+00  0.00000000E+00  0.00000000E+00  0.00000000E+00
  0.00000000E+00  0.00000000E+00  0.00000000E+00  0.00000000E+00  0.00000000E+00
  0.00000000E+00  0.00000000E+00  0.00000000E+00  0.00000000E+00  0.00000000E+00
  0.00000000E+00  0.00000000E+00  0.00000000E+00  0.00000000E+00  0.00000000E+00
  0.00000000E+00  0.00000000E+00  0.00000000E+00  0.00000000E+00  0.00000000E+00
  0.00000000E+00  0.00000000E+00  0.00000000E+00  0.00000000E+00  0.00000000E+00
  0.00000000E+00  0.00000000E+00  0.00000000E+00  0.00000000E+00  0.00000000E+00
  0.00000000E+00  0.00000000E+00  0.00000000E+00  0.00000000E+00  0.00000000E+00
  0.00000000E+00  0.00000000E+00  0.00000000E+00  0.00000000E+00  0.00000000E+00
  0.00000000E+00  0.00000000E+00  0.00000000E+00  0.00000000E+00  0.00000000E+00
  0.00000000E+00  0.00000000E+00  0.00000000E+00  0.00000000E+00  0.00000000E+00
  0.00000000E+00  0.00000000E+00  0.00000000E+00  0.00000000E+00  0.00000000E+00
  0.00000000E+00  0.00000000E+00  0.00000000E+00  0.00000000E+00  0.00000000E+00
  0.00000000E+00  0.00000000E+00  0.00000000E+00  0.00000000E+00  0.00000000E+00
  0.00000000E+00  0.00000000E+00  0.00000000E+00  0.00000000E+00  0.00000000E+00
  0.00000000E+00  0.00000000E+00  0.00000000E+00  0.00000000E+00  0.00000000E+00
  0.00000000E+00  0.00000000E+00  0.00000000E+00  0.00000000E+00  0.00000000E+00
  0.00000000E+00  0.00000000E+00  0.00000000E+00  0.00000000E+00  0.00000000E+00
  0.00000000E+00  0.00000000E+00  0.00000000E+00  0.00000000E+00  0.00000000E+00
  0.00000000E+00  0.00000000E+00  0.00000000E+00  0.00000000E+00  0.00000000E+00
  0.00000000E+00  0.00000000E+00  0.00000000E+00  0.00000000E+00  0.00000000E+00
  0.00000000E+00  0.00000000E+00  0.00000000E+00  0.00000000E+00  0.00000000E+00
  0.00000000E+00  0.00000000E+00  0.00000000E+00  0.00000000E+00  0.00000000E+00
  0.00000000E+00  0.00000000E+00  0.00000000E+00  0.00000000E+00  0.00000000E+00
  0.00000000E+00  0.00000000E+00  0.00000000E+00  0.00000000E+00  0.00000000E+00
  0.00000000E+00  0.00000000E+00  0.00000000E+00  0.00000000E+00  0.00000000E+00
  0.00000000E+00  0.00000000E+00  0.00000000E+00  0.00000000E+00  0.00000000E+00
  0.00000000E+00  0.00000000E+00  0.00000000E+00  0.00000000E+00  0.00000000E+00
  0.00000000E+00  0.00000000E+00  0.00000000E+00  0.00000000E+00  0.00000000E+00
  0.00000000E+00  0.00000000E+00  0.00000000E+00  0.00000000E+00  0.00000000E+00
  0.00000000E+00  0.00000000E+00  0.00000000E+00  0.00000000E+00  0.00000000E+00
  0.00000000E+00  0.00000000E+00  0.00000000E+00  0.00000000E+00  0.00000000E+00
  0.00000000E+00  0.00000000E+00  0.00000000E+00  0.00000000E+00  0.00000000E+00
  0.00000000E+00  0.00000000E+00  0.00000000E+00  0.00000000E+00  0.00000000E+00
  0.00000000E+00  0.00000000E+00  0.00000000E+00  0.00000000E+00  0.00000000E+00
  0.00000000E+00  0.00000000E+00  0.00000000E+00  0.00000000E+00  0.00000000E+00
  0.00000000E+00  0.00000000E+00  0.00000000E+00  0.00000000E+00  0.00000000E+00
  0.00000000E+00  0.00000000E+00  0.00000000E+00  0.00000000E+00  0.00000000E+00
  0.00000000E+00  0.00000000E+00  0.00000000E+00  0.00000000E+00  0.00000000E+00
  0.00000000E+00  0.00000000E+00  0.00000000E+00  0.00000000E+00  0.00000000E+00
  0.00000000E+00  0.00000000E+00  0.00000000E+00  0.00000000E+00  0.00000000E+00
  0.00000000E+00  0.00000000E+00  0.00000000E+00  0.00000000E+00  0.00000000E+00
  0.00000000E+00  0.00000000E+00  0.00000000E+00  0.00000000E+00  0.00000000E+00
  0.00000000E+00  0.00000000E+00  0.00000000E+00  0.00000000E+00  0.00000000E+00
  0.00000000E+00  0.00000000E+00  0.00000000E+00  0.00000000E+00  0.00000000E+00
  0.00000000E+00  0.00000000E+00  0.00000000E+00  0.00000000E+00  0.00000000E+00
  0.00000000E+00  0.00000000E+00  0.00000000E+00  0.00000000E+00  0.00000000E+00
  0.00000000E+00  0.00000000E+00  0.00000000E+00  0.00000000E+00  0.00000000E+00
  0.00000000E+00  0.00000000E+00  0.00000000E+00  0.00000000E+00  0.00000000E+00
  0.00000000E+00  0.00000000E+00  0.00000000E+00  0.00000000E+00  0.00000000E+00
  0.00000000E+00  0.00000000E+00  0.00000000E+00  0.00000000E+00  0.00000000E+00
  0.00000000E+00  0.00000000E+00  0.00000000E+00  0.00000000E+00  0.00000000E+00
  0.00000000E+00  0.00000000E+00  0.00000000E+00  0.00000000E+00  0.00000000E+00
  0.00000000E+00  0.00000000E+00  0.00000000E+00  0.00000000E+00  0.00000000E+00
  0.00000000E+00  0.00000000E+00  0.00000000E+00  0.00000000E+00  0.00000000E+00
  0.00000000E+00  0.00000000E+00  0.00000000E+00  0.00000000E+00  0.00000000E+00
  0.00000000E+00  0.00000000E+00  0.00000000E+00  0.00000000E+00  0.00000000E+00
  0.00000000E+00  0.00000000E+00  0.00000000E+00  0.00000000E+00  0.00000000E+00
  0.00000000E+00  0.00000000E+00  0.00000000E+00  0.00000000E+00  0.00000000E+00
  0.00000000E+00  0.00000000E+00  0.00000000E+00  0.00000000E+00  0.00000000E+00
  0.00000000E+00  0.00000000E+00  0.00000000E+00  0.00000000E+00  0.00000000E+00
  0.00000000E+00  0.00000000E+00  0.00000000E+00  0.00000000E+00  0.00000000E+00
  0.00000000E+00  0.00000000E+00  0.00000000E+00  0.00000000E+00  0.00000000E+00
  0.00000000E+00  0.00000000E+00  0.00000000E+00  0.00000000E+00  0.00000000E+00
  0.00000000E+00  0.00000000E+00  0.00000000E+00  0.00000000E+00  0.00000000E+00
  0.00000000E+00  0.00000000E+00  0.00000000E+00  0.00000000E+00  0.00000000E+00
  0.00000000E+00  0.00000000E+00  0.00000000E+00  0.00000000E+00  0.00000000E+00
  0.00000000E+00  0.00000000E+00  0.00000000E+00  0.00000000E+00  0.00000000E+00
  0.00000000E+00  0.00000000E+00  0.00000000E+00  0.00000000E+00  0.00000000E+00
  0.00000000E+00  0.00000000E+00  0.00000000E+00  0.00000000E+00  0.00000000E+00
  0.00000000E+00  0.00000000E+00  0.00000000E+00  0.00000000E+00  0.00000000E+00
  0.00000000E+00  0.00000000E+00  0.00000000E+00  0.00000000E+00  0.00000000E+00
  0.00000000E+00  0.00000000E+00  0.00000000E+00  0.00000000E+00  0.00000000E+00
  0.00000000E+00  0.00000000E+00  0.00000000E+00  0.00000000E+00  0.00000000E+00
  0.00000000E+00  0.00000000E+00  0.00000000E+00  0.00000000E+00  0.00000000E+00
  0.00000000E+00  0.00000000E+00  0.00000000E+00  0.00000000E+00  0.00000000E+00
  0.00000000E+00  0.00000000E+00  0.00000000E+00  0.00000000E+00  0.00000000E+00
  0.00000000E+00  0.00000000E+00  0.00000000E+00  0.00000000E+00  0.00000000E+00
  0.00000000E+00  0.00000000E+00  0.00000000E+00  0.00000000E+00  0.00000000E+00
  0.00000000E+00  0.00000000E+00  0.00000000E+00  0.00000000E+00  0.00000000E+00
  0.00000000E+00  0.00000000E+00  0.00000000E+00  0.00000000E+00  0.00000000E+00
  0.00000000E+00  0.00000000E+00  0.00000000E+00  0.00000000E+00  0.00000000E+00
  0.00000000E+00  0.00000000E+00  0.00000000E+00  0.00000000E+00  0.00000000E+00
  0.00000000E+00  0.00000000E+00  0.00000000E+00  0.00000000E+00  0.00000000E+00
  0.00000000E+00  0.00000000E+00  0.00000000E+00  0.00000000E+00  0.00000000E+00
  0.00000000E+00  0.00000000E+00  0.00000000E+00  0.00000000E+00  0.00000000E+00
  0.00000000E+00  0.00000000E+00  0.00000000E+00  0.00000000E+00  0.00000000E+00
  0.00000000E+00  0.00000000E+00  0.00000000E+00  0.00000000E+00  0.00000000E+00
  0.00000000E+00  0.00000000E+00  0.00000000E+00  0.00000000E+00  0.00000000E+00
  0.00000000E+00  0.00000000E+00  0.00000000E+00  0.00000000E+00  0.00000000E+00
  0.00000000E+00  0.00000000E+00  0.00000000E+00  0.00000000E+00  0.00000000E+00
  0.00000000E+00  0.00000000E+00  0.00000000E+00  0.00000000E+00  0.00000000E+00
  0.00000000E+00  0.00000000E+00  0.00000000E+00  0.00000000E+00  0.00000000E+00
  0.00000000E+00  0.00000000E+00  0.00000000E+00  0.00000000E+00  0.00000000E+00
  0.00000000E+00  0.00000000E+00  0.00000000E+00  0.00000000E+00  0.00000000E+00
  0.00000000E+00  0.00000000E+00  0.00000000E+00  0.00000000E+00  0.00000000E+00
  0.00000000E+00  0.00000000E+00  0.00000000E+00  0.00000000E+00  0.00000000E+00
  0.00000000E+00  0.00000000E+00  0.00000000E+00  0.00000000E+00  0.00000000E+00
  0.00000000E+00  0.00000000E+00  0.00000000E+00  0.00000000E+00  0.00000000E+00
  0.00000000E+00  0.00000000E+00  0.00000000E+00  0.00000000E+00  0.00000000E+00
  0.00000000E+00  0.00000000E+00  0.00000000E+00  0.00000000E+00  0.00000000E+00
  0.00000000E+00  0.00000000E+00  0.00000000E+00  0.00000000E+00  0.00000000E+00
  0.00000000E+00  0.00000000E+00  0.00000000E+00  0.00000000E+00  0.00000000E+00
  0.00000000E+00  0.00000000E+00  0.00000000E+00  0.00000000E+00  0.00000000E+00
  0.00000000E+00  0.00000000E+00  0.00000000E+00  0.00000000E+00  0.00000000E+00
  0.00000000E+00  0.00000000E+00  0.00000000E+00  0.00000000E+00  0.00000000E+00
  0.00000000E+00  0.00000000E+00  0.00000000E+00  0.00000000E+00  0.00000000E+00
  0.00000000E+00  0.00000000E+00  0.00000000E+00  0.00000000E+00  0.00000000E+00
  0.00000000E+00  0.00000000E+00  0.00000000E+00  0.00000000E+00  0.00000000E+00
  0.00000000E+00  0.00000000E+00  0.00000000E+00  0.00000000E+00  0.00000000E+00
  0.00000000E+00  0.00000000E+00  0.00000000E+00  0.00000000E+00  0.00000000E+00
  0.00000000E+00  0.00000000E+00  0.00000000E+00  0.00000000E+00  0.00000000E+00
  0.00000000E+00  0.00000000E+00  0.00000000E+00  0.00000000E+00  0.00000000E+00
  0.00000000E+00  0.00000000E+00  0.00000000E+00  0.00000000E+00  0.00000000E+00
  0.00000000E+00  0.00000000E+00  0.00000000E+00  0.00000000E+00  0.00000000E+00
  0.00000000E+00  0.00000000E+00  0.00000000E+00  0.00000000E+00  0.00000000E+00
  0.00000000E+00  0.00000000E+00  0.00000000E+00  0.00000000E+00  0.00000000E+00
  0.00000000E+00  0.00000000E+00  0.00000000E+00  0.00000000E+00  0.00000000E+00
  0.00000000E+00  0.00000000E+00  0.00000000E+00  0.00000000E+00  0.00000000E+00
  0.00000000E+00  0.00000000E+00  0.00000000E+00  0.00000000E+00  0.00000000E+00
  0.00000000E+00  0.00000000E+00  0.00000000E+00  0.00000000E+00  0.00000000E+00
  0.00000000E+00  0.00000000E+00  0.00000000E+00  0.00000000E+00  0.00000000E+00
  0.00000000E+00  0.00000000E+00  0.00000000E+00  0.00000000E+00  0.00000000E+00
  0.00000000E+00  0.00000000E+00  0.00000000E+00  0.00000000E+00  0.00000000E+00
  0.00000000E+00  0.00000000E+00  0.00000000E+00  0.00000000E+00  0.00000000E+00
  0.00000000E+00  0.00000000E+00  0.00000000E+00  0.00000000E+00  0.00000000E+00
  0.00000000E+00  0.00000000E+00  0.00000000E+00  0.00000000E+00  0.00000000E+00
  0.00000000E+00  0.00000000E+00  0.00000000E+00  0.00000000E+00  0.00000000E+00
  0.00000000E+00  0.00000000E+00  0.00000000E+00  0.00000000E+00  0.00000000E+00
  0.00000000E+00  0.00000000E+00  0.00000000E+00  0.00000000E+00  0.00000000E+00
  0.00000000E+00  0.00000000E+00  0.00000000E+00  0.00000000E+00  0.00000000E+00
  0.00000000E+00  0.00000000E+00  0.00000000E+00  0.00000000E+00  0.00000000E+00
  0.00000000E+00  0.00000000E+00  0.00000000E+00  0.00000000E+00  0.00000000E+00
  0.00000000E+00  0.00000000E+00  0.00000000E+00  0.00000000E+00  0.00000000E+00
  0.00000000E+00  0.00000000E+00  0.00000000E+00  0.00000000E+00  0.00000000E+00
  0.00000000E+00  0.00000000E+00  0.00000000E+00  0.00000000E+00  0.00000000E+00
  0.00000000E+00  0.00000000E+00  0.00000000E+00  0.00000000E+00  0.00000000E+00
  0.00000000E+00  0.00000000E+00  0.00000000E+00  0.00000000E+00  0.00000000E+00
  0.00000000E+00  0.00000000E+00  0.00000000E+00  0.00000000E+00  0.00000000E+00
  0.00000000E+00  0.00000000E+00  0.00000000E+00  0.00000000E+00  0.00000000E+00
  0.00000000E+00  0.00000000E+00  0.00000000E+00  0.00000000E+00  0.00000000E+00
  0.00000000E+00  0.00000000E+00  0.00000000E+00  0.00000000E+00  0.00000000E+00
  0.00000000E+00  0.00000000E+00  0.00000000E+00  0.00000000E+00  0.00000000E+00
  0.00000000E+00  0.00000000E+00  0.00000000E+00  0.00000000E+00  0.00000000E+00
  0.00000000E+00  0.00000000E+00  0.00000000E+00  0.00000000E+00  0.00000000E+00
  0.00000000E+00  0.00000000E+00  0.00000000E+00  0.00000000E+00  0.00000000E+00
  0.00000000E+00  0.00000000E+00  0.00000000E+00  0.00000000E+00  0.00000000E+00
  0.00000000E+00  0.00000000E+00  0.00000000E+00  0.00000000E+00  0.00000000E+00
  0.00000000E+00  0.00000000E+00  0.00000000E+00  0.00000000E+00  0.00000000E+00
  0.00000000E+00  0.00000000E+00  0.00000000E+00  0.00000000E+00  0.00000000E+00
  0.00000000E+00  0.00000000E+00  0.00000000E+00  0.00000000E+00  0.00000000E+00
  0.00000000E+00  0.00000000E+00  0.00000000E+00  0.00000000E+00  0.00000000E+00
  0.00000000E+00  0.00000000E+00  0.00000000E+00  0.00000000E+00  0.00000000E+00
  0.00000000E+00  0.00000000E+00  0.00000000E+00  0.00000000E+00  0.00000000E+00
  0.00000000E+00  0.00000000E+00  0.00000000E+00  0.00000000E+00  0.00000000E+00
  0.00000000E+00  0.00000000E+00  0.00000000E+00  0.00000000E+00  0.00000000E+00
  0.00000000E+00  0.00000000E+00  0.00000000E+00  0.00000000E+00  0.00000000E+00
  0.00000000E+00  0.00000000E+00  0.00000000E+00  0.00000000E+00  0.00000000E+00
  0.00000000E+00  0.00000000E+00  0.00000000E+00  0.00000000E+00  0.00000000E+00
  0.00000000E+00  0.00000000E+00  0.00000000E+00  0.00000000E+00  0.00000000E+00
  0.00000000E+00  0.00000000E+00  0.00000000E+00  0.00000000E+00  0.00000000E+00
  0.00000000E+00  0.00000000E+00  0.00000000E+00  0.00000000E+00  0.00000000E+00
  0.00000000E+00  0.00000000E+00  0.00000000E+00  0.00000000E+00  0.00000000E+00
  0.00000000E+00  0.00000000E+00  0.00000000E+00  0.00000000E+00  0.00000000E+00
  0.00000000E+00  0.00000000E+00  0.00000000E+00  0.00000000E+00  0.00000000E+00
  0.00000000E+00  0.00000000E+00  0.00000000E+00  0.00000000E+00  0.00000000E+00
  0.00000000E+00  0.00000000E+00  0.00000000E+00  0.00000000E+00  0.00000000E+00
  0.00000000E+00  0.00000000E+00  0.00000000E+00  0.00000000E+00  0.00000000E+00
  0.00000000E+00  0.00000000E+00  0.00000000E+00  0.00000000E+00  0.00000000E+00
  0.00000000E+00  0.00000000E+00  0.00000000E+00  0.00000000E+00  0.00000000E+00
  0.00000000E+00  0.00000000E+00  0.00000000E+00  0.00000000E+00  0.00000000E+00
  0.00000000E+00  0.00000000E+00  0.00000000E+00  0.00000000E+00  0.00000000E+00
  0.00000000E+00  0.00000000E+00  0.00000000E+00  0.00000000E+00  0.00000000E+00
  0.00000000E+00  0.00000000E+00  0.00000000E+00  0.00000000E+00  0.00000000E+00
  0.00000000E+00  0.00000000E+00  0.00000000E+00  0.00000000E+00  0.00000000E+00
  0.00000000E+00  0.00000000E+00  0.00000000E+00  0.00000000E+00  0.00000000E+00
  0.00000000E+00  0.00000000E+00  0.00000000E+00  0.00000000E+00  0.00000000E+00
  0.00000000E+00  0.00000000E+00  0.00000000E+00  0.00000000E+00  0.00000000E+00
  0.00000000E+00  0.00000000E+00  0.00000000E+00  0.00000000E+00  0.00000000E+00
  0.00000000E+00  0.00000000E+00  0.00000000E+00  0.00000000E+00  0.00000000E+00
  0.00000000E+00  0.00000000E+00  0.00000000E+00  0.00000000E+00  0.00000000E+00
  0.00000000E+00  0.00000000E+00  0.00000000E+00  0.00000000E+00  0.00000000E+00
  0.00000000E+00  0.00000000E+00  0.00000000E+00  0.00000000E+00  0.00000000E+00
  0.00000000E+00  0.00000000E+00  0.00000000E+00  0.00000000E+00  0.00000000E+00
  0.00000000E+00  0.00000000E+00  0.00000000E+00  0.00000000E+00  0.00000000E+00
  0.00000000E+00  0.00000000E+00  0.00000000E+00  0.00000000E+00  0.00000000E+00
  0.00000000E+00  0.00000000E+00  0.00000000E+00  0.00000000E+00  0.00000000E+00
  0.00000000E+00  0.00000000E+00  0.00000000E+00  0.00000000E+00  0.00000000E+00
  0.00000000E+00  0.00000000E+00  0.00000000E+00  0.00000000E+00  0.00000000E+00
  0.00000000E+00  0.00000000E+00  0.00000000E+00  0.00000000E+00  0.00000000E+00
  0.00000000E+00  0.00000000E+00  0.00000000E+00  0.00000000E+00  0.00000000E+00
  0.00000000E+00  0.00000000E+00  0.00000000E+00  0.00000000E+00  0.00000000E+00
  0.00000000E+00  0.00000000E+00  0.00000000E+00  0.00000000E+00  0.00000000E+00
  0.00000000E+00  0.00000000E+00  0.00000000E+00  0.00000000E+00  0.00000000E+00
  0.00000000E+00  0.00000000E+00  0.00000000E+00  0.00000000E+00  0.00000000E+00
  0.00000000E+00  0.00000000E+00  0.00000000E+00  0.00000000E+00  0.00000000E+00
  0.00000000E+00  0.00000000E+00  0.00000000E+00  0.00000000E+00  0.00000000E+00
  0.00000000E+00  0.00000000E+00  0.00000000E+00  0.00000000E+00  0.00000000E+00
  0.00000000E+00  0.00000000E+00  0.00000000E+00  0.00000000E+00  0.00000000E+00
  0.00000000E+00  0.00000000E+00  0.00000000E+00  0.00000000E+00  0.00000000E+00
  0.00000000E+00  0.00000000E+00  0.00000000E+00  0.00000000E+00  0.00000000E+00
  0.00000000E+00  0.00000000E+00  0.00000000E+00  0.00000000E+00  0.00000000E+00
  0.00000000E+00  0.00000000E+00  0.00000000E+00  0.00000000E+00  0.00000000E+00
  0.00000000E+00  0.00000000E+00  0.00000000E+00  0.00000000E+00  0.00000000E+00
  0.00000000E+00  0.00000000E+00  0.00000000E+00  0.00000000E+00  0.00000000E+00
  0.00000000E+00  0.00000000E+00  0.00000000E+00  0.00000000E+00  0.00000000E+00
  0.00000000E+00  0.00000000E+00  0.00000000E+00  0.00000000E+00  0.00000000E+00
  0.00000000E+00  0.00000000E+00  0.00000000E+00  0.00000000E+00  0.00000000E+00
  0.00000000E+00  0.00000000E+00  0.00000000E+00  0.00000000E+00  0.00000000E+00
  0.00000000E+00  0.00000000E+00  0.00000000E+00  0.00000000E+00  0.00000000E+00
  0.00000000E+00  0.00000000E+00  0.00000000E+00  0.00000000E+00  0.00000000E+00
  0.00000000E+00  0.00000000E+00  0.00000000E+00  0.00000000E+00  0.00000000E+00
  0.00000000E+00  0.00000000E+00  0.00000000E+00  0.00000000E+00  0.00000000E+00
  0.00000000E+00  0.00000000E+00  0.00000000E+00  0.00000000E+00  0.00000000E+00
  0.00000000E+00  0.00000000E+00  0.00000000E+00  0.00000000E+00  0.00000000E+00
  0.00000000E+00  0.00000000E+00  0.00000000E+00  0.00000000E+00  0.00000000E+00
  0.00000000E+00  0.00000000E+00  0.00000000E+00  0.00000000E+00  0.00000000E+00
  0.00000000E+00  0.00000000E+00  0.00000000E+00  0.00000000E+00  0.00000000E+00
  0.00000000E+00  0.00000000E+00  0.00000000E+00  0.00000000E+00  0.00000000E+00
  0.00000000E+00  0.00000000E+00  0.00000000E+00  0.00000000E+00  0.00000000E+00
  0.00000000E+00  0.00000000E+00  0.00000000E+00  0.00000000E+00  0.00000000E+00
  0.00000000E+00  0.00000000E+00  0.00000000E+00  0.00000000E+00  0.00000000E+00
  0.00000000E+00  0.00000000E+00  0.00000000E+00  0.00000000E+00  0.00000000E+00
  0.00000000E+00  0.00000000E+00  0.00000000E+00  0.00000000E+00  0.00000000E+00
  0.00000000E+00  0.00000000E+00  0.00000000E+00  0.00000000E+00  0.00000000E+00
  0.00000000E+00  0.00000000E+00  0.00000000E+00  0.00000000E+00  0.00000000E+00
  0.00000000E+00  0.00000000E+00  0.00000000E+00  0.00000000E+00  0.00000000E+00
  0.00000000E+00  0.00000000E+00  0.00000000E+00  0.00000000E+00  0.00000000E+00
  0.00000000E+00  0.00000000E+00  0.00000000E+00  0.00000000E+00  0.00000000E+00
  0.00000000E+00  0.00000000E+00  0.00000000E+00  0.00000000E+00  0.00000000E+00
  0.00000000E+00  0.00000000E+00  0.00000000E+00  0.00000000E+00  0.00000000E+00
  0.00000000E+00  0.00000000E+00  0.00000000E+00  0.00000000E+00  0.00000000E+00
  0.00000000E+00  0.00000000E+00  0.00000000E+00  0.00000000E+00  0.00000000E+00
  0.00000000E+00  0.00000000E+00  0.00000000E+00  0.00000000E+00  0.00000000E+00
  0.00000000E+00  0.00000000E+00  0.00000000E+00  0.00000000E+00  0.00000000E+00
  0.00000000E+00  0.00000000E+00  0.00000000E+00  0.00000000E+00  0.00000000E+00
  0.00000000E+00  0.00000000E+00  0.00000000E+00  0.00000000E+00  0.00000000E+00
  0.00000000E+00  0.00000000E+00  0.00000000E+00  0.00000000E+00  0.00000000E+00
  0.00000000E+00  0.00000000E+00  0.00000000E+00  0.00000000E+00  0.00000000E+00
  0.00000000E+00  0.00000000E+00  0.00000000E+00  0.00000000E+00  0.00000000E+00
  0.00000000E+00  0.00000000E+00  0.00000000E+00  0.00000000E+00  0.00000000E+00
  0.00000000E+00  0.00000000E+00  0.00000000E+00  0.00000000E+00  0.00000000E+00
  0.00000000E+00  0.00000000E+00  0.00000000E+00  0.00000000E+00  0.00000000E+00
  0.00000000E+00  0.00000000E+00  0.00000000E+00  0.00000000E+00  0.00000000E+00
  0.00000000E+00  0.00000000E+00  0.00000000E+00  0.00000000E+00  0.00000000E+00
  0.00000000E+00  0.00000000E+00  0.00000000E+00  0.00000000E+00  0.00000000E+00
  0.00000000E+00  0.00000000E+00  0.00000000E+00  0.00000000E+00  0.00000000E+00
  0.00000000E+00  0.00000000E+00  0.00000000E+00  0.00000000E+00  0.00000000E+00
  0.00000000E+00  0.00000000E+00  0.00000000E+00  0.00000000E+00  0.00000000E+00
  0.00000000E+00  0.00000000E+00  0.00000000E+00  0.00000000E+00  0.00000000E+00
  0.00000000E+00  0.00000000E+00  0.00000000E+00  0.00000000E+00  0.00000000E+00
  0.00000000E+00  0.00000000E+00  0.00000000E+00  0.00000000E+00  0.00000000E+00
  0.00000000E+00  0.00000000E+00  0.00000000E+00  0.00000000E+00  0.00000000E+00
  0.00000000E+00  0.00000000E+00  0.00000000E+00  0.00000000E+00  0.00000000E+00
  0.00000000E+00  0.00000000E+00  0.00000000E+00  0.00000000E+00  0.00000000E+00
  0.00000000E+00  0.00000000E+00  0.00000000E+00  0.00000000E+00  0.00000000E+00
  0.00000000E+00  0.00000000E+00  0.00000000E+00  0.00000000E+00  0.00000000E+00
  0.00000000E+00  0.00000000E+00  0.00000000E+00  0.00000000E+00  0.00000000E+00
  0.00000000E+00  0.00000000E+00  0.00000000E+00  0.00000000E+00  0.00000000E+00
  0.00000000E+00  0.00000000E+00  0.00000000E+00  0.00000000E+00  0.00000000E+00
  0.00000000E+00  0.00000000E+00  0.00000000E+00  0.00000000E+00  0.00000000E+00
  0.00000000E+00  0.00000000E+00  0.00000000E+00  0.00000000E+00  0.00000000E+00
  0.00000000E+00  0.00000000E+00  0.00000000E+00  0.00000000E+00  0.00000000E+00
  0.00000000E+00  0.00000000E+00  0.00000000E+00  0.00000000E+00  0.00000000E+00
  0.00000000E+00  0.00000000E+00  0.00000000E+00  0.00000000E+00  0.00000000E+00
  0.00000000E+00  0.00000000E+00  0.00000000E+00  0.00000000E+00  0.00000000E+00
  0.00000000E+00  0.00000000E+00  0.00000000E+00  0.00000000E+00  0.00000000E+00
  0.00000000E+00  0.00000000E+00  0.00000000E+00  0.00000000E+00  0.00000000E+00
  0.00000000E+00  0.00000000E+00  0.00000000E+00  0.00000000E+00  0.00000000E+00
  0.00000000E+00  0.00000000E+00  0.00000000E+00  0.00000000E+00  0.00000000E+00
  0.00000000E+00  0.00000000E+00  0.00000000E+00  0.00000000E+00  0.00000000E+00
  0.00000000E+00  0.00000000E+00  0.00000000E+00  0.00000000E+00  0.00000000E+00
  0.00000000E+00  0.00000000E+00  0.00000000E+00  0.00000000E+00  0.00000000E+00
  0.00000000E+00  0.00000000E+00  0.00000000E+00  0.00000000E+00  0.00000000E+00
  0.00000000E+00  0.00000000E+00  0.00000000E+00  0.00000000E+00  0.00000000E+00
  0.00000000E+00  0.00000000E+00  0.00000000E+00  0.00000000E+00  0.00000000E+00
  0.00000000E+00  0.00000000E+00  0.00000000E+00  0.00000000E+00  0.00000000E+00
  0.00000000E+00  0.00000000E+00  0.00000000E+00  0.00000000E+00  0.00000000E+00
  0.00000000E+00  0.00000000E+00  0.00000000E+00  0.00000000E+00  0.00000000E+00
  0.00000000E+00  0.00000000E+00  0.00000000E+00  0.00000000E+00  0.00000000E+00
  0.00000000E+00  0.00000000E+00  0.00000000E+00  0.00000000E+00  0.00000000E+00
  0.00000000E+00  0.00000000E+00  0.00000000E+00  0.00000000E+00  0.00000000E+00
  0.00000000E+00  0.00000000E+00  0.00000000E+00  0.00000000E+00  0.00000000E+00
  0.00000000E+00  0.00000000E+00  0.00000000E+00  0.00000000E+00  0.00000000E+00
  0.00000000E+00  0.00000000E+00  0.00000000E+00  0.00000000E+00  0.00000000E+00
  0.00000000E+00  0.00000000E+00  0.00000000E+00  0.00000000E+00  0.00000000E+00
  0.00000000E+00  0.00000000E+00  0.00000000E+00  0.00000000E+00  0.00000000E+00
  0.00000000E+00  0.00000000E+00  0.00000000E+00  0.00000000E+00  0.00000000E+00
  0.00000000E+00  0.00000000E+00  0.00000000E+00  0.00000000E+00  0.00000000E+00
  0.00000000E+00  0.00000000E+00  0.00000000E+00  0.00000000E+00  0.00000000E+00
  0.00000000E+00  0.00000000E+00  0.00000000E+00  0.00000000E+00  0.00000000E+00
  0.00000000E+00  0.00000000E+00  0.00000000E+00  0.00000000E+00  0.00000000E+00
  0.00000000E+00  0.00000000E+00  0.00000000E+00  0.00000000E+00  0.00000000E+00
  0.00000000E+00  0.00000000E+00  0.00000000E+00  0.00000000E+00  0.00000000E+00
  0.00000000E+00  0.00000000E+00  0.00000000E+00  0.00000000E+00  0.00000000E+00
  0.00000000E+00  0.00000000E+00  0.00000000E+00  0.00000000E+00  0.00000000E+00
  0.00000000E+00  0.00000000E+00  0.00000000E+00  0.00000000E+00  0.00000000E+00
  0.00000000E+00  0.00000000E+00  0.00000000E+00  0.00000000E+00  0.00000000E+00
  0.00000000E+00  0.00000000E+00  0.00000000E+00  0.00000000E+00  0.00000000E+00
  0.00000000E+00  0.00000000E+00  0.00000000E+00  0.00000000E+00  0.00000000E+00
  0.00000000E+00  0.00000000E+00  0.00000000E+00  0.00000000E+00  0.00000000E+00
  0.00000000E+00  0.00000000E+00  0.00000000E+00  0.00000000E+00  0.00000000E+00
  0.00000000E+00  0.00000000E+00  0.00000000E+00  0.00000000E+00  0.00000000E+00
  0.00000000E+00  0.00000000E+00  0.00000000E+00  0.00000000E+00  0.00000000E+00
  0.00000000E+00  0.00000000E+00  0.00000000E+00  0.00000000E+00  0.00000000E+00
  0.00000000E+00  0.00000000E+00  0.00000000E+00  0.00000000E+00  0.00000000E+00
  0.00000000E+00  0.00000000E+00  0.00000000E+00  0.00000000E+00  0.00000000E+00
  0.00000000E+00  0.00000000E+00  0.00000000E+00  0.00000000E+00  0.00000000E+00
  0.00000000E+00  0.00000000E+00  0.00000000E+00  0.00000000E+00  0.00000000E+00
  0.00000000E+00  0.00000000E+00  0.00000000E+00  0.00000000E+00  0.00000000E+00
  0.00000000E+00  0.00000000E+00  0.00000000E+00  0.00000000E+00  0.00000000E+00
  0.00000000E+00  0.00000000E+00  0.00000000E+00  0.00000000E+00  0.00000000E+00
  0.00000000E+00  0.00000000E+00  0.00000000E+00  0.00000000E+00  0.00000000E+00
  0.00000000E+00  0.00000000E+00  0.00000000E+00  0.00000000E+00  0.00000000E+00
  0.00000000E+00  0.00000000E+00  0.00000000E+00  0.00000000E+00  0.00000000E+00
  0.00000000E+00  0.00000000E+00  0.00000000E+00  0.00000000E+00  0.00000000E+00
  0.00000000E+00  0.00000000E+00  0.00000000E+00  0.00000000E+00  0.00000000E+00
  0.00000000E+00  0.00000000E+00  0.00000000E+00  0.00000000E+00  0.00000000E+00
  0.00000000E+00  0.00000000E+00  0.00000000E+00  0.00000000E+00  0.00000000E+00
  0.00000000E+00  0.00000000E+00  0.00000000E+00  0.00000000E+00  0.00000000E+00
  0.00000000E+00  0.00000000E+00  0.00000000E+00  0.00000000E+00  0.00000000E+00
  0.00000000E+00  0.00000000E+00  0.00000000E+00  0.00000000E+00  0.00000000E+00
  0.00000000E+00  0.00000000E+00  0.00000000E+00  0.00000000E+00  0.00000000E+00
  0.00000000E+00  0.00000000E+00  0.00000000E+00  0.00000000E+00  0.00000000E+00
  0.00000000E+00  0.00000000E+00  0.00000000E+00  0.00000000E+00  0.00000000E+00
  0.00000000E+00  0.00000000E+00  0.00000000E+00  0.00000000E+00  0.00000000E+00
  0.00000000E+00  0.00000000E+00  0.00000000E+00  0.00000000E+00  0.00000000E+00
  0.00000000E+00  0.00000000E+00  0.00000000E+00  0.00000000E+00  0.00000000E+00
  0.00000000E+00  0.00000000E+00  0.00000000E+00  0.00000000E+00  0.00000000E+00
  0.00000000E+00  0.00000000E+00  0.00000000E+00  0.00000000E+00  0.00000000E+00
  0.00000000E+00  0.00000000E+00  0.00000000E+00  0.00000000E+00  0.00000000E+00
  0.00000000E+00  0.00000000E+00  0.00000000E+00  0.00000000E+00  0.00000000E+00
  0.00000000E+00  0.00000000E+00  0.00000000E+00  0.00000000E+00  0.00000000E+00
  0.00000000E+00  0.00000000E+00  0.00000000E+00  0.00000000E+00  0.00000000E+00
  0.00000000E+00  0.00000000E+00  0.00000000E+00  0.00000000E+00  0.00000000E+00
  0.00000000E+00  0.00000000E+00  0.00000000E+00  0.00000000E+00  0.00000000E+00
  0.00000000E+00  0.00000000E+00  0.00000000E+00  0.00000000E+00  0.00000000E+00
  0.00000000E+00  0.00000000E+00  0.00000000E+00  0.00000000E+00  0.00000000E+00
  0.00000000E+00  0.00000000E+00  0.00000000E+00  0.00000000E+00  0.00000000E+00
  0.00000000E+00  0.00000000E+00  0.00000000E+00  0.00000000E+00  0.00000000E+00
  0.00000000E+00  0.00000000E+00  0.00000000E+00  0.00000000E+00  0.00000000E+00
  0.00000000E+00  0.00000000E+00  0.00000000E+00  0.00000000E+00  0.00000000E+00
  0.00000000E+00  0.00000000E+00  0.00000000E+00  0.00000000E+00  0.00000000E+00
  0.00000000E+00  0.00000000E+00  0.00000000E+00  0.00000000E+00  0.00000000E+00
  0.00000000E+00  0.00000000E+00  0.00000000E+00  0.00000000E+00  0.00000000E+00
  0.00000000E+00  0.00000000E+00  0.00000000E+00  0.00000000E+00  0.00000000E+00
  0.00000000E+00  0.00000000E+00  0.00000000E+00  0.00000000E+00  0.00000000E+00
  0.00000000E+00  0.00000000E+00  0.00000000E+00  0.00000000E+00  0.00000000E+00
  0.00000000E+00  0.00000000E+00  0.00000000E+00  0.00000000E+00  0.00000000E+00
  0.00000000E+00  0.00000000E+00  0.00000000E+00  0.00000000E+00  0.00000000E+00
  0.00000000E+00  0.00000000E+00  0.00000000E+00  0.00000000E+00  0.00000000E+00
  0.00000000E+00  0.00000000E+00  0.00000000E+00  0.00000000E+00  0.00000000E+00
  0.00000000E+00  0.00000000E+00  0.00000000E+00  0.00000000E+00  0.00000000E+00
  0.00000000E+00  0.00000000E+00  0.00000000E+00  0.00000000E+00  0.00000000E+00
  0.00000000E+00  0.00000000E+00  0.00000000E+00  0.00000000E+00  0.00000000E+00
  0.00000000E+00  0.00000000E+00  0.00000000E+00  0.00000000E+00  0.00000000E+00
  0.00000000E+00  0.00000000E+00  0.00000000E+00  0.00000000E+00  0.00000000E+00
  0.00000000E+00  0.00000000E+00  0.00000000E+00  0.00000000E+00  0.00000000E+00
  0.00000000E+00  0.00000000E+00  0.00000000E+00  0.00000000E+00  0.00000000E+00
  0.00000000E+00  0.00000000E+00  0.00000000E+00  0.00000000E+00  0.00000000E+00
  0.00000000E+00  0.00000000E+00  0.00000000E+00  0.00000000E+00  0.00000000E+00
  0.00000000E+00  0.00000000E+00  0.00000000E+00  0.00000000E+00  0.00000000E+00
  0.00000000E+00  0.00000000E+00  0.00000000E+00  0.00000000E+00  0.00000000E+00
  0.00000000E+00  0.00000000E+00  0.00000000E+00  0.00000000E+00  0.00000000E+00
  0.00000000E+00  0.00000000E+00  0.00000000E+00  0.00000000E+00  0.00000000E+00
  0.00000000E+00  0.00000000E+00  0.00000000E+00  0.00000000E+00  0.00000000E+00
  0.00000000E+00  0.00000000E+00  0.00000000E+00  0.00000000E+00  0.00000000E+00
  0.00000000E+00  0.00000000E+00  0.00000000E+00  0.00000000E+00  0.00000000E+00
  0.00000000E+00  0.00000000E+00  0.00000000E+00  0.00000000E+00  0.00000000E+00
  0.00000000E+00  0.00000000E+00  0.00000000E+00  0.00000000E+00  0.00000000E+00
  0.00000000E+00  0.00000000E+00  0.00000000E+00  0.00000000E+00  0.00000000E+00
  0.00000000E+00  0.00000000E+00  0.00000000E+00  0.00000000E+00  0.00000000E+00
  0.00000000E+00  0.00000000E+00  0.00000000E+00  0.00000000E+00  0.00000000E+00
  0.00000000E+00  0.00000000E+00  0.00000000E+00  0.00000000E+00  0.00000000E+00
  0.00000000E+00  0.00000000E+00  0.00000000E+00  0.00000000E+00  0.00000000E+00
  0.00000000E+00  0.00000000E+00  0.00000000E+00  0.00000000E+00  0.00000000E+00
  0.00000000E+00  0.00000000E+00  0.00000000E+00  0.00000000E+00  0.00000000E+00
  0.00000000E+00  0.00000000E+00  0.00000000E+00  0.00000000E+00  0.00000000E+00
  0.00000000E+00  0.00000000E+00  0.00000000E+00  0.00000000E+00  0.00000000E+00
  0.00000000E+00  0.00000000E+00  0.00000000E+00  0.00000000E+00  0.00000000E+00
  0.00000000E+00  0.00000000E+00  0.00000000E+00  0.00000000E+00  0.00000000E+00
  0.00000000E+00  0.00000000E+00  0.00000000E+00  0.00000000E+00  0.00000000E+00
  0.00000000E+00  0.00000000E+00  0.00000000E+00  0.00000000E+00  0.00000000E+00
  0.00000000E+00  0.00000000E+00  0.00000000E+00  0.00000000E+00  0.00000000E+00
  0.00000000E+00  0.00000000E+00  0.00000000E+00  0.00000000E+00  0.00000000E+00
  0.00000000E+00  0.00000000E+00  0.00000000E+00  0.00000000E+00  0.00000000E+00
  0.00000000E+00  0.00000000E+00  0.00000000E+00  0.00000000E+00  0.00000000E+00
  0.00000000E+00  0.00000000E+00  0.00000000E+00  0.00000000E+00  0.00000000E+00
  0.00000000E+00  0.00000000E+00  0.00000000E+00  0.00000000E+00  0.00000000E+00
  0.00000000E+00  0.00000000E+00  0.00000000E+00  0.00000000E+00  0.00000000E+00
  0.00000000E+00  0.00000000E+00  0.00000000E+00  0.00000000E+00  0.00000000E+00
  0.00000000E+00  0.00000000E+00  0.00000000E+00  0.00000000E+00  0.00000000E+00
  0.00000000E+00  0.00000000E+00  0.00000000E+00  0.00000000E+00  0.00000000E+00
  0.00000000E+00  0.00000000E+00  0.00000000E+00  0.00000000E+00  0.00000000E+00
  0.00000000E+00  0.00000000E+00  0.00000000E+00  0.00000000E+00  0.00000000E+00
  0.00000000E+00  0.00000000E+00  0.00000000E+00  0.00000000E+00  0.00000000E+00
  0.00000000E+00  0.00000000E+00  0.00000000E+00  0.00000000E+00  0.00000000E+00
  0.00000000E+00  0.00000000E+00  0.00000000E+00  0.00000000E+00  0.00000000E+00
  0.00000000E+00  0.00000000E+00  0.00000000E+00  0.00000000E+00  0.00000000E+00
  0.00000000E+00  0.00000000E+00  0.00000000E+00  0.00000000E+00  0.00000000E+00
  0.00000000E+00  0.00000000E+00  0.00000000E+00  0.00000000E+00  0.00000000E+00
  0.00000000E+00  0.00000000E+00  0.00000000E+00  0.00000000E+00  0.00000000E+00
  0.00000000E+00  0.00000000E+00  0.00000000E+00  0.00000000E+00  0.00000000E+00
  0.00000000E+00  0.00000000E+00  0.00000000E+00  0.00000000E+00  0.00000000E+00
  0.00000000E+00  0.00000000E+00  0.00000000E+00  0.00000000E+00  0.00000000E+00
  0.00000000E+00  0.00000000E+00  0.00000000E+00  0.00000000E+00  0.00000000E+00
  0.00000000E+00  0.00000000E+00  0.00000000E+00  0.00000000E+00  0.00000000E+00
  0.00000000E+00  0.00000000E+00  0.00000000E+00  0.00000000E+00  0.00000000E+00
  0.00000000E+00  0.00000000E+00  0.00000000E+00  0.00000000E+00  0.00000000E+00
  0.00000000E+00  0.00000000E+00  0.00000000E+00  0.00000000E+00  0.00000000E+00
  0.00000000E+00  0.00000000E+00  0.00000000E+00  0.00000000E+00  0.00000000E+00
  0.00000000E+00  0.00000000E+00  0.00000000E+00  0.00000000E+00  0.00000000E+00
  0.00000000E+00  0.00000000E+00  0.00000000E+00  0.00000000E+00  0.00000000E+00
  0.00000000E+00  0.00000000E+00  0.00000000E+00  0.00000000E+00  0.00000000E+00
  0.00000000E+00  0.00000000E+00  0.00000000E+00  0.00000000E+00  0.00000000E+00
  0.00000000E+00  0.00000000E+00  0.00000000E+00  0.00000000E+00  0.00000000E+00
  0.00000000E+00  0.00000000E+00  0.00000000E+00  0.00000000E+00  0.00000000E+00
  0.00000000E+00  0.00000000E+00  0.00000000E+00  0.00000000E+00  0.00000000E+00
  0.00000000E+00  0.00000000E+00  0.00000000E+00  0.00000000E+00  0.00000000E+00
  0.00000000E+00  0.00000000E+00  0.00000000E+00  0.00000000E+00  0.00000000E+00
  0.00000000E+00  0.00000000E+00  0.00000000E+00  0.00000000E+00  0.00000000E+00
  0.00000000E+00  0.00000000E+00  0.00000000E+00  0.00000000E+00  0.00000000E+00
  0.00000000E+00  0.00000000E+00  0.00000000E+00  0.00000000E+00  0.00000000E+00
  0.00000000E+00  0.00000000E+00  0.00000000E+00  0.00000000E+00  0.00000000E+00
  0.00000000E+00  0.00000000E+00  0.00000000E+00  0.00000000E+00  0.00000000E+00
  0.00000000E+00  0.00000000E+00  0.00000000E+00  0.00000000E+00  0.00000000E+00
  0.00000000E+00  0.00000000E+00  0.00000000E+00  0.00000000E+00  0.00000000E+00
  0.00000000E+00  0.00000000E+00  0.00000000E+00  0.00000000E+00  0.00000000E+00
  0.00000000E+00  0.00000000E+00  0.00000000E+00  0.00000000E+00  0.00000000E+00
  0.00000000E+00  0.00000000E+00  0.00000000E+00  0.00000000E+00  0.00000000E+00
  0.00000000E+00  0.00000000E+00  0.00000000E+00  0.00000000E+00  0.00000000E+00
  0.00000000E+00  0.00000000E+00  0.00000000E+00  0.00000000E+00  0.00000000E+00
  0.00000000E+00  0.00000000E+00  0.00000000E+00  0.00000000E+00  0.00000000E+00
  0.00000000E+00  0.00000000E+00  0.00000000E+00  0.00000000E+00  0.00000000E+00
  0.00000000E+00  0.00000000E+00  0.00000000E+00  0.00000000E+00  0.00000000E+00
  0.00000000E+00  0.00000000E+00  0.00000000E+00  0.00000000E+00  0.00000000E+00
  0.00000000E+00  0.00000000E+00  0.00000000E+00  0.00000000E+00  0.00000000E+00
Pure Switching                             I                1
Dipole_Data                                R   N=           3
  1.17709932E-15  3.27880166E-15 -1.52047513E-05
Quadrupole_Data                            R   N=           6
 -3.34375298E+00 -1.41841411E-16 -3.34375298E+00  3.31153987E-15  3.88806177E-16
 -3.29688279E+00
Octapole_Data                              R   N=          10
  1.43317096E-15  1.96355921E-15  4.77723654E-16  5.89067764E-15 -6.72232508E-05
  5.31652374E-16 -6.72232509E-05 -2.22352629E-15  6.76536174E-15 -3.27310057E-04
Hexadecapole_Data                          R   N=          15
 -3.52464810E+00 -1.58062904E-16 -1.17488270E+00 -1.58062904E-16 -3.52464810E+00
  6.43315367E-15  4.35741321E-16  2.14438456E-15  1.30722396E-15 -3.53096456E+00
 -4.44574495E-16 -3.53096456E+00  1.39134093E-14  4.31130957E-15 -1.69306650E+01
